 Entering Gaussian System, Link 0=/applications/g16/g16/g16
 Initial command:
 /applications/g16/g16/l1.exe "/scratch/g98/Gau-7251.inp" -scrdir="/scratch/g98/"
 Entering Link 1 = /applications/g16/g16/l1.exe PID=      7252.
  
 Copyright (c) 1988,1990,1992,1993,1995,1998,2003,2009,2016,
            Gaussian, Inc.  All Rights Reserved.
  
 This is part of the Gaussian(R) 16 program.  It is based on
 the Gaussian(R) 09 system (copyright 2009, Gaussian, Inc.),
 the Gaussian(R) 03 system (copyright 2003, Gaussian, Inc.),
 the Gaussian(R) 98 system (copyright 1998, Gaussian, Inc.),
 the Gaussian(R) 94 system (copyright 1995, Gaussian, Inc.),
 the Gaussian 92(TM) system (copyright 1992, Gaussian, Inc.),
 the Gaussian 90(TM) system (copyright 1990, Gaussian, Inc.),
 the Gaussian 88(TM) system (copyright 1988, Gaussian, Inc.),
 the Gaussian 86(TM) system (copyright 1986, Carnegie Mellon
 University), and the Gaussian 82(TM) system (copyright 1983,
 Carnegie Mellon University). Gaussian is a federally registered
 trademark of Gaussian, Inc.
  
 This software contains proprietary and confidential information,
 including trade secrets, belonging to Gaussian, Inc.
  
 This software is provided under written license and may be
 used, copied, transmitted, or stored only in accord with that
 written license.
  
 The following legend is applicable only to US Government
 contracts under FAR:
  
                    RESTRICTED RIGHTS LEGEND
  
 Use, reproduction and disclosure by the US Government is
 subject to restrictions as set forth in subparagraphs (a)
 and (c) of the Commercial Computer Software - Restricted
 Rights clause in FAR 52.227-19.
  
 Gaussian, Inc.
 340 Quinnipiac St., Bldg. 40, Wallingford CT 06492
  
  
 ---------------------------------------------------------------
 Warning -- This program may not be used in any manner that
 competes with the business of Gaussian, Inc. or will provide
 assistance to any competitor of Gaussian, Inc.  The licensee
 of this program is prohibited from giving any competitor of
 Gaussian, Inc. access to this program.  By using this program,
 the user acknowledges that Gaussian, Inc. is engaged in the
 business of creating and licensing software in the field of
 computational chemistry and represents and warrants to the
 licensee that it is not a competitor of Gaussian, Inc. and that
 it will not use this program in any manner prohibited above.
 ---------------------------------------------------------------
  

 Cite this work as:
 Gaussian 16, Revision A.03,
 M. J. Frisch, G. W. Trucks, H. B. Schlegel, G. E. Scuseria, 
 M. A. Robb, J. R. Cheeseman, G. Scalmani, V. Barone, 
 G. A. Petersson, H. Nakatsuji, X. Li, M. Caricato, A. V. Marenich, 
 J. Bloino, B. G. Janesko, R. Gomperts, B. Mennucci, H. P. Hratchian, 
 J. V. Ortiz, A. F. Izmaylov, J. L. Sonnenberg, D. Williams-Young, 
 F. Ding, F. Lipparini, F. Egidi, J. Goings, B. Peng, A. Petrone, 
 T. Henderson, D. Ranasinghe, V. G. Zakrzewski, J. Gao, N. Rega, 
 G. Zheng, W. Liang, M. Hada, M. Ehara, K. Toyota, R. Fukuda, 
 J. Hasegawa, M. Ishida, T. Nakajima, Y. Honda, O. Kitao, H. Nakai, 
 T. Vreven, K. Throssell, J. A. Montgomery, Jr., J. E. Peralta, 
 F. Ogliaro, M. J. Bearpark, J. J. Heyd, E. N. Brothers, K. N. Kudin, 
 V. N. Staroverov, T. A. Keith, R. Kobayashi, J. Normand, 
 K. Raghavachari, A. P. Rendell, J. C. Burant, S. S. Iyengar, 
 J. Tomasi, M. Cossi, J. M. Millam, M. Klene, C. Adamo, R. Cammi, 
 J. W. Ochterski, R. L. Martin, K. Morokuma, O. Farkas, 
 J. B. Foresman, and D. J. Fox, Gaussian, Inc., Wallingford CT, 2016.
 
 ******************************************
 Gaussian 16:  EM64M-G16RevA.03 25-Dec-2016
                28-Sep-2026 
 ******************************************
 %nprocshared=22
 Will use up to   22 processors via shared memory.
 %mem=48GB
 %chk=aminopropyl_betaine.chk
 ----------------------------------------
 # opt freq wb97xd/6-311+g(2d,2p) scf=xqc
 ----------------------------------------
 1/18=20,19=15,26=3,38=1/1,3;
 2/9=110,12=2,17=6,18=5,40=1/2;
 3/5=4,6=6,7=212,11=2,25=1,30=1,71=1,74=-58/1,2,3;
 4//1;
 5/5=2,8=3,13=1,38=5/2,8;
 6/7=2,8=2,9=2,10=2,28=1/1;
 7//1,2,3,16;
 1/18=20,19=15,26=3/3(2);
 2/9=110/2;
 99//99;
 2/9=110/2;
 3/5=4,6=6,7=212,11=2,25=1,30=1,71=1,74=-58/1,2,3;
 4/5=5,16=3,69=1/1;
 5/5=2,8=3,13=1,38=5/2,8;
 7//1,2,3,16;
 1/18=20,19=15,26=3/3(-5);
 2/9=110/2;
 6/7=2,8=2,9=2,10=2,19=2,28=1/1;
 99/9=1/99;
 --------
 opt freq
 --------
 Symbolic Z-matrix:
 Charge =  0 Multiplicity = 2
 N                     2.39268   1.03835   0.42016 
 H                     2.16795   1.417     1.32761 
 C                     1.2909    0.47285  -0.3437 
 H                     0.59478   1.28106  -0.56485 
 H                     1.7008    0.14093  -1.29755 
 C                     0.58963  -0.69584   0.35645 
 H                     0.22473  -0.37452   1.33274 
 H                     1.3349   -1.46503   0.54978 
 C                    -0.53132  -1.31587  -0.47757 
 H                    -0.39052  -1.07919  -1.53227 
 H                    -0.52126  -2.40054  -0.3831 
 N                    -1.93811  -0.89586  -0.14301 
 C                    -2.32848  -1.40536   1.20551 
 H                    -3.35473  -1.09025   1.37573 
 H                    -2.22919  -2.48856   1.20857 
 H                    -1.67494  -0.96965   1.95473 
 C                    -2.8483   -1.50386  -1.16155 
 H                    -2.72084  -2.58394  -1.14089 
 H                    -3.86177  -1.20794  -0.90486 
 H                    -2.5764   -1.11417  -2.13943 
 C                    -2.07932   0.61124  -0.18636 
 H                    -1.74072   0.92843  -1.17083 
 H                    -1.41117   1.01676   0.56796 
 C                    -3.51005   1.2184    0.07421 
 O                    -4.4324    0.42535   0.33505 
 O                    -3.47145   2.44208  -0.02056 
 

 GradGradGradGradGradGradGradGradGradGradGradGradGradGradGradGradGradGrad
 Berny optimization.
 Initialization pass.
                           ----------------------------
                           !    Initial Parameters    !
                           ! (Angstroms and Degrees)  !
 --------------------------                            --------------------------
 ! Name  Definition              Value          Derivative Info.                !
 --------------------------------------------------------------------------------
 ! R1    R(1,2)                  1.0086         estimate D2E/DX2                !
 ! R2    R(1,3)                  1.4551         estimate D2E/DX2                !
 ! R3    R(3,4)                  1.0894         estimate D2E/DX2                !
 ! R4    R(3,5)                  1.09           estimate D2E/DX2                !
 ! R5    R(3,6)                  1.5323         estimate D2E/DX2                !
 ! R6    R(6,7)                  1.0907         estimate D2E/DX2                !
 ! R7    R(6,8)                  1.0883         estimate D2E/DX2                !
 ! R8    R(6,9)                  1.5286         estimate D2E/DX2                !
 ! R9    R(9,10)                 1.0901         estimate D2E/DX2                !
 ! R10   R(9,11)                 1.0888         estimate D2E/DX2                !
 ! R11   R(9,12)                 1.5058         estimate D2E/DX2                !
 ! R12   R(12,13)                1.4935         estimate D2E/DX2                !
 ! R13   R(12,17)                1.4952         estimate D2E/DX2                !
 ! R14   R(12,21)                1.5143         estimate D2E/DX2                !
 ! R15   R(13,14)                1.0869         estimate D2E/DX2                !
 ! R16   R(13,15)                1.0877         estimate D2E/DX2                !
 ! R17   R(13,16)                1.0855         estimate D2E/DX2                !
 ! R18   R(17,18)                1.0878         estimate D2E/DX2                !
 ! R19   R(17,19)                1.0865         estimate D2E/DX2                !
 ! R20   R(17,20)                1.0872         estimate D2E/DX2                !
 ! R21   R(21,22)                1.0883         estimate D2E/DX2                !
 ! R22   R(21,23)                1.0862         estimate D2E/DX2                !
 ! R23   R(21,24)                1.5759         estimate D2E/DX2                !
 ! R24   R(24,25)                1.2441         estimate D2E/DX2                !
 ! R25   R(24,26)                1.228          estimate D2E/DX2                !
 ! A1    A(2,1,3)              116.7114         estimate D2E/DX2                !
 ! A2    A(1,3,4)              107.5839         estimate D2E/DX2                !
 ! A3    A(1,3,5)              107.0379         estimate D2E/DX2                !
 ! A4    A(1,3,6)              113.772          estimate D2E/DX2                !
 ! A5    A(4,3,5)              106.7739         estimate D2E/DX2                !
 ! A6    A(4,3,6)              111.4798         estimate D2E/DX2                !
 ! A7    A(5,3,6)              109.8602         estimate D2E/DX2                !
 ! A8    A(3,6,7)              109.7212         estimate D2E/DX2                !
 ! A9    A(3,6,8)              107.8677         estimate D2E/DX2                !
 ! A10   A(3,6,9)              113.3089         estimate D2E/DX2                !
 ! A11   A(7,6,8)              106.1595         estimate D2E/DX2                !
 ! A12   A(7,6,9)              111.2575         estimate D2E/DX2                !
 ! A13   A(8,6,9)              108.2048         estimate D2E/DX2                !
 ! A14   A(6,9,10)             110.1894         estimate D2E/DX2                !
 ! A15   A(6,9,11)             110.4856         estimate D2E/DX2                !
 ! A16   A(6,9,12)             116.7919         estimate D2E/DX2                !
 ! A17   A(10,9,11)            107.4003         estimate D2E/DX2                !
 ! A18   A(10,9,12)            105.9669         estimate D2E/DX2                !
 ! A19   A(11,9,12)            105.4988         estimate D2E/DX2                !
 ! A20   A(9,12,13)            110.4663         estimate D2E/DX2                !
 ! A21   A(9,12,17)            107.6953         estimate D2E/DX2                !
 ! A22   A(9,12,21)            110.999          estimate D2E/DX2                !
 ! A23   A(13,12,17)           108.4969         estimate D2E/DX2                !
 ! A24   A(13,12,21)           109.9377         estimate D2E/DX2                !
 ! A25   A(17,12,21)           109.1743         estimate D2E/DX2                !
 ! A26   A(12,13,14)           106.8154         estimate D2E/DX2                !
 ! A27   A(12,13,15)           108.5667         estimate D2E/DX2                !
 ! A28   A(12,13,16)           109.2028         estimate D2E/DX2                !
 ! A29   A(14,13,15)           111.9899         estimate D2E/DX2                !
 ! A30   A(14,13,16)           110.1197         estimate D2E/DX2                !
 ! A31   A(15,13,16)           110.0486         estimate D2E/DX2                !
 ! A32   A(12,17,18)           108.6327         estimate D2E/DX2                !
 ! A33   A(12,17,19)           107.225          estimate D2E/DX2                !
 ! A34   A(12,17,20)           108.3436         estimate D2E/DX2                !
 ! A35   A(18,17,19)           112.0393         estimate D2E/DX2                !
 ! A36   A(18,17,20)           110.1006         estimate D2E/DX2                !
 ! A37   A(19,17,20)           110.3733         estimate D2E/DX2                !
 ! A38   A(12,21,22)           106.6751         estimate D2E/DX2                !
 ! A39   A(12,21,23)           107.1166         estimate D2E/DX2                !
 ! A40   A(12,21,24)           117.6038         estimate D2E/DX2                !
 ! A41   A(22,21,23)           109.1474         estimate D2E/DX2                !
 ! A42   A(22,21,24)           108.6471         estimate D2E/DX2                !
 ! A43   A(23,21,24)           107.4447         estimate D2E/DX2                !
 ! A44   A(21,24,25)           117.5271         estimate D2E/DX2                !
 ! A45   A(21,24,26)           110.0372         estimate D2E/DX2                !
 ! A46   A(25,24,26)           132.4336         estimate D2E/DX2                !
 ! D1    D(2,1,3,4)             63.9429         estimate D2E/DX2                !
 ! D2    D(2,1,3,5)            178.3838         estimate D2E/DX2                !
 ! D3    D(2,1,3,6)            -60.066          estimate D2E/DX2                !
 ! D4    D(1,3,6,7)             57.1653         estimate D2E/DX2                !
 ! D5    D(1,3,6,8)            -58.0611         estimate D2E/DX2                !
 ! D6    D(1,3,6,9)           -177.8172         estimate D2E/DX2                !
 ! D7    D(4,3,6,7)            -64.7101         estimate D2E/DX2                !
 ! D8    D(4,3,6,8)           -179.9364         estimate D2E/DX2                !
 ! D9    D(4,3,6,9)             60.3074         estimate D2E/DX2                !
 ! D10   D(5,3,6,7)            177.1332         estimate D2E/DX2                !
 ! D11   D(5,3,6,8)             61.9069         estimate D2E/DX2                !
 ! D12   D(5,3,6,9)            -57.8493         estimate D2E/DX2                !
 ! D13   D(3,6,9,10)            21.2406         estimate D2E/DX2                !
 ! D14   D(3,6,9,11)           139.7637         estimate D2E/DX2                !
 ! D15   D(3,6,9,12)           -99.6914         estimate D2E/DX2                !
 ! D16   D(7,6,9,10)           145.4259         estimate D2E/DX2                !
 ! D17   D(7,6,9,11)           -96.051          estimate D2E/DX2                !
 ! D18   D(7,6,9,12)            24.4939         estimate D2E/DX2                !
 ! D19   D(8,6,9,10)           -98.3228         estimate D2E/DX2                !
 ! D20   D(8,6,9,11)            20.2003         estimate D2E/DX2                !
 ! D21   D(8,6,9,12)           140.7452         estimate D2E/DX2                !
 ! D22   D(6,9,12,13)          -67.4876         estimate D2E/DX2                !
 ! D23   D(6,9,12,17)          174.1843         estimate D2E/DX2                !
 ! D24   D(6,9,12,21)           54.729          estimate D2E/DX2                !
 ! D25   D(10,9,12,13)         169.3767         estimate D2E/DX2                !
 ! D26   D(10,9,12,17)          51.0487         estimate D2E/DX2                !
 ! D27   D(10,9,12,21)         -68.4067         estimate D2E/DX2                !
 ! D28   D(11,9,12,13)          55.6656         estimate D2E/DX2                !
 ! D29   D(11,9,12,17)         -62.6624         estimate D2E/DX2                !
 ! D30   D(11,9,12,21)         177.8823         estimate D2E/DX2                !
 ! D31   D(9,12,13,14)        -178.7032         estimate D2E/DX2                !
 ! D32   D(9,12,13,15)         -57.7622         estimate D2E/DX2                !
 ! D33   D(9,12,13,16)          62.2334         estimate D2E/DX2                !
 ! D34   D(17,12,13,14)        -60.866          estimate D2E/DX2                !
 ! D35   D(17,12,13,15)         60.075          estimate D2E/DX2                !
 ! D36   D(17,12,13,16)       -179.9295         estimate D2E/DX2                !
 ! D37   D(21,12,13,14)         58.4591         estimate D2E/DX2                !
 ! D38   D(21,12,13,15)        179.4            estimate D2E/DX2                !
 ! D39   D(21,12,13,16)        -60.6044         estimate D2E/DX2                !
 ! D40   D(9,12,17,18)          57.9295         estimate D2E/DX2                !
 ! D41   D(9,12,17,19)         179.2032         estimate D2E/DX2                !
 ! D42   D(9,12,17,20)         -61.6669         estimate D2E/DX2                !
 ! D43   D(13,12,17,18)        -61.6577         estimate D2E/DX2                !
 ! D44   D(13,12,17,19)         59.616          estimate D2E/DX2                !
 ! D45   D(13,12,17,20)        178.7458         estimate D2E/DX2                !
 ! D46   D(21,12,17,18)        178.5391         estimate D2E/DX2                !
 ! D47   D(21,12,17,19)        -60.1872         estimate D2E/DX2                !
 ! D48   D(21,12,17,20)         58.9427         estimate D2E/DX2                !
 ! D49   D(9,12,21,22)          54.9833         estimate D2E/DX2                !
 ! D50   D(9,12,21,23)         -61.7932         estimate D2E/DX2                !
 ! D51   D(9,12,21,24)         177.2099         estimate D2E/DX2                !
 ! D52   D(13,12,21,22)        177.5068         estimate D2E/DX2                !
 ! D53   D(13,12,21,23)         60.7303         estimate D2E/DX2                !
 ! D54   D(13,12,21,24)        -60.2667         estimate D2E/DX2                !
 ! D55   D(17,12,21,22)        -63.583          estimate D2E/DX2                !
 ! D56   D(17,12,21,23)        179.6404         estimate D2E/DX2                !
 ! D57   D(17,12,21,24)         58.6435         estimate D2E/DX2                !
 ! D58   D(12,21,24,25)          1.8472         estimate D2E/DX2                !
 ! D59   D(12,21,24,26)       -178.6113         estimate D2E/DX2                !
 ! D60   D(22,21,24,25)        123.0578         estimate D2E/DX2                !
 ! D61   D(22,21,24,26)        -57.4007         estimate D2E/DX2                !
 ! D62   D(23,21,24,25)       -118.9793         estimate D2E/DX2                !
 ! D63   D(23,21,24,26)         60.5622         estimate D2E/DX2                !
 --------------------------------------------------------------------------------
 Trust Radius=3.00D-01 FncErr=1.00D-07 GrdErr=1.00D-06 EigMax=2.50D+02 EigMin=1.00D-04
 Number of steps in this run=    144 maximum allowed number of steps=    156.
 GradGradGradGradGradGradGradGradGradGradGradGradGradGradGradGradGradGrad

                          Input orientation:                          
 ---------------------------------------------------------------------
 Center     Atomic      Atomic             Coordinates (Angstroms)
 Number     Number       Type             X           Y           Z
 ---------------------------------------------------------------------
      1          7           0        2.392680    1.038350    0.420158
      2          1           0        2.167951    1.417001    1.327605
      3          6           0        1.290900    0.472853   -0.343704
      4          1           0        0.594780    1.281064   -0.564847
      5          1           0        1.700797    0.140933   -1.297546
      6          6           0        0.589625   -0.695836    0.356452
      7          1           0        0.224734   -0.374523    1.332741
      8          1           0        1.334903   -1.465026    0.549777
      9          6           0       -0.531321   -1.315867   -0.477565
     10          1           0       -0.390523   -1.079186   -1.532267
     11          1           0       -0.521264   -2.400543   -0.383104
     12          7           0       -1.938114   -0.895862   -0.143011
     13          6           0       -2.328485   -1.405363    1.205507
     14          1           0       -3.354727   -1.090248    1.375729
     15          1           0       -2.229190   -2.488564    1.208571
     16          1           0       -1.674942   -0.969645    1.954734
     17          6           0       -2.848301   -1.503863   -1.161546
     18          1           0       -2.720835   -2.583940   -1.140892
     19          1           0       -3.861773   -1.207938   -0.904855
     20          1           0       -2.576401   -1.114172   -2.139427
     21          6           0       -2.079317    0.611244   -0.186361
     22          1           0       -1.740718    0.928434   -1.170832
     23          1           0       -1.411168    1.016765    0.567961
     24          6           0       -3.510049    1.218403    0.074212
     25          8           0       -4.432405    0.425355    0.335047
     26          8           0       -3.471446    2.442084   -0.020555
 ---------------------------------------------------------------------
                    Distance matrix (angstroms):
                    1          2          3          4          5
     1  N    0.000000
     2  H    1.008632   0.000000
     3  C    1.455057   2.110428   0.000000
     4  H    2.064362   2.464695   1.089355   0.000000
     5  H    2.057807   2.956011   1.089955   1.749292   0.000000
     6  C    2.502493   2.810398   1.532266   2.181044   2.161156
     7  H    2.743904   2.643043   2.159913   2.545337   3.059880
     8  H    2.720770   3.099204   2.134390   3.054698   2.474992
     9  C    3.859796   4.244205   2.556937   2.831921   2.788725
    10  H    4.005265   4.577730   2.578506   2.734503   2.432571
    11  H    4.578459   4.973132   3.397336   3.851339   3.497550
    12  N    4.776412   4.936782   3.512861   3.366378   3.955953
    13  C    5.373817   5.310234   4.362075   4.347013   4.989130
    14  H    6.202962   6.065360   5.194381   4.998756   5.849832
    15  H    5.867061   5.882385   4.854954   5.032883   5.351605
    16  H    4.788791   4.566968   4.019929   4.070088   4.817294
    17  C    6.035936   6.315862   4.659320   4.468409   4.839230
    18  H    6.458011   6.782421   5.106223   5.124782   5.196181
    19  H    6.776404   6.944908   5.448852   5.115818   5.737232
    20  H    5.989707   6.398126   4.549647   4.274675   4.536350
    21  C    4.533105   4.580461   3.376725   2.782571   3.968020
    22  H    4.430385   4.664610   3.175280   2.438466   3.532738
    23  H    3.806780   3.680672   2.903127   2.318822   3.732496
    24  C    5.915599   5.818086   4.876434   4.154749   5.495050
    25  O    6.853086   6.747832   5.763608   5.178285   6.353143
    26  O    6.045881   5.888220   5.163549   4.263615   5.803283
                    6          7          8          9         10
     6  C    0.000000
     7  H    1.090655   0.000000
     8  H    1.088332   1.742041   0.000000
     9  C    1.528575   2.175995   2.135526   0.000000
    10  H    2.162153   3.013862   2.731460   1.090064   0.000000
    11  H    2.164957   2.757788   2.278336   1.088827   1.756033
    12  N    2.584364   2.669747   3.393603   1.505789   2.087745
    13  C    3.120847   2.756401   3.722090   2.463847   3.370088
    14  H    4.092970   3.650569   4.776535   3.384853   4.152478
    15  H    3.447564   3.241347   3.766218   2.664777   3.588766
    16  H    2.785272   2.085620   3.358343   2.709948   3.717648
    17  C    3.844030   4.115874   4.519882   2.423133   2.521599
    18  H    4.094645   4.435849   4.534241   2.615719   2.801395
    19  H    4.654899   4.732964   5.402544   3.359484   3.529844
    20  H    4.053163   4.522099   4.759539   2.642880   2.268905
    21  C    3.020986   2.930538   4.063212   2.488945   2.742452
    22  H    3.225112   3.439269   4.260116   2.641997   2.446263
    23  H    2.642142   2.279637   3.701422   2.703410   3.137783
    24  C    4.533354   4.250871   5.558823   3.949659   4.194179
    25  O    5.145708   4.829507   6.073013   4.348638   4.699715
    26  O    5.145967   4.840085   6.220271   4.793265   4.916981
                   11         12         13         14         15
    11  H    0.000000
    12  N    2.080666   0.000000
    13  C    2.603865   1.493480   0.000000
    14  H    3.583138   2.085941   1.086944   0.000000
    15  H    2.336277   2.109076   1.087747   1.802793   0.000000
    16  H    2.973874   2.115475   1.085499   1.780863   1.780748
    17  C    2.612491   1.495166   2.425459   2.620174   2.640150
    18  H    2.333664   2.111404   2.654914   2.994380   2.402246
    19  H    3.585181   2.092429   2.616023   2.339233   2.961739
    20  H    2.993827   2.107307   3.366724   3.600373   3.635739
    21  C    3.396630   1.514326   2.462942   2.638536   3.402514
    22  H    3.631758   2.103196   3.382168   3.628371   4.192378
    23  H    3.657108   2.107437   2.667328   2.978156   3.656073
    24  C    4.715797   2.643536   3.091936   2.654795   4.082765
    25  O    4.878366   2.862803   2.921593   2.131070   3.756078
    26  O    5.682081   3.675321   4.196717   3.800079   5.231179
                   16         17         18         19         20
    16  H    0.000000
    17  C    3.372442   0.000000
    18  H    3.644549   1.087768   0.000000
    19  H    3.607806   1.086548   1.803006   0.000000
    20  H    4.194719   1.087216   1.782737   1.784696   0.000000
    21  C    2.692028   2.452754   3.395861   2.646281   2.653040
    22  H    3.657348   2.672620   3.646682   3.022201   2.410141
    23  H    2.436912   3.377886   4.195292   3.622699   3.637115
    24  C    3.419288   3.061984   4.069047   2.639964   3.348552
    25  O    3.488985   2.910508   3.763472   2.128526   3.455129
    26  O    4.332331   4.154596   5.203795   3.775844   4.235289
                   21         22         23         24         25
    21  C    0.000000
    22  H    1.088321   0.000000
    23  H    1.086218   1.771949   0.000000
    24  C    1.575924   2.182831   2.165582   0.000000
    25  O    2.417322   3.125050   3.087375   1.244066   0.000000
    26  O    2.305968   2.570932   2.573447   1.227952   2.262099
                   26
    26  O    0.000000
 Stoichiometry    C7H15N2O2(2)
 Framework group  C1[X(C7H15N2O2)]
 Deg. of freedom    72
 Full point group                 C1      NOp   1
 Largest Abelian subgroup         C1      NOp   1
 Largest concise Abelian subgroup C1      NOp   1
                         Standard orientation:                         
 ---------------------------------------------------------------------
 Center     Atomic      Atomic             Coordinates (Angstroms)
 Number     Number       Type             X           Y           Z
 ---------------------------------------------------------------------
      1          7           0        3.845263    1.285055    0.232568
      2          1           0        3.619253    1.725582    1.111314
      3          6           0        2.759520    0.603364   -0.455655
      4          1           0        2.017723    1.354294   -0.724979
      5          1           0        3.167028    0.214873   -1.388937
      6          6           0        2.134611   -0.537396    0.354279
      7          1           0        1.773044   -0.155331    1.309697
      8          1           0        2.922886   -1.249303    0.591510
      9          6           0        1.031183   -1.280133   -0.398933
     10          1           0        1.138207   -1.124642   -1.472528
     11          1           0        1.099937   -2.351385   -0.216627
     12          7           0       -0.388687   -0.905571   -0.065660
     13          6           0       -0.724708   -1.320924    1.328992
     14          1           0       -1.762428   -1.045105    1.497836
     15          1           0       -0.568766   -2.393754    1.417945
     16          1           0       -0.079991   -0.792275    2.024103
     17          6           0       -1.286021   -1.640934   -1.008822
     18          1           0       -1.101763   -2.707774   -0.903282
     19          1           0       -2.308249   -1.376419   -0.752568
     20          1           0       -1.054574   -1.320174   -2.021534
     21          6           0       -0.609485    0.583719   -0.228294
     22          1           0       -0.307779    0.835146   -1.243282
     23          1           0        0.051498    1.083474    0.474000
     24          6           0       -2.064543    1.137227    0.016590
     25          8           0       -2.938673    0.322843    0.363541
     26          8           0       -2.092002    2.349266   -0.178538
 ---------------------------------------------------------------------
 Rotational constants (GHZ):           1.5551176           0.6497210           0.5217728
 Standard basis: 6-311+G(2d,2p) (5D, 7F)
 There are   454 symmetry adapted cartesian basis functions of A   symmetry.
 There are   432 symmetry adapted basis functions of A   symmetry.
   432 basis functions,   627 primitive gaussians,   454 cartesian basis functions
    44 alpha electrons       43 beta electrons
       nuclear repulsion energy       668.9068821222 Hartrees.
 NAtoms=   26 NActive=   26 NUniq=   26 SFac= 1.00D+00 NAtFMM=   60 NAOKFM=F Big=F
 Integral buffers will be    131072 words long.
 Raffenetti 2 integral format.
 Two-electron integral symmetry is turned on.
 Nuclear repulsion after empirical dispersion term =      668.8860161101 Hartrees.
 One-electron integrals computed using PRISM.
 NBasis=   432 RedAO= T EigKep=  1.19D-05  NBF=   432
 NBsUse=   432 1.00D-06 EigRej= -1.00D+00 NBFU=   432
 ExpMin= 4.38D-02 ExpMax= 8.59D+03 ExpMxC= 1.30D+03 IAcc=3 IRadAn=         5 AccDes= 0.00D+00
 Harris functional with IExCor= 4639 and IRadAn=       5 diagonalized for initial guess.
 HarFok:  IExCor= 4639 AccDes= 0.00D+00 IRadAn=         5 IDoV= 1 UseB2=F ITyADJ=14
 ICtDFT=  3500011 ScaDFX=  1.000000  1.000000  1.000000  1.000000
 FoFCou: FMM=F IPFlag=           0 FMFlag=      100000 FMFlg1=           0
         NFxFlg=           0 DoJE=T BraDBF=F KetDBF=T FulRan=T
         wScrn=  0.000000 ICntrl=       500 IOpCl=  0 I1Cent=   200000004 NGrid=           0
         NMat0=    1 NMatS0=      1 NMatT0=    0 NMatD0=    1 NMtDS0=    0 NMtDT0=    0
 Petite list used in FoFCou.
 Initial guess <Sx>= 0.0000 <Sy>= 0.0000 <Sz>= 0.5000 <S**2>= 0.7500 S= 0.5000
 Requested convergence on RMS density matrix=1.00D-08 within  32 cycles.
 Requested convergence on MAX density matrix=1.00D-06.
 Requested convergence on             energy=1.00D-06.
 No special actions if energy rises.
 SCF Done:  E(UwB97XD) =  -535.626586434     A.U. after   17 cycles
            NFock= 17  Conv=0.90D-08     -V/T= 2.0039
 <Sx>= 0.0000 <Sy>= 0.0000 <Sz>= 0.5000 <S**2>= 0.7543 S= 0.5021
 <L.S>= 0.000000000000E+00
 Annihilation of the first spin contaminant:
 S**2 before annihilation     0.7543,   after     0.7500
 QCSCF skips out because SCF is already converged.

 **********************************************************************

            Population analysis using the SCF density.

 **********************************************************************

 Orbital symmetries:
 Alpha Orbitals:
       Occupied  (A) (A) (A) (A) (A) (A) (A) (A) (A) (A) (A) (A)
                 (A) (A) (A) (A) (A) (A) (A) (A) (A) (A) (A) (A)
                 (A) (A) (A) (A) (A) (A) (A) (A) (A) (A) (A) (A)
                 (A) (A) (A) (A) (A) (A) (A) (A)
       Virtual   (A) (A) (A) (A) (A) (A) (A) (A) (A) (A) (A) (A)
                 (A) (A) (A) (A) (A) (A) (A) (A) (A) (A) (A) (A)
                 (A) (A) (A) (A) (A) (A) (A) (A) (A) (A) (A) (A)
                 (A) (A) (A) (A) (A) (A) (A) (A) (A) (A) (A) (A)
                 (A) (A) (A) (A) (A) (A) (A) (A) (A) (A) (A) (A)
                 (A) (A) (A) (A) (A) (A) (A) (A) (A) (A) (A) (A)
                 (A) (A) (A) (A) (A) (A) (A) (A) (A) (A) (A) (A)
                 (A) (A) (A) (A) (A) (A) (A) (A) (A) (A) (A) (A)
                 (A) (A) (A) (A) (A) (A) (A) (A) (A) (A) (A) (A)
                 (A) (A) (A) (A) (A) (A) (A) (A) (A) (A) (A) (A)
                 (A) (A) (A) (A) (A) (A) (A) (A) (A) (A) (A) (A)
                 (A) (A) (A) (A) (A) (A) (A) (A) (A) (A) (A) (A)
                 (A) (A) (A) (A) (A) (A) (A) (A) (A) (A) (A) (A)
                 (A) (A) (A) (A) (A) (A) (A) (A) (A) (A) (A) (A)
                 (A) (A) (A) (A) (A) (A) (A) (A) (A) (A) (A) (A)
                 (A) (A) (A) (A) (A) (A) (A) (A) (A) (A) (A) (A)
                 (A) (A) (A) (A) (A) (A) (A) (A) (A) (A) (A) (A)
                 (A) (A) (A) (A) (A) (A) (A) (A) (A) (A) (A) (A)
                 (A) (A) (A) (A) (A) (A) (A) (A) (A) (A) (A) (A)
                 (A) (A) (A) (A) (A) (A) (A) (A) (A) (A) (A) (A)
                 (A) (A) (A) (A) (A) (A) (A) (A) (A) (A) (A) (A)
                 (A) (A) (A) (A) (A) (A) (A) (A) (A) (A) (A) (A)
                 (A) (A) (A) (A) (A) (A) (A) (A) (A) (A) (A) (A)
                 (A) (A) (A) (A) (A) (A) (A) (A) (A) (A) (A) (A)
                 (A) (A) (A) (A) (A) (A) (A) (A) (A) (A) (A) (A)
                 (A) (A) (A) (A) (A) (A) (A) (A) (A) (A) (A) (A)
                 (A) (A) (A) (A) (A) (A) (A) (A) (A) (A) (A) (A)
                 (A) (A) (A) (A) (A) (A) (A) (A) (A) (A) (A) (A)
                 (A) (A) (A) (A) (A) (A) (A) (A) (A) (A) (A) (A)
                 (A) (A) (A) (A) (A) (A) (A) (A) (A) (A) (A) (A)
                 (A) (A) (A) (A) (A) (A) (A) (A) (A) (A) (A) (A)
                 (A) (A) (A) (A) (A) (A) (A) (A) (A) (A) (A) (A)
                 (A) (A) (A) (A)
 Beta  Orbitals:
       Occupied  (A) (A) (A) (A) (A) (A) (A) (A) (A) (A) (A) (A)
                 (A) (A) (A) (A) (A) (A) (A) (A) (A) (A) (A) (A)
                 (A) (A) (A) (A) (A) (A) (A) (A) (A) (A) (A) (A)
                 (A) (A) (A) (A) (A) (A) (A)
       Virtual   (A) (A) (A) (A) (A) (A) (A) (A) (A) (A) (A) (A)
                 (A) (A) (A) (A) (A) (A) (A) (A) (A) (A) (A) (A)
                 (A) (A) (A) (A) (A) (A) (A) (A) (A) (A) (A) (A)
                 (A) (A) (A) (A) (A) (A) (A) (A) (A) (A) (A) (A)
                 (A) (A) (A) (A) (A) (A) (A) (A) (A) (A) (A) (A)
                 (A) (A) (A) (A) (A) (A) (A) (A) (A) (A) (A) (A)
                 (A) (A) (A) (A) (A) (A) (A) (A) (A) (A) (A) (A)
                 (A) (A) (A) (A) (A) (A) (A) (A) (A) (A) (A) (A)
                 (A) (A) (A) (A) (A) (A) (A) (A) (A) (A) (A) (A)
                 (A) (A) (A) (A) (A) (A) (A) (A) (A) (A) (A) (A)
                 (A) (A) (A) (A) (A) (A) (A) (A) (A) (A) (A) (A)
                 (A) (A) (A) (A) (A) (A) (A) (A) (A) (A) (A) (A)
                 (A) (A) (A) (A) (A) (A) (A) (A) (A) (A) (A) (A)
                 (A) (A) (A) (A) (A) (A) (A) (A) (A) (A) (A) (A)
                 (A) (A) (A) (A) (A) (A) (A) (A) (A) (A) (A) (A)
                 (A) (A) (A) (A) (A) (A) (A) (A) (A) (A) (A) (A)
                 (A) (A) (A) (A) (A) (A) (A) (A) (A) (A) (A) (A)
                 (A) (A) (A) (A) (A) (A) (A) (A) (A) (A) (A) (A)
                 (A) (A) (A) (A) (A) (A) (A) (A) (A) (A) (A) (A)
                 (A) (A) (A) (A) (A) (A) (A) (A) (A) (A) (A) (A)
                 (A) (A) (A) (A) (A) (A) (A) (A) (A) (A) (A) (A)
                 (A) (A) (A) (A) (A) (A) (A) (A) (A) (A) (A) (A)
                 (A) (A) (A) (A) (A) (A) (A) (A) (A) (A) (A) (A)
                 (A) (A) (A) (A) (A) (A) (A) (A) (A) (A) (A) (A)
                 (A) (A) (A) (A) (A) (A) (A) (A) (A) (A) (A) (A)
                 (A) (A) (A) (A) (A) (A) (A) (A) (A) (A) (A) (A)
                 (A) (A) (A) (A) (A) (A) (A) (A) (A) (A) (A) (A)
                 (A) (A) (A) (A) (A) (A) (A) (A) (A) (A) (A) (A)
                 (A) (A) (A) (A) (A) (A) (A) (A) (A) (A) (A) (A)
                 (A) (A) (A) (A) (A) (A) (A) (A) (A) (A) (A) (A)
                 (A) (A) (A) (A) (A) (A) (A) (A) (A) (A) (A) (A)
                 (A) (A) (A) (A) (A) (A) (A) (A) (A) (A) (A) (A)
                 (A) (A) (A) (A) (A)
 The electronic state is 2-A.
 Alpha  occ. eigenvalues --  -19.16553 -19.15926 -14.58849 -14.47152 -10.38205
 Alpha  occ. eigenvalues --  -10.35408 -10.35127 -10.35099 -10.34445 -10.33957
 Alpha  occ. eigenvalues --  -10.33618  -1.15234  -1.11071  -1.02870  -1.01755
 Alpha  occ. eigenvalues --   -0.92963  -0.87555  -0.86481  -0.83009  -0.75794
 Alpha  occ. eigenvalues --   -0.73348  -0.65845  -0.64920  -0.62630  -0.60843
 Alpha  occ. eigenvalues --   -0.57792  -0.57556  -0.56333  -0.54705  -0.53079
 Alpha  occ. eigenvalues --   -0.52220  -0.51752  -0.51295  -0.50854  -0.48984
 Alpha  occ. eigenvalues --   -0.48866  -0.48282  -0.46384  -0.44000  -0.38910
 Alpha  occ. eigenvalues --   -0.38378  -0.31178  -0.30476  -0.29848
 Alpha virt. eigenvalues --    0.02912   0.04537   0.05385   0.06020   0.06962
 Alpha virt. eigenvalues --    0.07789   0.08041   0.08790   0.10221   0.10359
 Alpha virt. eigenvalues --    0.11184   0.12207   0.12535   0.13090   0.13210
 Alpha virt. eigenvalues --    0.14030   0.14340   0.14997   0.15976   0.16193
 Alpha virt. eigenvalues --    0.17109   0.17382   0.17464   0.17843   0.18192
 Alpha virt. eigenvalues --    0.18568   0.19567   0.20325   0.20359   0.20705
 Alpha virt. eigenvalues --    0.21636   0.22333   0.22852   0.22921   0.23085
 Alpha virt. eigenvalues --    0.23731   0.24109   0.25164   0.25730   0.26260
 Alpha virt. eigenvalues --    0.26929   0.27566   0.27855   0.28578   0.28942
 Alpha virt. eigenvalues --    0.29927   0.30375   0.30636   0.31358   0.31736
 Alpha virt. eigenvalues --    0.32168   0.32928   0.33879   0.34401   0.34825
 Alpha virt. eigenvalues --    0.35834   0.36680   0.37399   0.38491   0.38706
 Alpha virt. eigenvalues --    0.39951   0.40555   0.41055   0.42351   0.43015
 Alpha virt. eigenvalues --    0.44526   0.45419   0.46102   0.46776   0.47766
 Alpha virt. eigenvalues --    0.48765   0.50527   0.51940   0.52186   0.52749
 Alpha virt. eigenvalues --    0.53120   0.53777   0.54273   0.55404   0.56619
 Alpha virt. eigenvalues --    0.57707   0.58479   0.59463   0.60291   0.60468
 Alpha virt. eigenvalues --    0.61126   0.62129   0.63085   0.64326   0.64504
 Alpha virt. eigenvalues --    0.64968   0.65967   0.66539   0.66935   0.68041
 Alpha virt. eigenvalues --    0.68354   0.69123   0.69824   0.70399   0.71160
 Alpha virt. eigenvalues --    0.72216   0.72676   0.73669   0.73887   0.75062
 Alpha virt. eigenvalues --    0.76203   0.76605   0.77374   0.77697   0.78990
 Alpha virt. eigenvalues --    0.79642   0.81493   0.83205   0.84287   0.84675
 Alpha virt. eigenvalues --    0.87571   0.88409   0.90909   0.91161   0.91388
 Alpha virt. eigenvalues --    0.91898   0.94200   0.95158   0.96891   0.98396
 Alpha virt. eigenvalues --    0.99219   1.00468   1.02290   1.02682   1.03813
 Alpha virt. eigenvalues --    1.04510   1.06366   1.08418   1.09427   1.11259
 Alpha virt. eigenvalues --    1.12222   1.13478   1.14233   1.15040   1.15567
 Alpha virt. eigenvalues --    1.17279   1.17492   1.18063   1.19641   1.20339
 Alpha virt. eigenvalues --    1.21448   1.22714   1.22956   1.24263   1.25021
 Alpha virt. eigenvalues --    1.26459   1.27161   1.28111   1.28631   1.29621
 Alpha virt. eigenvalues --    1.30342   1.31175   1.31625   1.32558   1.33049
 Alpha virt. eigenvalues --    1.35102   1.35681   1.36603   1.37178   1.37881
 Alpha virt. eigenvalues --    1.38826   1.39206   1.39860   1.41651   1.42249
 Alpha virt. eigenvalues --    1.42979   1.43051   1.44118   1.45883   1.46972
 Alpha virt. eigenvalues --    1.47314   1.47873   1.48822   1.49551   1.50074
 Alpha virt. eigenvalues --    1.51005   1.52047   1.53160   1.53879   1.54406
 Alpha virt. eigenvalues --    1.55216   1.57508   1.58031   1.59616   1.60582
 Alpha virt. eigenvalues --    1.62045   1.63051   1.64539   1.65094   1.66187
 Alpha virt. eigenvalues --    1.67325   1.67680   1.68377   1.69337   1.70027
 Alpha virt. eigenvalues --    1.71103   1.71717   1.74375   1.76531   1.78124
 Alpha virt. eigenvalues --    1.79277   1.80346   1.82493   1.83713   1.87394
 Alpha virt. eigenvalues --    1.89373   1.93171   1.93352   1.95531   1.96642
 Alpha virt. eigenvalues --    1.98124   1.99699   2.01464   2.03809   2.05822
 Alpha virt. eigenvalues --    2.07649   2.07868   2.14629   2.21459   2.40162
 Alpha virt. eigenvalues --    2.49452   2.64847   2.73174   2.74726   2.80406
 Alpha virt. eigenvalues --    2.83499   2.86679   2.87229   2.89061   2.93179
 Alpha virt. eigenvalues --    2.94517   2.97188   2.98306   2.99729   3.07400
 Alpha virt. eigenvalues --    3.08303   3.11807   3.13430   3.14009   3.16523
 Alpha virt. eigenvalues --    3.21933   3.23720   3.27920   3.28597   3.30063
 Alpha virt. eigenvalues --    3.33770   3.34510   3.35237   3.37635   3.38862
 Alpha virt. eigenvalues --    3.40124   3.42270   3.44414   3.45229   3.46245
 Alpha virt. eigenvalues --    3.47105   3.49016   3.50785   3.52171   3.52708
 Alpha virt. eigenvalues --    3.53981   3.56391   3.57930   3.58955   3.60381
 Alpha virt. eigenvalues --    3.62212   3.62860   3.63249   3.65064   3.66180
 Alpha virt. eigenvalues --    3.67197   3.68281   3.70313   3.71101   3.72051
 Alpha virt. eigenvalues --    3.73342   3.74628   3.75898   3.76945   3.79396
 Alpha virt. eigenvalues --    3.80403   3.81092   3.82633   3.83266   3.84086
 Alpha virt. eigenvalues --    3.87742   3.88274   3.90446   3.92087   3.93312
 Alpha virt. eigenvalues --    3.95713   3.97117   3.98779   3.99895   4.01265
 Alpha virt. eigenvalues --    4.02606   4.04265   4.04703   4.06493   4.09468
 Alpha virt. eigenvalues --    4.10108   4.10770   4.12080   4.13239   4.14466
 Alpha virt. eigenvalues --    4.16278   4.17564   4.18746   4.20179   4.22124
 Alpha virt. eigenvalues --    4.23277   4.24430   4.25817   4.28230   4.29400
 Alpha virt. eigenvalues --    4.30722   4.31269   4.33278   4.35401   4.35953
 Alpha virt. eigenvalues --    4.38216   4.39606   4.40115   4.42291   4.42459
 Alpha virt. eigenvalues --    4.44601   4.47174   4.49360   4.50873   4.58864
 Alpha virt. eigenvalues --    4.63833   4.73839   4.82720   4.93333   4.99151
 Alpha virt. eigenvalues --    4.99965   5.01321   5.04261   5.06846   5.10192
 Alpha virt. eigenvalues --    5.11117   5.12042   5.13595   5.14653   5.14992
 Alpha virt. eigenvalues --    5.15846   5.18569   5.21883   5.24404   5.26389
 Alpha virt. eigenvalues --    5.29088   5.32434   5.37238   5.44992   5.47516
 Alpha virt. eigenvalues --    5.54668   5.72782   5.75299   5.82221   5.82837
 Alpha virt. eigenvalues --    5.97791   6.33801   6.96284   7.04802   7.08331
 Alpha virt. eigenvalues --    7.09699   7.20538   7.32338   7.36657   7.41070
 Alpha virt. eigenvalues --    7.45031   7.53708  23.98431  24.03239  24.06854
 Alpha virt. eigenvalues --   24.14236  24.16441  24.18321  24.34951  35.56301
 Alpha virt. eigenvalues --   35.63513  50.17876  50.26359
  Beta  occ. eigenvalues --  -19.16553 -19.15926 -14.58848 -14.45530 -10.38198
  Beta  occ. eigenvalues --  -10.35407 -10.35127 -10.35099 -10.34510 -10.33864
  Beta  occ. eigenvalues --  -10.33617  -1.15228  -1.11070  -1.02866  -0.98608
  Beta  occ. eigenvalues --   -0.91813  -0.87548  -0.86470  -0.82072  -0.75064
  Beta  occ. eigenvalues --   -0.73118  -0.65797  -0.64862  -0.62531  -0.60160
  Beta  occ. eigenvalues --   -0.57570  -0.57072  -0.56144  -0.54111  -0.52506
  Beta  occ. eigenvalues --   -0.52123  -0.51746  -0.51265  -0.50509  -0.48924
  Beta  occ. eigenvalues --   -0.48344  -0.47793  -0.46379  -0.43991  -0.36620
  Beta  occ. eigenvalues --   -0.31177  -0.30474  -0.29851
  Beta virt. eigenvalues --   -0.04616   0.02967   0.04671   0.05462   0.06057
  Beta virt. eigenvalues --    0.07046   0.07846   0.08158   0.08982   0.10312
  Beta virt. eigenvalues --    0.10447   0.11263   0.12243   0.12627   0.13229
  Beta virt. eigenvalues --    0.13305   0.14134   0.14521   0.15055   0.15979
  Beta virt. eigenvalues --    0.16195   0.17182   0.17466   0.17598   0.17883
  Beta virt. eigenvalues --    0.18222   0.18640   0.19699   0.20396   0.20479
  Beta virt. eigenvalues --    0.20760   0.21836   0.22494   0.22912   0.23151
  Beta virt. eigenvalues --    0.23375   0.23824   0.24149   0.25185   0.25811
  Beta virt. eigenvalues --    0.26519   0.27251   0.27666   0.27951   0.28837
  Beta virt. eigenvalues --    0.29110   0.30004   0.30455   0.31124   0.31397
  Beta virt. eigenvalues --    0.32028   0.32344   0.33061   0.34042   0.34458
  Beta virt. eigenvalues --    0.34919   0.35863   0.36714   0.37469   0.38562
  Beta virt. eigenvalues --    0.38739   0.39979   0.40603   0.41075   0.42365
  Beta virt. eigenvalues --    0.43044   0.44554   0.45459   0.46196   0.46830
  Beta virt. eigenvalues --    0.47950   0.48848   0.50589   0.52067   0.52307
  Beta virt. eigenvalues --    0.52938   0.53188   0.53915   0.54363   0.55567
  Beta virt. eigenvalues --    0.56670   0.57831   0.58699   0.59501   0.60304
  Beta virt. eigenvalues --    0.60507   0.61173   0.62196   0.63164   0.64371
  Beta virt. eigenvalues --    0.64631   0.65046   0.66121   0.66665   0.67365
  Beta virt. eigenvalues --    0.68242   0.68386   0.69156   0.69921   0.70416
  Beta virt. eigenvalues --    0.71252   0.72380   0.72854   0.73812   0.73984
  Beta virt. eigenvalues --    0.75149   0.76241   0.76910   0.77516   0.77777
  Beta virt. eigenvalues --    0.79053   0.80203   0.81536   0.83284   0.84447
  Beta virt. eigenvalues --    0.84722   0.87964   0.88785   0.91008   0.91356
  Beta virt. eigenvalues --    0.91784   0.92863   0.95163   0.96887   0.97075
  Beta virt. eigenvalues --    0.98511   0.99268   1.00754   1.02628   1.02769
  Beta virt. eigenvalues --    1.03882   1.04589   1.06413   1.08460   1.09506
  Beta virt. eigenvalues --    1.11283   1.12267   1.13550   1.14382   1.15277
  Beta virt. eigenvalues --    1.15809   1.17375   1.17709   1.18146   1.19724
  Beta virt. eigenvalues --    1.20428   1.21561   1.22795   1.23041   1.24548
  Beta virt. eigenvalues --    1.25254   1.26546   1.27326   1.28251   1.28799
  Beta virt. eigenvalues --    1.29765   1.30563   1.31320   1.31678   1.32836
  Beta virt. eigenvalues --    1.33344   1.35461   1.35765   1.36756   1.37492
  Beta virt. eigenvalues --    1.38003   1.38912   1.39336   1.39935   1.42073
  Beta virt. eigenvalues --    1.42507   1.43038   1.43111   1.44258   1.45974
  Beta virt. eigenvalues --    1.47249   1.47475   1.48085   1.49038   1.49596
  Beta virt. eigenvalues --    1.50287   1.51124   1.52116   1.53367   1.53982
  Beta virt. eigenvalues --    1.54557   1.55438   1.57653   1.58130   1.60031
  Beta virt. eigenvalues --    1.60898   1.62367   1.63230   1.64738   1.65528
  Beta virt. eigenvalues --    1.66343   1.67356   1.67737   1.68809   1.69508
  Beta virt. eigenvalues --    1.70116   1.71478   1.71839   1.75133   1.76654
  Beta virt. eigenvalues --    1.78180   1.79665   1.80407   1.82550   1.84243
  Beta virt. eigenvalues --    1.87538   1.89470   1.93393   1.93777   1.96367
  Beta virt. eigenvalues --    1.96835   1.98308   1.99868   2.01708   2.04291
  Beta virt. eigenvalues --    2.05838   2.07806   2.07892   2.14658   2.21460
  Beta virt. eigenvalues --    2.40164   2.49462   2.64849   2.73329   2.74737
  Beta virt. eigenvalues --    2.80411   2.83522   2.86692   2.87352   2.89124
  Beta virt. eigenvalues --    2.93186   2.94670   2.97247   2.98337   2.99851
  Beta virt. eigenvalues --    3.07438   3.08353   3.11834   3.13503   3.14127
  Beta virt. eigenvalues --    3.16580   3.21939   3.23756   3.27944   3.28689
  Beta virt. eigenvalues --    3.30073   3.33819   3.34590   3.35328   3.37694
  Beta virt. eigenvalues --    3.39005   3.40179   3.42344   3.44481   3.45286
  Beta virt. eigenvalues --    3.46279   3.47144   3.49054   3.50861   3.52244
  Beta virt. eigenvalues --    3.52832   3.54000   3.56510   3.57941   3.58965
  Beta virt. eigenvalues --    3.60409   3.62265   3.62876   3.63280   3.65073
  Beta virt. eigenvalues --    3.66282   3.67283   3.68394   3.70632   3.71272
  Beta virt. eigenvalues --    3.72150   3.73817   3.74670   3.75940   3.76996
  Beta virt. eigenvalues --    3.79381   3.81107   3.81466   3.82828   3.83478
  Beta virt. eigenvalues --    3.84125   3.87782   3.88392   3.90760   3.92316
  Beta virt. eigenvalues --    3.93426   3.95798   3.97789   3.99501   4.00115
  Beta virt. eigenvalues --    4.01326   4.02708   4.04313   4.04859   4.06519
  Beta virt. eigenvalues --    4.09588   4.10432   4.11631   4.12475   4.14437
  Beta virt. eigenvalues --    4.15629   4.16419   4.17874   4.19049   4.20926
  Beta virt. eigenvalues --    4.22179   4.23379   4.24583   4.26250   4.28307
  Beta virt. eigenvalues --    4.29449   4.30979   4.31333   4.33410   4.35782
  Beta virt. eigenvalues --    4.36052   4.38344   4.39644   4.40448   4.42381
  Beta virt. eigenvalues --    4.42580   4.44693   4.47440   4.49557   4.51313
  Beta virt. eigenvalues --    4.59782   4.64181   4.73867   4.83224   4.93518
  Beta virt. eigenvalues --    4.99547   5.00248   5.01469   5.09080   5.10564
  Beta virt. eigenvalues --    5.11201   5.12080   5.13670   5.14491   5.15282
  Beta virt. eigenvalues --    5.16227   5.18380   5.21587   5.23740   5.25198
  Beta virt. eigenvalues --    5.26627   5.29093   5.34529   5.37267   5.45000
  Beta virt. eigenvalues --    5.47535   5.54672   5.72797   5.75304   5.82830
  Beta virt. eigenvalues --    5.84888   5.97793   6.33802   6.96285   7.04803
  Beta virt. eigenvalues --    7.08333   7.09701   7.20539   7.32339   7.36659
  Beta virt. eigenvalues --    7.41071   7.45032   7.53709  23.98454  24.03210
  Beta virt. eigenvalues --   24.06898  24.14239  24.16443  24.18335  24.34952
  Beta virt. eigenvalues --   35.56321  35.65974  50.17876  50.26360
          Condensed to atoms (all electrons):
               1          2          3          4          5          6
     1  N    6.957888   0.220010   0.117097   0.017765  -0.077811   0.013028
     2  H    0.220010   0.572587   0.056284  -0.014380   0.009372  -0.027314
     3  C    0.117097   0.056284   5.233817   0.322616   0.501147   0.035999
     4  H    0.017765  -0.014380   0.322616   0.544745  -0.039854   0.044988
     5  H   -0.077811   0.009372   0.501147  -0.039854   0.554234  -0.062625
     6  C    0.013028  -0.027314   0.035999   0.044988  -0.062625   5.957912
     7  H   -0.011565   0.001748  -0.013576  -0.006815   0.004067   0.418551
     8  H    0.010099  -0.002164  -0.045961   0.004635  -0.008255   0.484980
     9  C    0.030517   0.014092  -0.065369  -0.018548   0.000354  -0.452131
    10  H   -0.001016   0.000021  -0.002075  -0.002398   0.004401  -0.032246
    11  H   -0.000154  -0.000039   0.015999  -0.000161  -0.000166  -0.049220
    12  N   -0.002457  -0.000823   0.008302  -0.000363   0.000205  -0.034612
    13  C    0.001229  -0.001686   0.015633   0.001254  -0.001952  -0.023230
    14  H    0.000015   0.000001  -0.001010   0.000007   0.000001  -0.001426
    15  H   -0.000053   0.000003   0.002635  -0.000008   0.000006  -0.008682
    16  H    0.000373  -0.000034  -0.004869   0.000100  -0.000021   0.000402
    17  C    0.000582  -0.000110  -0.008129  -0.000078   0.000181  -0.122540
    18  H   -0.000017  -0.000000   0.002558   0.000002  -0.000017  -0.000426
    19  H    0.000002  -0.000000  -0.000692  -0.000001   0.000001   0.004227
    20  H   -0.000014   0.000000  -0.002685  -0.000091   0.000073   0.001694
    21  C    0.001672  -0.002559   0.018737   0.001402  -0.004946   0.048769
    22  H    0.000264   0.000024  -0.007668  -0.001640   0.000282  -0.020139
    23  H   -0.001160  -0.000436   0.004834  -0.003813   0.000115   0.055943
    24  C    0.002491  -0.000620  -0.060846   0.013884  -0.000985   0.040455
    25  O   -0.000035  -0.000004  -0.002274   0.000026  -0.000004   0.011253
    26  O    0.000034   0.000023   0.004383  -0.000769  -0.000002  -0.013134
               7          8          9         10         11         12
     1  N   -0.011565   0.010099   0.030517  -0.001016  -0.000154  -0.002457
     2  H    0.001748  -0.002164   0.014092   0.000021  -0.000039  -0.000823
     3  C   -0.013576  -0.045961  -0.065369  -0.002075   0.015999   0.008302
     4  H   -0.006815   0.004635  -0.018548  -0.002398  -0.000161  -0.000363
     5  H    0.004067  -0.008255   0.000354   0.004401  -0.000166   0.000205
     6  C    0.418551   0.484980  -0.452131  -0.032246  -0.049220  -0.034612
     7  H    0.507770  -0.024506  -0.021274   0.002401   0.001591   0.024007
     8  H   -0.024506   0.493113  -0.054221   0.001318  -0.007728  -0.003325
     9  C   -0.021274  -0.054221   5.805254   0.426810   0.437184   0.281073
    10  H    0.002401   0.001318   0.426810   0.492207  -0.017936  -0.029103
    11  H    0.001591  -0.007728   0.437184  -0.017936   0.487417  -0.018608
    12  N    0.024007  -0.003325   0.281073  -0.029103  -0.018608   6.971235
    13  C   -0.002971   0.001151  -0.090807   0.000797   0.000559   0.124314
    14  H    0.000003  -0.000019   0.011057  -0.000200  -0.000296  -0.037355
    15  H    0.000082   0.000240  -0.007134   0.000407   0.001941  -0.019527
    16  H    0.004460   0.000067  -0.001540  -0.000387  -0.000590  -0.019829
    17  C    0.005897   0.000137   0.005295   0.007963  -0.006448   0.181256
    18  H   -0.000002   0.000002  -0.004674  -0.002230   0.002678  -0.016892
    19  H   -0.000039   0.000007   0.003871   0.000141  -0.000211  -0.034820
    20  H   -0.000018  -0.000004  -0.017688   0.005531  -0.000371  -0.026022
    21  C   -0.017921   0.006757  -0.170676  -0.010500  -0.000973  -0.087165
    22  H    0.000369  -0.000153   0.025824  -0.001605  -0.000158  -0.010148
    23  H   -0.004096   0.000027  -0.050084   0.000386  -0.000001  -0.018701
    24  C   -0.004463   0.001741   0.002168   0.002392  -0.003124  -0.090996
    25  O   -0.000228  -0.000016   0.021297  -0.000503   0.000110   0.081931
    26  O    0.000257   0.000006   0.012011   0.000057   0.000054   0.033688
              13         14         15         16         17         18
     1  N    0.001229   0.000015  -0.000053   0.000373   0.000582  -0.000017
     2  H   -0.001686   0.000001   0.000003  -0.000034  -0.000110  -0.000000
     3  C    0.015633  -0.001010   0.002635  -0.004869  -0.008129   0.002558
     4  H    0.001254   0.000007  -0.000008   0.000100  -0.000078   0.000002
     5  H   -0.001952   0.000001   0.000006  -0.000021   0.000181  -0.000017
     6  C   -0.023230  -0.001426  -0.008682   0.000402  -0.122540  -0.000426
     7  H   -0.002971   0.000003   0.000082   0.004460   0.005897  -0.000002
     8  H    0.001151  -0.000019   0.000240   0.000067   0.000137   0.000002
     9  C   -0.090807   0.011057  -0.007134  -0.001540   0.005295  -0.004674
    10  H    0.000797  -0.000200   0.000407  -0.000387   0.007963  -0.002230
    11  H    0.000559  -0.000296   0.001941  -0.000590  -0.006448   0.002678
    12  N    0.124314  -0.037355  -0.019527  -0.019829   0.181256  -0.016892
    13  C    5.087916   0.425692   0.427800   0.399729  -0.070050  -0.016602
    14  H    0.425692   0.417192  -0.018189  -0.012096  -0.002929  -0.000827
    15  H    0.427800  -0.018189   0.514144  -0.026586  -0.016124   0.003195
    16  H    0.399729  -0.012096  -0.026586   0.519306   0.015141   0.000269
    17  C   -0.070050  -0.002929  -0.016124   0.015141   5.115289   0.413169
    18  H   -0.016602  -0.000827   0.003195   0.000269   0.413169   0.521754
    19  H   -0.002124   0.001399  -0.000485  -0.000006   0.423515  -0.018179
    20  H    0.013554   0.000026   0.000169  -0.000544   0.410681  -0.026891
    21  C    0.009531  -0.004605   0.017763  -0.022814  -0.099231   0.021317
    22  H    0.007728   0.000460  -0.000224  -0.000062  -0.020648  -0.000186
    23  H   -0.017347  -0.001456  -0.000104   0.001703   0.001534  -0.000117
    24  C   -0.024459  -0.002083  -0.008726   0.014773  -0.004801  -0.012427
    25  O   -0.054041   0.018140   0.001355  -0.002775  -0.053475   0.001513
    26  O    0.000873  -0.000320   0.000034   0.000483   0.002418  -0.000000
              19         20         21         22         23         24
     1  N    0.000002  -0.000014   0.001672   0.000264  -0.001160   0.002491
     2  H   -0.000000   0.000000  -0.002559   0.000024  -0.000436  -0.000620
     3  C   -0.000692  -0.002685   0.018737  -0.007668   0.004834  -0.060846
     4  H   -0.000001  -0.000091   0.001402  -0.001640  -0.003813   0.013884
     5  H    0.000001   0.000073  -0.004946   0.000282   0.000115  -0.000985
     6  C    0.004227   0.001694   0.048769  -0.020139   0.055943   0.040455
     7  H   -0.000039  -0.000018  -0.017921   0.000369  -0.004096  -0.004463
     8  H    0.000007  -0.000004   0.006757  -0.000153   0.000027   0.001741
     9  C    0.003871  -0.017688  -0.170676   0.025824  -0.050084   0.002168
    10  H    0.000141   0.005531  -0.010500  -0.001605   0.000386   0.002392
    11  H   -0.000211  -0.000371  -0.000973  -0.000158  -0.000001  -0.003124
    12  N   -0.034820  -0.026022  -0.087165  -0.010148  -0.018701  -0.090996
    13  C   -0.002124   0.013554   0.009531   0.007728  -0.017347  -0.024459
    14  H    0.001399   0.000026  -0.004605   0.000460  -0.001456  -0.002083
    15  H   -0.000485   0.000169   0.017763  -0.000224  -0.000104  -0.008726
    16  H   -0.000006  -0.000544  -0.022814  -0.000062   0.001703   0.014773
    17  C    0.423515   0.410681  -0.099231  -0.020648   0.001534  -0.004801
    18  H   -0.018179  -0.026891   0.021317  -0.000186  -0.000117  -0.012427
    19  H    0.420531  -0.011659  -0.009717  -0.001136   0.000484   0.003195
    20  H   -0.011659   0.509208  -0.018986   0.000599   0.000252   0.019315
    21  C   -0.009717  -0.018986   5.497738   0.395260   0.418099   0.161762
    22  H   -0.001136   0.000599   0.395260   0.475638  -0.026255   0.023287
    23  H    0.000484   0.000252   0.418099  -0.026255   0.503185  -0.012790
    24  C    0.003195   0.019315   0.161762   0.023287  -0.012790   4.851711
    25  O    0.015793  -0.003536  -0.111062  -0.000467  -0.001869   0.415864
    26  O   -0.000164   0.000755   0.001199  -0.006007  -0.004578   0.321795
              25         26
     1  N   -0.000035   0.000034
     2  H   -0.000004   0.000023
     3  C   -0.002274   0.004383
     4  H    0.000026  -0.000769
     5  H   -0.000004  -0.000002
     6  C    0.011253  -0.013134
     7  H   -0.000228   0.000257
     8  H   -0.000016   0.000006
     9  C    0.021297   0.012011
    10  H   -0.000503   0.000057
    11  H    0.000110   0.000054
    12  N    0.081931   0.033688
    13  C   -0.054041   0.000873
    14  H    0.018140  -0.000320
    15  H    0.001355   0.000034
    16  H   -0.002775   0.000483
    17  C   -0.053475   0.002418
    18  H    0.001513  -0.000000
    19  H    0.015793  -0.000164
    20  H   -0.003536   0.000755
    21  C   -0.111062   0.001199
    22  H   -0.000467  -0.006007
    23  H   -0.001869  -0.004578
    24  C    0.415864   0.321795
    25  O    8.356116  -0.066044
    26  O   -0.066044   8.272511
          Atomic-Atomic Spin Densities.
               1          2          3          4          5          6
     1  N    1.008855   0.010216  -0.059095  -0.015770   0.000936  -0.003699
     2  H    0.010216  -0.033623   0.006506   0.000498  -0.000191  -0.004526
     3  C   -0.059095   0.006506   0.076384  -0.025649   0.006214   0.035200
     4  H   -0.015770   0.000498  -0.025649   0.062254  -0.002118   0.001655
     5  H    0.000936  -0.000191   0.006214  -0.002118   0.002111  -0.001484
     6  C   -0.003699  -0.004526   0.035200   0.001655  -0.001484   0.126353
     7  H   -0.001807  -0.000096   0.008408  -0.001298   0.000086  -0.001718
     8  H    0.001123   0.000323  -0.003245   0.000218   0.000061  -0.004641
     9  C    0.032627   0.000414  -0.130001   0.027957  -0.003834  -0.124457
    10  H    0.000102  -0.000004  -0.001073   0.000214  -0.000034  -0.001330
    11  H   -0.000388   0.000002   0.004356  -0.000249   0.000088   0.005954
    12  N   -0.001678   0.000236   0.010108  -0.002053   0.000513   0.001433
    13  C   -0.000503   0.000147   0.004844  -0.001007   0.000161   0.008726
    14  H   -0.000000  -0.000000  -0.000020   0.000002  -0.000000  -0.000081
    15  H   -0.000005   0.000000   0.000072  -0.000002   0.000000   0.000413
    16  H    0.000054  -0.000003  -0.000467   0.000032  -0.000002  -0.000076
    17  C    0.000179   0.000036  -0.003656   0.000626   0.000017  -0.010251
    18  H   -0.000002  -0.000000   0.000096  -0.000005   0.000001   0.000554
    19  H   -0.000001   0.000000   0.000085  -0.000003   0.000000   0.000156
    20  H   -0.000003   0.000000   0.000145  -0.000022   0.000003   0.000395
    21  C   -0.001275  -0.000307   0.015886  -0.002863   0.000033   0.020200
    22  H    0.000002  -0.000000   0.000978  -0.000364   0.000006   0.000408
    23  H    0.000079   0.000039   0.001194  -0.000421   0.000025   0.000676
    24  C    0.000199  -0.000009  -0.012670   0.004442  -0.000150  -0.009124
    25  O    0.000001   0.000000   0.000231  -0.000019   0.000001   0.000384
    26  O    0.000005   0.000000   0.000614  -0.000151   0.000002   0.000211
               7          8          9         10         11         12
     1  N   -0.001807   0.001123   0.032627   0.000102  -0.000388  -0.001678
     2  H   -0.000096   0.000323   0.000414  -0.000004   0.000002   0.000236
     3  C    0.008408  -0.003245  -0.130001  -0.001073   0.004356   0.010108
     4  H   -0.001298   0.000218   0.027957   0.000214  -0.000249  -0.002053
     5  H    0.000086   0.000061  -0.003834  -0.000034   0.000088   0.000513
     6  C   -0.001718  -0.004641  -0.124457  -0.001330   0.005954   0.001433
     7  H    0.000019   0.000158  -0.006497  -0.000035   0.000271   0.000965
     8  H    0.000158  -0.003103   0.009233  -0.000010  -0.000267  -0.000906
     9  C   -0.006497   0.009233   0.273914   0.002735  -0.014438  -0.010822
    10  H   -0.000035  -0.000010   0.002735   0.000097  -0.000140  -0.000275
    11  H    0.000271  -0.000267  -0.014438  -0.000140   0.002615   0.001620
    12  N    0.000965  -0.000906  -0.010822  -0.000275   0.001620   0.003517
    13  C    0.000471  -0.000309  -0.017076  -0.000081   0.000902  -0.000350
    14  H   -0.000002   0.000000   0.000182   0.000000  -0.000006   0.000011
    15  H   -0.000008   0.000001  -0.000791  -0.000004   0.000053   0.000040
    16  H   -0.000084   0.000017   0.000999   0.000002  -0.000044  -0.000105
    17  C   -0.000044   0.000028   0.017590   0.000312  -0.001049   0.000066
    18  H    0.000003  -0.000002  -0.000906  -0.000011   0.000110  -0.000053
    19  H    0.000002  -0.000000  -0.000463  -0.000004   0.000016  -0.000309
    20  H    0.000002  -0.000001  -0.000813  -0.000026   0.000054  -0.000000
    21  C    0.000972  -0.000149  -0.056071  -0.000387   0.001806  -0.006572
    22  H    0.000021   0.000000  -0.002078  -0.000005   0.000023   0.000067
    23  H    0.000095  -0.000006  -0.002289  -0.000015   0.000025   0.000170
    24  C   -0.000651   0.000117   0.033255   0.000284  -0.000835   0.004650
    25  O    0.000010  -0.000001  -0.001082  -0.000001   0.000013  -0.000637
    26  O    0.000011  -0.000000  -0.001026  -0.000002   0.000004  -0.000207
              13         14         15         16         17         18
     1  N   -0.000503  -0.000000  -0.000005   0.000054   0.000179  -0.000002
     2  H    0.000147  -0.000000   0.000000  -0.000003   0.000036  -0.000000
     3  C    0.004844  -0.000020   0.000072  -0.000467  -0.003656   0.000096
     4  H   -0.001007   0.000002  -0.000002   0.000032   0.000626  -0.000005
     5  H    0.000161  -0.000000   0.000000  -0.000002   0.000017   0.000001
     6  C    0.008726  -0.000081   0.000413  -0.000076  -0.010251   0.000554
     7  H    0.000471  -0.000002  -0.000008  -0.000084  -0.000044   0.000003
     8  H   -0.000309   0.000000   0.000001   0.000017   0.000028  -0.000002
     9  C   -0.017076   0.000182  -0.000791   0.000999   0.017590  -0.000906
    10  H   -0.000081   0.000000  -0.000004   0.000002   0.000312  -0.000011
    11  H    0.000902  -0.000006   0.000053  -0.000044  -0.001049   0.000110
    12  N   -0.000350   0.000011   0.000040  -0.000105   0.000066  -0.000053
    13  C    0.001592  -0.000011   0.000116  -0.000207  -0.002652   0.000148
    14  H   -0.000011  -0.000007  -0.000002  -0.000002   0.000039  -0.000002
    15  H    0.000116  -0.000002   0.000025   0.000007  -0.000054   0.000006
    16  H   -0.000207  -0.000002   0.000007   0.000074   0.000015  -0.000002
    17  C   -0.002652   0.000039  -0.000054   0.000015   0.004123  -0.000327
    18  H    0.000148  -0.000002   0.000006  -0.000002  -0.000327   0.000040
    19  H    0.000164  -0.000009   0.000006  -0.000003  -0.000190   0.000035
    20  H    0.000106  -0.000001   0.000000  -0.000001  -0.000278   0.000017
    21  C    0.009498  -0.000159   0.000183  -0.000439  -0.007544   0.000551
    22  H    0.000204  -0.000002   0.000001  -0.000004  -0.000221   0.000003
    23  H    0.000068   0.000001   0.000000  -0.000022  -0.000147   0.000001
    24  C   -0.005809   0.000073  -0.000043   0.000338   0.003762  -0.000218
    25  O    0.000260  -0.000012   0.000006  -0.000014  -0.000269   0.000012
    26  O    0.000162  -0.000002   0.000001  -0.000005  -0.000159   0.000002
              19         20         21         22         23         24
     1  N   -0.000001  -0.000003  -0.001275   0.000002   0.000079   0.000199
     2  H    0.000000   0.000000  -0.000307  -0.000000   0.000039  -0.000009
     3  C    0.000085   0.000145   0.015886   0.000978   0.001194  -0.012670
     4  H   -0.000003  -0.000022  -0.002863  -0.000364  -0.000421   0.004442
     5  H    0.000000   0.000003   0.000033   0.000006   0.000025  -0.000150
     6  C    0.000156   0.000395   0.020200   0.000408   0.000676  -0.009124
     7  H    0.000002   0.000002   0.000972   0.000021   0.000095  -0.000651
     8  H   -0.000000  -0.000001  -0.000149   0.000000  -0.000006   0.000117
     9  C   -0.000463  -0.000813  -0.056071  -0.002078  -0.002289   0.033255
    10  H   -0.000004  -0.000026  -0.000387  -0.000005  -0.000015   0.000284
    11  H    0.000016   0.000054   0.001806   0.000023   0.000025  -0.000835
    12  N   -0.000309  -0.000000  -0.006572   0.000067   0.000170   0.004650
    13  C    0.000164   0.000106   0.009498   0.000204   0.000068  -0.005809
    14  H   -0.000009  -0.000001  -0.000159  -0.000002   0.000001   0.000073
    15  H    0.000006   0.000000   0.000183   0.000001   0.000000  -0.000043
    16  H   -0.000003  -0.000001  -0.000439  -0.000004  -0.000022   0.000338
    17  C   -0.000190  -0.000278  -0.007544  -0.000221  -0.000147   0.003762
    18  H    0.000035   0.000017   0.000551   0.000003   0.000001  -0.000218
    19  H    0.000115   0.000030   0.000997   0.000009   0.000005  -0.000614
    20  H    0.000030   0.000021   0.000714   0.000026   0.000002  -0.000371
    21  C    0.000997   0.000714   0.058877   0.002642   0.001642  -0.045425
    22  H    0.000009   0.000026   0.002642  -0.000091   0.000157  -0.002114
    23  H    0.000005   0.000002   0.001642   0.000157   0.000083  -0.001185
    24  C   -0.000614  -0.000371  -0.045425  -0.002114  -0.001185   0.039294
    25  O    0.000064   0.000021   0.003166   0.000029   0.000037  -0.002608
    26  O    0.000006   0.000006   0.001913   0.000063   0.000085  -0.001839
              25         26
     1  N    0.000001   0.000005
     2  H    0.000000   0.000000
     3  C    0.000231   0.000614
     4  H   -0.000019  -0.000151
     5  H    0.000001   0.000002
     6  C    0.000384   0.000211
     7  H    0.000010   0.000011
     8  H   -0.000001  -0.000000
     9  C   -0.001082  -0.001026
    10  H   -0.000001  -0.000002
    11  H    0.000013   0.000004
    12  N   -0.000637  -0.000207
    13  C    0.000260   0.000162
    14  H   -0.000012  -0.000002
    15  H    0.000006   0.000001
    16  H   -0.000014  -0.000005
    17  C   -0.000269  -0.000159
    18  H    0.000012   0.000002
    19  H    0.000064   0.000006
    20  H    0.000021   0.000006
    21  C    0.003166   0.001913
    22  H    0.000029   0.000063
    23  H    0.000037   0.000085
    24  C   -0.002608  -0.001839
    25  O    0.000533   0.000061
    26  O    0.000061   0.000300
 Mulliken charges and spin densities:
               1          2
     1  N   -0.278784   0.970152
     2  H    0.176005  -0.020342
     3  C   -0.124887  -0.064555
     4  H    0.137497   0.045904
     5  H    0.122199   0.002443
     6  C   -0.270474   0.041329
     7  H    0.136272  -0.000747
     8  H    0.142073  -0.001360
     9  C   -0.122663   0.026264
    10  H    0.155366   0.000308
    11  H    0.158650   0.000495
    12  N   -0.255266  -0.000574
    13  C   -0.212493  -0.000438
    14  H    0.208819  -0.000009
    15  H    0.136066   0.000020
    16  H    0.135345   0.000055
    17  C   -0.178495  -0.000047
    18  H    0.133032   0.000051
    19  H    0.206068   0.000093
    20  H    0.146651   0.000026
    21  C   -0.038849  -0.002112
    22  H    0.166759  -0.000240
    23  H    0.156247   0.000298
    24  C    0.351488   0.002748
    25  O   -0.627066   0.000184
    26  O   -0.559561   0.000053
 Sum of Mulliken charges =  -0.00000   1.00000
 Mulliken charges and spin densities with hydrogens summed into heavy atoms:
               1          2
     1  N   -0.102779   0.949810
     3  C    0.134809  -0.016208
     6  C    0.007872   0.039221
     9  C    0.191353   0.027067
    12  N   -0.255266  -0.000574
    13  C    0.267738  -0.000371
    17  C    0.307256   0.000124
    21  C    0.284157  -0.002054
    24  C    0.351488   0.002748
    25  O   -0.627066   0.000184
    26  O   -0.559561   0.000053
 Electronic spatial extent (au):  <R**2>=           2222.4173
 Charge=             -0.0000 electrons
 Dipole moment (field-independent basis, Debye):
    X=              6.6899    Y=             -8.3593    Z=             -0.0462  Tot=             10.7068
 Quadrupole moment (field-independent basis, Debye-Ang):
   XX=           -102.2503   YY=            -74.1361   ZZ=            -61.7095
   XY=             10.9117   XZ=              4.4411   YZ=              2.7093
 Traceless Quadrupole moment (field-independent basis, Debye-Ang):
   XX=            -22.8850   YY=              5.2292   ZZ=             17.6558
   XY=             10.9117   XZ=              4.4411   YZ=              2.7093
 Octapole moment (field-independent basis, Debye-Ang**2):
  XXX=             -2.3055  YYY=            -46.4427  ZZZ=              1.4044  XYY=             22.7797
  XXY=            -51.4880  XXZ=              0.9853  XZZ=              2.3090  YZZ=             -1.0362
  YYZ=              6.5290  XYZ=              4.4238
 Hexadecapole moment (field-independent basis, Debye-Ang**3):
 XXXX=          -2492.2422 YYYY=           -795.3868 ZZZZ=           -256.4825 XXXY=            -32.1005
 XXXZ=             61.0312 YYYX=             76.9004 YYYZ=             14.0483 ZZZX=              5.9258
 ZZZY=              4.7336 XXYY=           -500.9965 XXZZ=           -333.1837 YYZZ=           -161.5939
 XXYZ=             27.4988 YYXZ=              9.5859 ZZXY=             14.1901
 N-N= 6.688860161101D+02 E-N=-2.587115355923D+03  KE= 5.335485773693D+02
                          Isotropic Fermi Contact Couplings
        Atom                 a.u.       MegaHertz       Gauss      10(-4) cm-1
     1  N(14)              0.10556      34.10662      12.17009      11.37674
     2  H(1)              -0.01409     -62.96503     -22.46749     -21.00287
     3  C(13)             -0.02637     -29.64792     -10.57912      -9.88948
     4  H(1)               0.02485     111.08490      39.63786      37.05393
     5  H(1)               0.00007       0.30479       0.10876       0.10167
     6  C(13)              0.04579      51.47666      18.36815      17.17077
     7  H(1)              -0.00063      -2.83516      -1.01165      -0.94571
     8  H(1)              -0.00084      -3.76704      -1.34417      -1.25655
     9  C(13)              0.00201       2.25949       0.80624       0.75368
    10  H(1)               0.00003       0.13130       0.04685       0.04380
    11  H(1)               0.00019       0.85318       0.30443       0.28459
    12  N(14)              0.00006       0.01971       0.00703       0.00657
    13  C(13)             -0.00002      -0.02177      -0.00777      -0.00726
    14  H(1)              -0.00000      -0.01900      -0.00678      -0.00634
    15  H(1)              -0.00000      -0.00435      -0.00155      -0.00145
    16  H(1)              -0.00000      -0.00089      -0.00032      -0.00030
    17  C(13)              0.00008       0.09282       0.03312       0.03096
    18  H(1)               0.00002       0.06961       0.02484       0.02322
    19  H(1)               0.00005       0.22258       0.07942       0.07424
    20  H(1)              -0.00000      -0.01671      -0.00596      -0.00557
    21  C(13)              0.00046       0.51783       0.18478       0.17273
    22  H(1)               0.00012       0.51560       0.18398       0.17199
    23  H(1)               0.00002       0.08064       0.02877       0.02690
    24  C(13)              0.00006       0.06839       0.02440       0.02281
    25  O(17)              0.00003      -0.01603      -0.00572      -0.00535
    26  O(17)              0.00001      -0.00830      -0.00296      -0.00277
 --------------------------------------------------------
       Center         ----  Spin Dipole Couplings  ----
                      3XX-RR        3YY-RR        3ZZ-RR
 --------------------------------------------------------
     1   Atom       -0.862596      1.209324     -0.346728
     2   Atom       -0.089754      0.000407      0.089347
     3   Atom        0.007935      0.005517     -0.013453
     4   Atom        0.014384     -0.008049     -0.006335
     5   Atom       -0.008389     -0.000917      0.009306
     6   Atom       -0.002948      0.019457     -0.016509
     7   Atom        0.003860     -0.004098      0.000237
     8   Atom       -0.004313      0.012867     -0.008555
     9   Atom        0.000911      0.001913     -0.002824
    10   Atom        0.000115      0.000365     -0.000480
    11   Atom       -0.000169      0.002065     -0.001895
    12   Atom        0.003296     -0.001116     -0.002179
    13   Atom        0.001261     -0.000386     -0.000875
    14   Atom        0.000970     -0.000418     -0.000552
    15   Atom        0.000572      0.000099     -0.000670
    16   Atom        0.001398     -0.000790     -0.000608
    17   Atom        0.001052     -0.000332     -0.000720
    18   Atom        0.000460      0.000142     -0.000602
    19   Atom        0.000804     -0.000292     -0.000511
    20   Atom        0.000731     -0.000329     -0.000402
    21   Atom        0.004248     -0.002341     -0.001907
    22   Atom        0.003354     -0.002060     -0.001295
    23   Atom        0.005304     -0.002778     -0.002525
    24   Atom        0.001790     -0.000852     -0.000937
    25   Atom        0.002034     -0.000988     -0.001046
    26   Atom        0.001669     -0.000704     -0.000965
 --------------------------------------------------------
                        XY            XZ            YZ
 --------------------------------------------------------
     1   Atom       -0.689502      0.388167     -1.279783
     2   Atom       -0.037863     -0.028794      0.050386
     3   Atom        0.005887      0.022962     -0.000380
     4   Atom       -0.001089      0.014382      0.001046
     5   Atom        0.004992      0.008817      0.013060
     6   Atom        0.038883     -0.018605     -0.026955
     7   Atom        0.007127     -0.008244     -0.003554
     8   Atom        0.004707      0.001011     -0.004426
     9   Atom        0.007163      0.004382      0.004369
    10   Atom        0.002902      0.002417      0.002156
    11   Atom        0.002422      0.000624      0.000407
    12   Atom        0.001533      0.000470     -0.000067
    13   Atom        0.001229     -0.000702     -0.000392
    14   Atom        0.000642     -0.000438     -0.000183
    15   Atom        0.001151     -0.000442     -0.000384
    16   Atom        0.001336     -0.001490     -0.000702
    17   Atom        0.000907      0.000612      0.000206
    18   Atom        0.000895      0.000280      0.000217
    19   Atom        0.000553      0.000192      0.000090
    20   Atom        0.000820      0.000762      0.000377
    21   Atom        0.000915     -0.000607     -0.000134
    22   Atom        0.000685      0.001759     -0.000029
    23   Atom        0.000296     -0.001213     -0.000025
    24   Atom       -0.000140     -0.000074      0.000025
    25   Atom       -0.000140      0.000024     -0.000049
    26   Atom       -0.000617      0.000112     -0.000066
 --------------------------------------------------------


 ---------------------------------------------------------------------------------
              Anisotropic Spin Dipole Couplings in Principal Axis System
 ---------------------------------------------------------------------------------

       Atom             a.u.   MegaHertz   Gauss  10(-4) cm-1        Axes

              Baa    -1.0713   -41.318   -14.743   -13.782  0.9644  0.1861 -0.1879
     1 N(14)  Bbb    -1.0664   -41.129   -14.676   -13.719  0.0701  0.5050  0.8603
              Bcc     2.1377    82.446    29.419    27.501 -0.2550  0.8428 -0.4740
 
              Baa    -0.1041   -55.556   -19.824   -18.532  0.9474  0.3147  0.0590
     2 H(1)   Bbb    -0.0164    -8.758    -3.125    -2.922 -0.2515  0.8454 -0.4712
              Bcc     0.1205    64.315    22.949    21.453 -0.1982  0.4316  0.8800
 
              Baa    -0.0285    -3.818    -1.362    -1.274 -0.5427  0.1034  0.8335
     3 C(13)  Bbb     0.0046     0.621     0.221     0.207 -0.1600  0.9615 -0.2235
              Bcc     0.0238     3.197     1.141     1.066  0.8245  0.2547  0.5053
 
              Baa    -0.0140    -7.491    -2.673    -2.499 -0.4462 -0.2320  0.8643
     4 H(1)   Bbb    -0.0077    -4.117    -1.469    -1.373 -0.0913  0.9726  0.2140
              Bcc     0.0218    11.609     4.142     3.872  0.8903 -0.0166  0.4552
 
              Baa    -0.0121    -6.442    -2.299    -2.149  0.8931  0.1107 -0.4360
     5 H(1)   Bbb    -0.0095    -5.093    -1.817    -1.699 -0.3170  0.8425 -0.4355
              Bcc     0.0216    11.535     4.116     3.848  0.3191  0.5271  0.7876
 
              Baa    -0.0328    -4.399    -1.570    -1.467 -0.6316  0.6707  0.3888
     6 C(13)  Bbb    -0.0295    -3.962    -1.414    -1.322  0.5454  0.0281  0.8377
              Bcc     0.0623     8.361     2.984     2.789  0.5510  0.7412 -0.3835
 
              Baa    -0.0086    -4.580    -1.634    -1.528 -0.6043  0.7527 -0.2615
     7 H(1)   Bbb    -0.0053    -2.827    -1.009    -0.943  0.3080  0.5233  0.7946
              Bcc     0.0139     7.408     2.643     2.471  0.7349  0.3996 -0.5480
 
              Baa    -0.0102    -5.420    -1.934    -1.808 -0.3541  0.2459  0.9023
     8 H(1)   Bbb    -0.0046    -2.465    -0.880    -0.822  0.9072 -0.1441  0.3953
              Bcc     0.0148     7.884     2.813     2.630  0.2272  0.9585 -0.1720
 
              Baa    -0.0059    -0.790    -0.282    -0.264  0.7673 -0.4470 -0.4599
     9 C(13)  Bbb    -0.0054    -0.726    -0.259    -0.242  0.1271 -0.5968  0.7922
              Bcc     0.0113     1.516     0.541     0.506  0.6286  0.6663  0.4011
 
              Baa    -0.0028    -1.485    -0.530    -0.495  0.7930 -0.4488 -0.4120
    10 H(1)   Bbb    -0.0023    -1.202    -0.429    -0.401  0.0250 -0.6518  0.7580
              Bcc     0.0050     2.687     0.959     0.896  0.6087  0.6114  0.5056
 
              Baa    -0.0022    -1.163    -0.415    -0.388 -0.5171  0.2156  0.8284
    11 H(1)   Bbb    -0.0015    -0.810    -0.289    -0.270  0.6634 -0.5106  0.5470
              Bcc     0.0037     1.973     0.704     0.658  0.5408  0.8324  0.1210
 
              Baa    -0.0023    -0.088    -0.031    -0.029 -0.1512  0.2564  0.9547
    12 N(14)  Bbb    -0.0015    -0.059    -0.021    -0.020 -0.2640  0.9202 -0.2889
              Bcc     0.0038     0.147     0.052     0.049  0.9526  0.2957  0.0715
 
              Baa    -0.0011    -0.147    -0.052    -0.049  0.0916  0.3555  0.9302
    13 C(13)  Bbb    -0.0010    -0.139    -0.050    -0.046 -0.5160  0.8159 -0.2610
              Bcc     0.0021     0.286     0.102     0.095  0.8517  0.4560 -0.2582
 
              Baa    -0.0007    -0.363    -0.130    -0.121 -0.0925  0.7119  0.6961
    14 H(1)   Bbb    -0.0007    -0.352    -0.126    -0.117  0.4202 -0.6059  0.6755
              Bcc     0.0013     0.715     0.255     0.239  0.9027  0.3550 -0.2431
 
              Baa    -0.0009    -0.454    -0.162    -0.151 -0.4624  0.7516  0.4704
    15 H(1)   Bbb    -0.0008    -0.431    -0.154    -0.144  0.4723 -0.2403  0.8481
              Bcc     0.0017     0.885     0.316     0.295  0.7504  0.6143 -0.2439
 
              Baa    -0.0014    -0.759    -0.271    -0.253 -0.4708  0.8758 -0.1060
    16 H(1)   Bbb    -0.0014    -0.746    -0.266    -0.249  0.3383  0.2902  0.8952
              Bcc     0.0028     1.505     0.537     0.502  0.8148  0.3856 -0.4329
 
              Baa    -0.0009    -0.126    -0.045    -0.042 -0.4114  0.3281  0.8503
    17 C(13)  Bbb    -0.0007    -0.099    -0.035    -0.033 -0.2724  0.8460 -0.4583
              Bcc     0.0017     0.224     0.080     0.075  0.8698  0.4202  0.2587
 
              Baa    -0.0007    -0.358    -0.128    -0.119 -0.2685  0.0386  0.9625
    18 H(1)   Bbb    -0.0006    -0.323    -0.115    -0.108 -0.5993  0.7756 -0.1983
              Bcc     0.0013     0.681     0.243     0.227  0.7542  0.6301  0.1851
 
              Baa    -0.0005    -0.290    -0.104    -0.097  0.0414 -0.4163  0.9083
    19 H(1)   Bbb    -0.0005    -0.277    -0.099    -0.092 -0.4026  0.8251  0.3965
              Bcc     0.0011     0.567     0.202     0.189  0.9144  0.3821  0.1334
 
              Baa    -0.0008    -0.429    -0.153    -0.143 -0.5847  0.5033  0.6362
    20 H(1)   Bbb    -0.0007    -0.397    -0.142    -0.132 -0.0746  0.7476 -0.6599
              Bcc     0.0015     0.826     0.295     0.275  0.8078  0.4333  0.3996
 
              Baa    -0.0025    -0.332    -0.118    -0.111 -0.1253  0.9870  0.1002
    21 C(13)  Bbb    -0.0020    -0.263    -0.094    -0.088  0.1095 -0.0866  0.9902
              Bcc     0.0044     0.595     0.212     0.198  0.9861  0.1351 -0.0972
 
              Baa    -0.0023    -1.216    -0.434    -0.405 -0.2502  0.8453  0.4721
    22 H(1)   Bbb    -0.0017    -0.925    -0.330    -0.309 -0.2145 -0.5238  0.8244
              Bcc     0.0040     2.141     0.764     0.714  0.9441  0.1050  0.3124
 
              Baa    -0.0028    -1.490    -0.532    -0.497 -0.0680  0.9739 -0.2166
    23 H(1)   Bbb    -0.0027    -1.443    -0.515    -0.481  0.1379  0.2242  0.9647
              Bcc     0.0055     2.933     1.047     0.978  0.9881  0.0357 -0.1495
 
              Baa    -0.0009    -0.127    -0.045    -0.042  0.0139 -0.2391  0.9709
    24 C(13)  Bbb    -0.0009    -0.115    -0.041    -0.038  0.0580  0.9695  0.2379
              Bcc     0.0018     0.241     0.086     0.081  0.9982 -0.0530 -0.0274
 
              Baa    -0.0011     0.078     0.028     0.026  0.0164  0.5108  0.8596
    25 O(17)  Bbb    -0.0010     0.070     0.025     0.023  0.0440  0.8585 -0.5110
              Bcc     0.0020    -0.148    -0.053    -0.049  0.9989 -0.0462  0.0084
 
              Baa    -0.0010     0.071     0.025     0.024  0.0260  0.2857  0.9580
    26 O(17)  Bbb    -0.0008     0.061     0.022     0.020  0.2408  0.9283 -0.2834
              Bcc     0.0018    -0.132    -0.047    -0.044  0.9702 -0.2380  0.0446
 

 ---------------------------------------------------------------------------------

 Calling FoFJK, ICntrl=      2127 FMM=F ISym2X=0 I1Cent= 0 IOpClX= 1 NMat=1 NMatS=1 NMatT=0.
 ***** Axes restored to original set *****
 -------------------------------------------------------------------
 Center     Atomic                   Forces (Hartrees/Bohr)
 Number     Number              X              Y              Z
 -------------------------------------------------------------------
      1        7           0.010500751   -0.009529802   -0.022245671
      2        1          -0.016275083   -0.000876499    0.007220637
      3        6           0.012296538    0.009901048    0.014338530
      4        1          -0.005699921    0.001889203   -0.000007960
      5        1           0.000144820   -0.001704554   -0.000419718
      6        6          -0.001648847    0.002948345    0.001217438
      7        1           0.000315012   -0.000407331   -0.000081542
      8        1           0.000090249   -0.000974507    0.000322527
      9        6          -0.000156639   -0.001198950   -0.001074378
     10        1           0.000214636    0.000028316    0.000218963
     11        1          -0.000336624   -0.000245309    0.000011344
     12        7           0.000495158   -0.000069831    0.000433443
     13        6           0.000065761   -0.000009082    0.000061310
     14        1          -0.000048423    0.000067838   -0.000023177
     15        1          -0.000066205   -0.000059936   -0.000018526
     16        1          -0.000094250    0.000079906    0.000044841
     17        6           0.000195574   -0.000091110   -0.000154433
     18        1          -0.000038227   -0.000049954    0.000004818
     19        1           0.000066483    0.000018994    0.000056898
     20        1          -0.000022218    0.000015471    0.000001365
     21        6           0.000075996    0.000510646    0.000093049
     22        1           0.000025425   -0.000014446    0.000038431
     23        1           0.000056313    0.000048001   -0.000025846
     24        6          -0.000065346    0.000463653   -0.000031914
     25        8          -0.000116568   -0.000277224    0.000063660
     26        8           0.000025638   -0.000462887   -0.000044088
 -------------------------------------------------------------------
 Cartesian Forces:  Max     0.022245671 RMS     0.004423446

 GradGradGradGradGradGradGradGradGradGradGradGradGradGradGradGradGradGrad
 Berny optimization.
 FormGI is forming the generalized inverse of G from B-inverse, IUseBI=4.
 Internal  Forces:  Max     0.028325388 RMS     0.003035494
 Search for a local minimum.
 Step number   1 out of a maximum of  144
 All quantities printed in internal units (Hartrees-Bohrs-Radians)
 Mixed Optimization -- RFO/linear search
 Second derivative matrix not updated -- first step.
 ITU=  0
     Eigenvalues ---    0.00230   0.00230   0.00230   0.00292   0.00339
     Eigenvalues ---    0.00388   0.00433   0.00455   0.00963   0.03195
     Eigenvalues ---    0.03428   0.03539   0.04448   0.04546   0.04716
     Eigenvalues ---    0.04836   0.04938   0.05131   0.05296   0.05604
     Eigenvalues ---    0.06004   0.06042   0.06164   0.06182   0.08459
     Eigenvalues ---    0.08982   0.09869   0.11818   0.12310   0.12636
     Eigenvalues ---    0.13221   0.14034   0.14310   0.14553   0.16000
     Eigenvalues ---    0.16000   0.16000   0.16000   0.16000   0.16000
     Eigenvalues ---    0.16000   0.21909   0.22014   0.22026   0.22154
     Eigenvalues ---    0.25000   0.25000   0.25560   0.29215   0.29555
     Eigenvalues ---    0.30920   0.31778   0.32890   0.33071   0.34737
     Eigenvalues ---    0.34805   0.34818   0.34887   0.34949   0.35006
     Eigenvalues ---    0.35007   0.35072   0.35074   0.35136   0.35168
     Eigenvalues ---    0.35215   0.35253   0.35338   0.37590   0.46202
     Eigenvalues ---    0.85468   0.91945
 RFO step:  Lambda=-6.18664842D-03 EMin= 2.30000000D-03
 Linear search not attempted -- first point.
 Iteration  1 RMS(Cart)=  0.03145600 RMS(Int)=  0.00228619
 Iteration  2 RMS(Cart)=  0.00237301 RMS(Int)=  0.00003676
 Iteration  3 RMS(Cart)=  0.00001398 RMS(Int)=  0.00003579
 Iteration  4 RMS(Cart)=  0.00000000 RMS(Int)=  0.00003579
 Variable       Old X    -DE/DX   Delta X   Delta X   Delta X     New X
                                 (Linear)    (Quad)   (Total)
    R1        1.90604   0.00979   0.00000   0.02091   0.02091   1.92695
    R2        2.74966  -0.01631   0.00000  -0.04267  -0.04267   2.70698
    R3        2.05858   0.00504   0.00000   0.01421   0.01421   2.07279
    R4        2.05972   0.00094   0.00000   0.00266   0.00266   2.06238
    R5        2.89556   0.00071   0.00000   0.00236   0.00236   2.89793
    R6        2.06104  -0.00030   0.00000  -0.00085  -0.00085   2.06019
    R7        2.05665   0.00081   0.00000   0.00227   0.00227   2.05892
    R8        2.88859   0.00048   0.00000   0.00160   0.00160   2.89019
    R9        2.05992  -0.00018   0.00000  -0.00050  -0.00050   2.05942
   R10        2.05758   0.00024   0.00000   0.00068   0.00068   2.05827
   R11        2.84553  -0.00035   0.00000  -0.00109  -0.00109   2.84444
   R12        2.82227   0.00007   0.00000   0.00021   0.00021   2.82247
   R13        2.82545  -0.00002   0.00000  -0.00005  -0.00005   2.82540
   R14        2.86166   0.00027   0.00000   0.00085   0.00085   2.86251
   R15        2.05403   0.00006   0.00000   0.00017   0.00017   2.05420
   R16        2.05554   0.00005   0.00000   0.00015   0.00015   2.05569
   R17        2.05130   0.00001   0.00000   0.00002   0.00002   2.05132
   R18        2.05558   0.00004   0.00000   0.00012   0.00012   2.05571
   R19        2.05328  -0.00004   0.00000  -0.00012  -0.00012   2.05316
   R20        2.05454  -0.00000   0.00000  -0.00000  -0.00000   2.05454
   R21        2.05663  -0.00003   0.00000  -0.00009  -0.00009   2.05654
   R22        2.05265   0.00004   0.00000   0.00010   0.00010   2.05275
   R23        2.97806   0.00003   0.00000   0.00013   0.00013   2.97819
   R24        2.35094   0.00028   0.00000   0.00032   0.00032   2.35126
   R25        2.32049  -0.00046   0.00000  -0.00049  -0.00049   2.32000
    A1        2.03700  -0.02833   0.00000  -0.17044  -0.17044   1.86655
    A2        1.87769   0.00338   0.00000   0.02144   0.02125   1.89894
    A3        1.86816   0.00127   0.00000   0.00793   0.00785   1.87602
    A4        1.98570  -0.00279   0.00000  -0.01362  -0.01366   1.97204
    A5        1.86356   0.00120   0.00000   0.01297   0.01280   1.87636
    A6        1.94569  -0.00273   0.00000  -0.02271  -0.02271   1.92298
    A7        1.91742   0.00010   0.00000  -0.00289  -0.00287   1.91455
    A8        1.91500  -0.00014   0.00000   0.00268   0.00266   1.91766
    A9        1.88265   0.00031   0.00000   0.00160   0.00161   1.88426
   A10        1.97761   0.00048   0.00000   0.00310   0.00308   1.98070
   A11        1.85283  -0.00009   0.00000  -0.00340  -0.00340   1.84943
   A12        1.94181   0.00016   0.00000   0.00359   0.00357   1.94538
   A13        1.88853  -0.00077   0.00000  -0.00828  -0.00827   1.88026
   A14        1.92317  -0.00010   0.00000  -0.00094  -0.00094   1.92223
   A15        1.92834   0.00038   0.00000   0.00235   0.00234   1.93068
   A16        2.03840  -0.00043   0.00000  -0.00216  -0.00216   2.03624
   A17        1.87449  -0.00004   0.00000   0.00077   0.00077   1.87526
   A18        1.84947   0.00035   0.00000   0.00214   0.00214   1.85161
   A19        1.84130  -0.00015   0.00000  -0.00198  -0.00198   1.83932
   A20        1.92800   0.00014   0.00000   0.00170   0.00170   1.92970
   A21        1.87964  -0.00029   0.00000  -0.00242  -0.00242   1.87722
   A22        1.93730   0.00027   0.00000   0.00281   0.00281   1.94010
   A23        1.89363   0.00009   0.00000  -0.00046  -0.00046   1.89316
   A24        1.91878  -0.00023   0.00000  -0.00101  -0.00102   1.91776
   A25        1.90545   0.00001   0.00000  -0.00073  -0.00073   1.90472
   A26        1.86428  -0.00012   0.00000  -0.00101  -0.00101   1.86327
   A27        1.89485   0.00003   0.00000   0.00040   0.00040   1.89524
   A28        1.90595   0.00008   0.00000   0.00057   0.00057   1.90652
   A29        1.95459   0.00001   0.00000  -0.00014  -0.00014   1.95445
   A30        1.92195  -0.00004   0.00000  -0.00065  -0.00065   1.92130
   A31        1.92071   0.00003   0.00000   0.00082   0.00082   1.92153
   A32        1.89600   0.00006   0.00000   0.00046   0.00046   1.89646
   A33        1.87143  -0.00014   0.00000  -0.00101  -0.00101   1.87042
   A34        1.89095   0.00003   0.00000   0.00026   0.00026   1.89122
   A35        1.95545   0.00001   0.00000  -0.00009  -0.00009   1.95536
   A36        1.92162   0.00000   0.00000   0.00033   0.00033   1.92195
   A37        1.92638   0.00003   0.00000   0.00004   0.00004   1.92641
   A38        1.86183   0.00017   0.00000   0.00004   0.00004   1.86187
   A39        1.86954   0.00027   0.00000   0.00164   0.00164   1.87118
   A40        2.05257  -0.00078   0.00000  -0.00358  -0.00359   2.04899
   A41        1.90498  -0.00012   0.00000   0.00008   0.00008   1.90506
   A42        1.89625   0.00024   0.00000   0.00056   0.00055   1.89680
   A43        1.87526   0.00024   0.00000   0.00143   0.00143   1.87669
   A44        2.05123  -0.00016   0.00000  -0.00062  -0.00063   2.05061
   A45        1.92051   0.00002   0.00000   0.00007   0.00007   1.92058
   A46        2.31140   0.00015   0.00000   0.00059   0.00059   2.31199
    D1        1.11601  -0.00160   0.00000   0.01875   0.01852   1.13453
    D2        3.11339   0.00203   0.00000   0.04788   0.04804  -3.12176
    D3       -1.04835   0.00129   0.00000   0.04126   0.04133  -1.00702
    D4        0.99772   0.00016   0.00000   0.01311   0.01315   1.01087
    D5       -1.01336   0.00017   0.00000   0.01485   0.01490  -0.99846
    D6       -3.10350   0.00062   0.00000   0.02221   0.02226  -3.08124
    D7       -1.12940  -0.00015   0.00000   0.01223   0.01217  -1.11723
    D8       -3.14048  -0.00015   0.00000   0.01397   0.01392  -3.12656
    D9        1.05256   0.00031   0.00000   0.02132   0.02128   1.07384
   D10        3.09156  -0.00001   0.00000   0.01207   0.01208   3.10363
   D11        1.08048  -0.00001   0.00000   0.01382   0.01382   1.09430
   D12       -1.00966   0.00045   0.00000   0.02117   0.02118  -0.98848
   D13        0.37072  -0.00006   0.00000  -0.00308  -0.00308   0.36764
   D14        2.43934   0.00007   0.00000  -0.00126  -0.00126   2.43808
   D15       -1.73994  -0.00014   0.00000  -0.00360  -0.00360  -1.74355
   D16        2.53816   0.00025   0.00000   0.00567   0.00568   2.54384
   D17       -1.67641   0.00038   0.00000   0.00749   0.00750  -1.66891
   D18        0.42750   0.00017   0.00000   0.00515   0.00516   0.43266
   D19       -1.71606  -0.00022   0.00000  -0.00137  -0.00137  -1.71743
   D20        0.35256  -0.00009   0.00000   0.00045   0.00045   0.35301
   D21        2.45647  -0.00030   0.00000  -0.00189  -0.00189   2.45458
   D22       -1.17788  -0.00005   0.00000   0.00072   0.00071  -1.17717
   D23        3.04009  -0.00006   0.00000   0.00176   0.00175   3.04185
   D24        0.95520  -0.00006   0.00000   0.00252   0.00252   0.95772
   D25        2.95618   0.00009   0.00000   0.00170   0.00170   2.95788
   D26        0.89097   0.00007   0.00000   0.00275   0.00275   0.89371
   D27       -1.19392   0.00008   0.00000   0.00350   0.00351  -1.19041
   D28        0.97155   0.00004   0.00000   0.00079   0.00078   0.97233
   D29       -1.09367   0.00002   0.00000   0.00183   0.00183  -1.09184
   D30        3.10463   0.00003   0.00000   0.00259   0.00259   3.10722
   D31       -3.11896   0.00016   0.00000   0.00225   0.00225  -3.11671
   D32       -1.00814   0.00012   0.00000   0.00172   0.00172  -1.00642
   D33        1.08618   0.00023   0.00000   0.00329   0.00329   1.08946
   D34       -1.06231  -0.00006   0.00000   0.00002   0.00002  -1.06230
   D35        1.04851  -0.00009   0.00000  -0.00051  -0.00051   1.04799
   D36       -3.14036   0.00001   0.00000   0.00106   0.00106  -3.13931
   D37        1.02030  -0.00012   0.00000  -0.00175  -0.00175   1.01856
   D38        3.13112  -0.00016   0.00000  -0.00228  -0.00228   3.12884
   D39       -1.05775  -0.00005   0.00000  -0.00071  -0.00071  -1.05845
   D40        1.01106  -0.00001   0.00000  -0.00000  -0.00000   1.01106
   D41        3.12769  -0.00004   0.00000  -0.00044  -0.00044   3.12724
   D42       -1.07629  -0.00006   0.00000  -0.00081  -0.00081  -1.07710
   D43       -1.07613  -0.00006   0.00000  -0.00040  -0.00040  -1.07653
   D44        1.04050  -0.00009   0.00000  -0.00084  -0.00084   1.03965
   D45        3.11970  -0.00011   0.00000  -0.00121  -0.00121   3.11849
   D46        3.11610   0.00015   0.00000   0.00152   0.00153   3.11762
   D47       -1.05046   0.00012   0.00000   0.00109   0.00109  -1.04938
   D48        1.02874   0.00010   0.00000   0.00072   0.00072   1.02946
   D49        0.95964  -0.00008   0.00000  -0.00113  -0.00113   0.95851
   D50       -1.07850  -0.00016   0.00000  -0.00205  -0.00205  -1.08054
   D51        3.09290  -0.00016   0.00000  -0.00281  -0.00281   3.09009
   D52        3.09808   0.00012   0.00000   0.00222   0.00222   3.10030
   D53        1.05994   0.00004   0.00000   0.00130   0.00130   1.06125
   D54       -1.05185   0.00004   0.00000   0.00054   0.00054  -1.05131
   D55       -1.10973   0.00011   0.00000   0.00061   0.00061  -1.10912
   D56        3.13532   0.00003   0.00000  -0.00031  -0.00031   3.13501
   D57        1.02352   0.00003   0.00000  -0.00108  -0.00107   1.02245
   D58        0.03224   0.00006   0.00000   0.00251   0.00251   0.03475
   D59       -3.11736   0.00010   0.00000   0.00674   0.00674  -3.11062
   D60        2.14776  -0.00007   0.00000   0.00047   0.00047   2.14823
   D61       -1.00183  -0.00004   0.00000   0.00470   0.00470  -0.99713
   D62       -2.07658   0.00005   0.00000   0.00165   0.00165  -2.07493
   D63        1.05701   0.00008   0.00000   0.00587   0.00587   1.06288
         Item               Value     Threshold  Converged?
 Maximum Force            0.028325     0.000450     NO 
 RMS     Force            0.003035     0.000300     NO 
 Maximum Displacement     0.263047     0.001800     NO 
 RMS     Displacement     0.032390     0.001200     NO 
 Predicted change in Energy=-3.218876D-03
 GradGradGradGradGradGradGradGradGradGradGradGradGradGradGradGradGradGrad

                          Input orientation:                          
 ---------------------------------------------------------------------
 Center     Atomic      Atomic             Coordinates (Angstroms)
 Number     Number       Type             X           Y           Z
 ---------------------------------------------------------------------
      1          7           0        2.401018    1.008130    0.407790
      2          1           0        2.028753    1.298413    1.311637
      3          6           0        1.302611    0.482932   -0.346964
      4          1           0        0.589431    1.292787   -0.543533
      5          1           0        1.695244    0.150416   -1.309432
      6          6           0        0.597476   -0.684201    0.354649
      7          1           0        0.237702   -0.365546    1.333205
      8          1           0        1.339340   -1.458911    0.545814
      9          6           0       -0.523632   -1.308130   -0.477797
     10          1           0       -0.383120   -1.072914   -1.532591
     11          1           0       -0.514880   -2.392990   -0.381200
     12          7           0       -1.929256   -0.888497   -0.140476
     13          6           0       -2.317934   -1.394269    1.210054
     14          1           0       -3.344816   -1.080121    1.378785
     15          1           0       -2.217117   -2.477391    1.216954
     16          1           0       -1.665842   -0.954219    1.958026
     17          6           0       -2.839087   -1.502051   -1.155954
     18          1           0       -2.709441   -2.581868   -1.132113
     19          1           0       -3.852572   -1.207413   -0.898101
     20          1           0       -2.569856   -1.114600   -2.135458
     21          6           0       -2.076367    0.618366   -0.188145
     22          1           0       -1.741211    0.933846   -1.174291
     23          1           0       -1.409277    1.030376    0.563667
     24          6           0       -3.511413    1.215542    0.072177
     25          8           0       -4.426733    0.415803    0.338124
     26          8           0       -3.483628    2.438417   -0.032847
 ---------------------------------------------------------------------
                    Distance matrix (angstroms):
                    1          2          3          4          5
     1  N    0.000000
     2  H    1.019698   0.000000
     3  C    1.432475   1.985761   0.000000
     4  H    2.065887   2.348049   1.096873   0.000000
     5  H    2.045151   2.880821   1.091362   1.764776   0.000000
     6  C    2.473777   2.625860   1.533517   2.171469   2.161213
     7  H    2.724576   2.444809   2.162617   2.529017   3.061727
     8  H    2.689331   2.943571   2.137558   3.053012   2.481640
     9  C    3.834436   4.063349   2.561285   2.829841   2.782513
    10  H    3.980860   4.419271   2.582258   2.742378   2.421969
    11  H    4.548910   4.791891   3.402260   3.851079   3.495021
    12  N    4.759103   4.749426   3.516877   3.356224   3.947505
    13  C    5.355712   5.114152   4.365379   4.329909   4.983920
    14  H    6.190172   5.876834   5.198069   4.980392   5.843195
    15  H    5.842155   5.682700   4.857761   5.018991   5.347388
    16  H    4.774242   4.375180   4.023692   4.048838   4.815952
    17  C    6.017059   6.134124   4.663506   4.465526   4.828495
    18  H    6.432431   6.593859   5.109405   5.122689   5.186334
    19  H    6.761758   6.764030   5.453159   5.109610   5.726356
    20  H    5.973582   6.233162   4.554868   4.279116   4.524783
    21  C    4.533655   4.423101   3.385419   2.772657   3.962488
    22  H    4.434699   4.530494   3.186322   2.441022   3.527215
    23  H    3.813547   3.528648   2.912608   2.299910   3.731070
    24  C    5.925580   5.677726   4.887456   4.147528   5.491139
    25  O    6.853750   6.587870   5.770550   5.168010   6.345351
    26  O    6.071980   5.787365   5.179834   4.261817   5.803907
                    6          7          8          9         10
     6  C    0.000000
     7  H    1.090207   0.000000
     8  H    1.089533   1.740413   0.000000
     9  C    1.529423   2.178950   2.131004   0.000000
    10  H    2.162022   3.016385   2.726835   1.089798   0.000000
    11  H    2.167664   2.759727   2.273761   1.089188   1.756606
    12  N    2.582878   2.672250   3.388228   1.505210   2.088668
    13  C    3.120181   2.757664   3.717667   2.464910   3.371777
    14  H    4.092343   3.653372   4.772697   3.384962   4.153048
    15  H    3.446888   3.240300   3.759803   2.665942   3.591114
    16  H    2.786814   2.088161   3.358597   2.713509   3.720735
    17  C    3.841974   4.117546   4.511887   2.420503   2.521466
    18  H    4.092346   4.435711   4.524279   2.613102   2.801623
    19  H    4.652533   4.734745   5.394821   3.356880   3.529556
    20  H    4.051897   4.524941   4.752850   2.640517   2.268700
    21  C    3.023366   2.938963   4.064582   2.491238   2.745004
    22  H    3.228806   3.448485   4.263079   2.644628   2.449464
    23  H    2.647739   2.292013   3.708337   2.708805   3.141835
    24  C    4.535612   4.259799   5.559391   3.949459   4.195060
    25  O    5.143244   4.832975   6.066736   4.344177   4.697517
    26  O    5.153281   4.855574   6.227763   4.795432   4.918519
                   11         12         13         14         15
    11  H    0.000000
    12  N    2.078920   0.000000
    13  C    2.603946   1.493589   0.000000
    14  H    3.581858   2.085350   1.087035   0.000000
    15  H    2.336414   2.109518   1.087826   1.802847   0.000000
    16  H    2.977710   2.115991   1.085509   1.780541   1.781333
    17  C    2.606905   1.495138   2.425121   2.618910   2.639854
    18  H    2.327153   2.111762   2.655074   2.993920   2.402377
    19  H    3.579521   2.091614   2.614259   2.336286   2.959902
    20  H    2.989086   2.107474   3.366621   3.598841   3.635972
    21  C    3.397613   1.514776   2.462522   2.636113   3.402620
    22  H    3.633279   2.103585   3.381987   3.625715   4.192980
    23  H    3.662261   2.109092   2.668778   2.977402   3.658390
    24  C    4.712352   2.641102   3.087114   2.646705   4.077189
    25  O    4.869224   2.857910   2.912673   2.119272   3.745040
    26  O    5.681313   3.673692   4.194417   3.793690   5.227928
                   16         17         18         19         20
    16  H    0.000000
    17  C    3.372462   0.000000
    18  H    3.645175   1.087833   0.000000
    19  H    3.606018   1.086486   1.802952   0.000000
    20  H    4.195185   1.087214   1.782993   1.784665   0.000000
    21  C    2.692137   2.452461   3.396079   2.644317   2.653060
    22  H    3.658125   2.671940   3.646847   3.019788   2.409694
    23  H    2.438991   3.378556   4.196952   3.621348   3.637739
    24  C    3.416200   3.057064   4.063718   2.632213   3.345108
    25  O    3.481891   2.903628   3.754560   2.119610   3.450903
    26  O    4.333348   4.147782   5.197213   3.765218   4.228461
                   21         22         23         24         25
    21  C    0.000000
    22  H    1.088275   0.000000
    23  H    1.086270   1.772004   0.000000
    24  C    1.575990   2.183267   2.166754   0.000000
    25  O    2.417067   3.125348   3.087655   1.244235   0.000000
    26  O    2.305881   2.569562   2.577080   1.227691   2.262307
                   26
    26  O    0.000000
 Stoichiometry    C7H15N2O2(2)
 Framework group  C1[X(C7H15N2O2)]
 Deg. of freedom    72
 Full point group                 C1      NOp   1
 Largest Abelian subgroup         C1      NOp   1
 Largest concise Abelian subgroup C1      NOp   1
                         Standard orientation:                         
 ---------------------------------------------------------------------
 Center     Atomic      Atomic             Coordinates (Angstroms)
 Number     Number       Type             X           Y           Z
 ---------------------------------------------------------------------
      1          7           0        3.843955    1.274993    0.236270
      2          1           0        3.472082    1.612586    1.123696
      3          6           0        2.764227    0.632081   -0.451358
      4          1           0        2.001812    1.382858   -0.692581
      5          1           0        3.157806    0.249080   -1.394480
      6          6           0        2.140904   -0.515441    0.352592
      7          1           0        1.781220   -0.143145    1.312058
      8          1           0        2.929813   -1.230032    0.585112
      9          6           0        1.042819   -1.263900   -0.404478
     10          1           0        1.150137   -1.103099   -1.476992
     11          1           0        1.116226   -2.335867   -0.226074
     12          7           0       -0.378365   -0.899491   -0.068178
     13          6           0       -0.712292   -1.320827    1.325298
     14          1           0       -1.752403   -1.053044    1.492951
     15          1           0       -0.548733   -2.392781    1.412067
     16          1           0       -0.073239   -0.788373    2.022747
     17          6           0       -1.269514   -1.639805   -1.013285
     18          1           0       -1.077060   -2.705537   -0.910533
     19          1           0       -2.293491   -1.383821   -0.755613
     20          1           0       -1.041165   -1.314402   -2.025215
     21          6           0       -0.613448    0.588514   -0.226689
     22          1           0       -0.315244    0.845482   -1.241274
     23          1           0        0.042271    1.094198    0.476376
     24          6           0       -2.075703    1.122063    0.020051
     25          8           0       -2.938094    0.294833    0.366595
     26          8           0       -2.120797    2.332826   -0.178054
 ---------------------------------------------------------------------
 Rotational constants (GHZ):           1.5700826           0.6487028           0.5228344
 Standard basis: 6-311+G(2d,2p) (5D, 7F)
 There are   454 symmetry adapted cartesian basis functions of A   symmetry.
 There are   432 symmetry adapted basis functions of A   symmetry.
   432 basis functions,   627 primitive gaussians,   454 cartesian basis functions
    44 alpha electrons       43 beta electrons
       nuclear repulsion energy       669.7893247713 Hartrees.
 NAtoms=   26 NActive=   26 NUniq=   26 SFac= 1.00D+00 NAtFMM=   60 NAOKFM=F Big=F
 Integral buffers will be    131072 words long.
 Raffenetti 2 integral format.
 Two-electron integral symmetry is turned on.
 Nuclear repulsion after empirical dispersion term =      669.7683917648 Hartrees.
 One-electron integrals computed using PRISM.
 NBasis=   432 RedAO= T EigKep=  1.19D-05  NBF=   432
 NBsUse=   432 1.00D-06 EigRej= -1.00D+00 NBFU=   432
 Initial guess from the checkpoint file:  "aminopropyl_betaine.chk"
 B after Tr=    -0.000000   -0.000000    0.000000
         Rot=    0.999993   -0.002013    0.000315   -0.002986 Ang=  -0.41 deg.
 Initial guess <Sx>= 0.0000 <Sy>= 0.0000 <Sz>= 0.5000 <S**2>= 0.7542 S= 0.5021
 ExpMin= 4.38D-02 ExpMax= 8.59D+03 ExpMxC= 1.30D+03 IAcc=2 IRadAn=         4 AccDes= 0.00D+00
 Harris functional with IExCor= 4639 and IRadAn=       4 diagonalized for initial guess.
 HarFok:  IExCor= 4639 AccDes= 0.00D+00 IRadAn=         4 IDoV= 1 UseB2=F ITyADJ=14
 ICtDFT=  3500011 ScaDFX=  1.000000  1.000000  1.000000  1.000000
 FoFCou: FMM=F IPFlag=           0 FMFlag=      100000 FMFlg1=           0
         NFxFlg=           0 DoJE=T BraDBF=F KetDBF=T FulRan=T
         wScrn=  0.000000 ICntrl=       500 IOpCl=  0 I1Cent=   200000004 NGrid=           0
         NMat0=    1 NMatS0=      1 NMatT0=    0 NMatD0=    1 NMtDS0=    0 NMtDT0=    0
 Petite list used in FoFCou.
 Requested convergence on RMS density matrix=1.00D-08 within  32 cycles.
 Requested convergence on MAX density matrix=1.00D-06.
 Requested convergence on             energy=1.00D-06.
 No special actions if energy rises.
 SCF Done:  E(UwB97XD) =  -535.629637872     A.U. after   15 cycles
            NFock= 15  Conv=0.60D-08     -V/T= 2.0038
 <Sx>= 0.0000 <Sy>= 0.0000 <Sz>= 0.5000 <S**2>= 0.7542 S= 0.5021
 <L.S>= 0.000000000000E+00
 Annihilation of the first spin contaminant:
 S**2 before annihilation     0.7542,   after     0.7500
 QCSCF skips out because SCF is already converged.
 Calling FoFJK, ICntrl=      2127 FMM=F ISym2X=0 I1Cent= 0 IOpClX= 1 NMat=1 NMatS=1 NMatT=0.
 ***** Axes restored to original set *****
 -------------------------------------------------------------------
 Center     Atomic                   Forces (Hartrees/Bohr)
 Number     Number              X              Y              Z
 -------------------------------------------------------------------
      1        7           0.000883547    0.000161970    0.000144490
      2        1          -0.000099816    0.001225067    0.003750873
      3        6           0.003876477    0.000890872   -0.002846922
      4        1          -0.000989648    0.000066153   -0.000205408
      5        1          -0.002439234   -0.001111995   -0.001458499
      6        6          -0.000822721   -0.000744552   -0.000069424
      7        1          -0.000275001   -0.000024310    0.000188868
      8        1           0.000109078   -0.000141301    0.000300941
      9        6          -0.000353996   -0.000386268    0.000028521
     10        1           0.000097420    0.000093348    0.000171774
     11        1           0.000041665    0.000070421    0.000072034
     12        7           0.000184670   -0.000084701    0.000055787
     13        6           0.000166544   -0.000163903    0.000111257
     14        1           0.000001496   -0.000017412   -0.000014452
     15        1           0.000020534    0.000004535   -0.000011903
     16        1           0.000012040    0.000035314    0.000009340
     17        6          -0.000150551   -0.000088673   -0.000207913
     18        1           0.000005681    0.000016790    0.000015897
     19        1          -0.000035309   -0.000085357   -0.000046028
     20        1           0.000015889   -0.000005216    0.000005971
     21        6           0.000050340   -0.000058605    0.000060390
     22        1          -0.000005283    0.000030596    0.000007468
     23        1           0.000028854   -0.000091615    0.000099853
     24        6          -0.000135041    0.000441606   -0.000697906
     25        8          -0.000161728    0.000204753    0.000282628
     26        8          -0.000025907   -0.000237519    0.000252364
 -------------------------------------------------------------------
 Cartesian Forces:  Max     0.003876477 RMS     0.000829552

 GradGradGradGradGradGradGradGradGradGradGradGradGradGradGradGradGradGrad
 Berny optimization.
 Using GEDIIS/GDIIS optimizer.
 FormGI is forming the generalized inverse of G from B-inverse, IUseBI=4.
 Internal  Forces:  Max     0.003708939 RMS     0.000634431
 Search for a local minimum.
 Step number   2 out of a maximum of  144
 All quantities printed in internal units (Hartrees-Bohrs-Radians)
 Mixed Optimization -- En-DIIS/RFO-DIIS
 Update second derivatives using D2CorX and points    1    2
 DE= -3.05D-03 DEPred=-3.22D-03 R= 9.48D-01
 TightC=F SS=  1.41D+00  RLast= 2.01D-01 DXNew= 5.0454D-01 6.0212D-01
 Trust test= 9.48D-01 RLast= 2.01D-01 DXMaxT set to 5.05D-01
 ITU=  1  0
 Use linear search instead of GDIIS.
     Eigenvalues ---    0.00230   0.00230   0.00230   0.00292   0.00339
     Eigenvalues ---    0.00388   0.00433   0.00455   0.00965   0.03207
     Eigenvalues ---    0.03397   0.03559   0.04425   0.04662   0.04718
     Eigenvalues ---    0.04835   0.04951   0.05145   0.05300   0.05724
     Eigenvalues ---    0.05998   0.06039   0.06169   0.06188   0.08491
     Eigenvalues ---    0.08961   0.09836   0.11211   0.12343   0.12619
     Eigenvalues ---    0.13200   0.13972   0.14292   0.14570   0.15998
     Eigenvalues ---    0.16000   0.16000   0.16000   0.16000   0.16000
     Eigenvalues ---    0.17876   0.21909   0.21995   0.22035   0.22291
     Eigenvalues ---    0.25000   0.25012   0.25565   0.29243   0.29553
     Eigenvalues ---    0.30919   0.31777   0.32891   0.33071   0.34699
     Eigenvalues ---    0.34741   0.34806   0.34847   0.34949   0.35004
     Eigenvalues ---    0.35007   0.35072   0.35074   0.35136   0.35168
     Eigenvalues ---    0.35215   0.35253   0.35338   0.39189   0.45438
     Eigenvalues ---    0.85468   0.91943
 RFO step:  Lambda=-3.53869990D-04 EMin= 2.29935582D-03
 Quartic linear search produced a step of -0.04979.
 Iteration  1 RMS(Cart)=  0.01649771 RMS(Int)=  0.00064055
 Iteration  2 RMS(Cart)=  0.00058442 RMS(Int)=  0.00040401
 Iteration  3 RMS(Cart)=  0.00000059 RMS(Int)=  0.00040401
 Variable       Old X    -DE/DX   Delta X   Delta X   Delta X     New X
                                 (Linear)    (Quad)   (Total)
    R1        1.92695   0.00371  -0.00104   0.00976   0.00872   1.93567
    R2        2.70698   0.00316   0.00212   0.00359   0.00572   2.71270
    R3        2.07279   0.00073  -0.00071   0.00345   0.00274   2.07553
    R4        2.06238   0.00075  -0.00013   0.00231   0.00218   2.06456
    R5        2.89793   0.00178  -0.00012   0.00604   0.00592   2.90385
    R6        2.06019   0.00025   0.00004   0.00060   0.00064   2.06084
    R7        2.05892   0.00023  -0.00011   0.00085   0.00074   2.05966
    R8        2.89019   0.00020  -0.00008   0.00081   0.00073   2.89092
    R9        2.05942  -0.00013   0.00002  -0.00042  -0.00039   2.05903
   R10        2.05827  -0.00006  -0.00003  -0.00010  -0.00014   2.05813
   R11        2.84444  -0.00002   0.00005  -0.00016  -0.00011   2.84433
   R12        2.82247   0.00008  -0.00001   0.00025   0.00024   2.82272
   R13        2.82540   0.00032   0.00000   0.00093   0.00093   2.82633
   R14        2.86251   0.00031  -0.00004   0.00105   0.00101   2.86352
   R15        2.05420  -0.00001  -0.00001  -0.00001  -0.00001   2.05419
   R16        2.05569  -0.00000  -0.00001   0.00001   0.00000   2.05569
   R17        2.05132   0.00003  -0.00000   0.00008   0.00008   2.05139
   R18        2.05571  -0.00002  -0.00001  -0.00003  -0.00004   2.05567
   R19        2.05316  -0.00000   0.00001  -0.00001  -0.00001   2.05315
   R20        2.05454  -0.00000   0.00000  -0.00001  -0.00001   2.05453
   R21        2.05654   0.00000   0.00000  -0.00001  -0.00000   2.05654
   R22        2.05275   0.00005  -0.00000   0.00015   0.00015   2.05290
   R23        2.97819   0.00042  -0.00001   0.00158   0.00157   2.97976
   R24        2.35126   0.00005  -0.00002   0.00008   0.00007   2.35133
   R25        2.32000  -0.00026   0.00002  -0.00032  -0.00029   2.31971
    A1        1.86655   0.00255   0.00849  -0.00319   0.00529   1.87185
    A2        1.89894   0.00063  -0.00106   0.00331   0.00219   1.90113
    A3        1.87602   0.00263  -0.00039   0.02775   0.02736   1.90338
    A4        1.97204  -0.00133   0.00068  -0.00526  -0.00459   1.96745
    A5        1.87636  -0.00015  -0.00064  -0.00439  -0.00519   1.87117
    A6        1.92298  -0.00037   0.00113  -0.01256  -0.01150   1.91148
    A7        1.91455  -0.00127   0.00014  -0.00787  -0.00779   1.90676
    A8        1.91766  -0.00004  -0.00013   0.00095   0.00082   1.91847
    A9        1.88426  -0.00009  -0.00008   0.00037   0.00029   1.88454
   A10        1.98070   0.00047  -0.00015   0.00282   0.00266   1.98336
   A11        1.84943   0.00002   0.00017  -0.00184  -0.00167   1.84776
   A12        1.94538  -0.00025  -0.00018  -0.00098  -0.00116   1.94422
   A13        1.88026  -0.00014   0.00041  -0.00166  -0.00125   1.87900
   A14        1.92223  -0.00018   0.00005  -0.00169  -0.00164   1.92059
   A15        1.93068  -0.00006  -0.00012  -0.00007  -0.00019   1.93049
   A16        2.03624   0.00020   0.00011   0.00056   0.00067   2.03691
   A17        1.87526   0.00008  -0.00004   0.00087   0.00083   1.87609
   A18        1.85161   0.00003  -0.00011   0.00060   0.00049   1.85210
   A19        1.83932  -0.00006   0.00010  -0.00013  -0.00004   1.83928
   A20        1.92970  -0.00008  -0.00008  -0.00119  -0.00127   1.92843
   A21        1.87722   0.00001   0.00012  -0.00067  -0.00055   1.87667
   A22        1.94010  -0.00011  -0.00014  -0.00113  -0.00127   1.93884
   A23        1.89316   0.00001   0.00002   0.00082   0.00084   1.89400
   A24        1.91776   0.00010   0.00005   0.00101   0.00106   1.91882
   A25        1.90472   0.00006   0.00004   0.00121   0.00124   1.90596
   A26        1.86327  -0.00000   0.00005  -0.00011  -0.00006   1.86321
   A27        1.89524  -0.00002  -0.00002  -0.00009  -0.00011   1.89513
   A28        1.90652  -0.00002  -0.00003  -0.00006  -0.00008   1.90643
   A29        1.95445   0.00001   0.00001   0.00004   0.00005   1.95450
   A30        1.92130   0.00001   0.00003  -0.00000   0.00003   1.92133
   A31        1.92153   0.00002  -0.00004   0.00020   0.00016   1.92170
   A32        1.89646  -0.00005  -0.00002  -0.00039  -0.00041   1.89604
   A33        1.87042   0.00015   0.00005   0.00088   0.00093   1.87136
   A34        1.89122  -0.00003  -0.00001  -0.00012  -0.00013   1.89109
   A35        1.95536  -0.00005   0.00000  -0.00038  -0.00037   1.95499
   A36        1.92195   0.00001  -0.00002  -0.00010  -0.00011   1.92183
   A37        1.92641  -0.00002  -0.00000   0.00012   0.00012   1.92653
   A38        1.86187  -0.00023  -0.00000  -0.00063  -0.00064   1.86124
   A39        1.87118  -0.00038  -0.00008  -0.00174  -0.00182   1.86936
   A40        2.04899   0.00100   0.00018   0.00417   0.00435   2.05334
   A41        1.90506   0.00014  -0.00000  -0.00038  -0.00039   1.90467
   A42        1.89680  -0.00033  -0.00003  -0.00114  -0.00117   1.89563
   A43        1.87669  -0.00022  -0.00007  -0.00049  -0.00056   1.87613
   A44        2.05061   0.00039   0.00003   0.00124  -0.00141   2.04920
   A45        1.92058  -0.00012  -0.00000  -0.00061  -0.00329   1.91729
   A46        2.31199  -0.00027  -0.00003  -0.00115  -0.00389   2.30810
    D1        1.13453  -0.00067  -0.00092   0.01311   0.01215   1.14668
    D2       -3.12176   0.00088  -0.00239   0.02447   0.02210  -3.09966
    D3       -1.00702   0.00025  -0.00206   0.03036   0.02833  -0.97870
    D4        1.01087  -0.00057  -0.00065   0.01980   0.01916   1.03004
    D5       -0.99846  -0.00052  -0.00074   0.02128   0.02056  -0.97790
    D6       -3.08124  -0.00058  -0.00111   0.02137   0.02029  -3.06095
    D7       -1.11723  -0.00018  -0.00061   0.02835   0.02776  -1.08947
    D8       -3.12656  -0.00013  -0.00069   0.02983   0.02915  -3.09741
    D9        1.07384  -0.00018  -0.00106   0.02993   0.02888   1.10273
   D10        3.10363   0.00100  -0.00060   0.04609   0.04545  -3.13411
   D11        1.09430   0.00105  -0.00069   0.04757   0.04684   1.14114
   D12       -0.98848   0.00100  -0.00105   0.04767   0.04657  -0.94191
   D13        0.36764   0.00000   0.00015  -0.00375  -0.00359   0.36404
   D14        2.43808  -0.00005   0.00006  -0.00377  -0.00371   2.43437
   D15       -1.74355  -0.00003   0.00018  -0.00360  -0.00342  -1.74696
   D16        2.54384   0.00011  -0.00028  -0.00107  -0.00135   2.54249
   D17       -1.66891   0.00006  -0.00037  -0.00109  -0.00147  -1.67038
   D18        0.43266   0.00008  -0.00026  -0.00092  -0.00118   0.43148
   D19       -1.71743  -0.00008   0.00007  -0.00480  -0.00473  -1.72216
   D20        0.35301  -0.00013  -0.00002  -0.00483  -0.00485   0.34816
   D21        2.45458  -0.00011   0.00009  -0.00465  -0.00456   2.45002
   D22       -1.17717  -0.00005  -0.00004  -0.00345  -0.00349  -1.18066
   D23        3.04185  -0.00003  -0.00009  -0.00337  -0.00346   3.03839
   D24        0.95772  -0.00005  -0.00013  -0.00376  -0.00389   0.95383
   D25        2.95788   0.00003  -0.00008  -0.00210  -0.00218   2.95570
   D26        0.89371   0.00005  -0.00014  -0.00202  -0.00215   0.89156
   D27       -1.19041   0.00003  -0.00017  -0.00241  -0.00259  -1.19300
   D28        0.97233  -0.00005  -0.00004  -0.00328  -0.00332   0.96902
   D29       -1.09184  -0.00002  -0.00009  -0.00319  -0.00329  -1.09512
   D30        3.10722  -0.00005  -0.00013  -0.00359  -0.00372   3.10350
   D31       -3.11671  -0.00002  -0.00011   0.00228   0.00217  -3.11455
   D32       -1.00642  -0.00002  -0.00009   0.00221   0.00213  -1.00430
   D33        1.08946  -0.00002  -0.00016   0.00237   0.00221   1.09167
   D34       -1.06230  -0.00004  -0.00000   0.00127   0.00127  -1.06103
   D35        1.04799  -0.00004   0.00003   0.00120   0.00123   1.04922
   D36       -3.13931  -0.00004  -0.00005   0.00136   0.00131  -3.13800
   D37        1.01856   0.00010   0.00009   0.00381   0.00390   1.02246
   D38        3.12884   0.00010   0.00011   0.00375   0.00386   3.13271
   D39       -1.05845   0.00010   0.00004   0.00391   0.00395  -1.05451
   D40        1.01106  -0.00001   0.00000  -0.00139  -0.00139   1.00966
   D41        3.12724  -0.00002   0.00002  -0.00156  -0.00153   3.12571
   D42       -1.07710   0.00002   0.00004  -0.00099  -0.00095  -1.07805
   D43       -1.07653   0.00007   0.00002  -0.00005  -0.00003  -1.07657
   D44        1.03965   0.00006   0.00004  -0.00022  -0.00017   1.03948
   D45        3.11849   0.00010   0.00006   0.00035   0.00041   3.11890
   D46        3.11762  -0.00010  -0.00008  -0.00246  -0.00254   3.11509
   D47       -1.04938  -0.00010  -0.00005  -0.00262  -0.00267  -1.05205
   D48        1.02946  -0.00006  -0.00004  -0.00205  -0.00209   1.02737
   D49        0.95851  -0.00006   0.00006  -0.00931  -0.00926   0.94926
   D50       -1.08054   0.00008   0.00010  -0.00770  -0.00760  -1.08814
   D51        3.09009  -0.00000   0.00014  -0.00849  -0.00835   3.08174
   D52        3.10030  -0.00016  -0.00011  -0.01088  -0.01100   3.08930
   D53        1.06125  -0.00002  -0.00006  -0.00927  -0.00934   1.05191
   D54       -1.05131  -0.00010  -0.00003  -0.01006  -0.01009  -1.06140
   D55       -1.10912  -0.00005  -0.00003  -0.00856  -0.00859  -1.11772
   D56        3.13501   0.00009   0.00002  -0.00695  -0.00693   3.12808
   D57        1.02245   0.00001   0.00005  -0.00774  -0.00768   1.01477
   D58        0.03475   0.00014  -0.00013   0.06482   0.06457   0.09932
   D59       -3.11062  -0.00020  -0.00034  -0.05472  -0.05493   3.11764
   D60        2.14823   0.00027  -0.00002   0.06601   0.06586   2.21409
   D61       -0.99713  -0.00008  -0.00023  -0.05353  -0.05364  -1.05078
   D62       -2.07493   0.00013  -0.00008   0.06467   0.06446  -2.01047
   D63        1.06288  -0.00021  -0.00029  -0.05487  -0.05504   1.00784
         Item               Value     Threshold  Converged?
 Maximum Force            0.003709     0.000450     NO 
 RMS     Force            0.000634     0.000300     NO 
 Maximum Displacement     0.070767     0.001800     NO 
 RMS     Displacement     0.016507     0.001200     NO 
 Predicted change in Energy=-1.819589D-04
 GradGradGradGradGradGradGradGradGradGradGradGradGradGradGradGradGradGrad

                          Input orientation:                          
 ---------------------------------------------------------------------
 Center     Atomic      Atomic             Coordinates (Angstroms)
 Number     Number       Type             X           Y           Z
 ---------------------------------------------------------------------
      1          7           0        2.415511    1.001547    0.399907
      2          1           0        2.061161    1.268990    1.323012
      3          6           0        1.303872    0.490901   -0.351198
      4          1           0        0.587933    1.305244   -0.526097
      5          1           0        1.657795    0.156065   -1.329060
      6          6           0        0.593967   -0.673697    0.356646
      7          1           0        0.229244   -0.348974    1.331749
      8          1           0        1.335214   -1.446942    0.558087
      9          6           0       -0.523316   -1.307137   -0.474465
     10          1           0       -0.379731   -1.077471   -1.529854
     11          1           0       -0.510785   -2.391227   -0.370702
     12          7           0       -1.931450   -0.890659   -0.144024
     13          6           0       -2.322111   -1.393775    1.207069
     14          1           0       -3.351298   -1.084697    1.371007
     15          1           0       -2.215328   -2.476291    1.218103
     16          1           0       -1.675063   -0.947338    1.955694
     17          6           0       -2.835135   -1.511104   -1.161528
     18          1           0       -2.700606   -2.590214   -1.133942
     19          1           0       -3.851194   -1.220809   -0.908946
     20          1           0       -2.563546   -1.125411   -2.141070
     21          6           0       -2.081031    0.616304   -0.197447
     22          1           0       -1.733349    0.929359   -1.180021
     23          1           0       -1.422896    1.029851    0.561492
     24          6           0       -3.518633    1.217881    0.042907
     25          8           0       -4.422927    0.427941    0.369187
     26          8           0       -3.470908    2.443572   -0.004526
 ---------------------------------------------------------------------
                    Distance matrix (angstroms):
                    1          2          3          4          5
     1  N    0.000000
     2  H    1.024310   0.000000
     3  C    1.435500   1.995467   0.000000
     4  H    2.071173   2.364512   1.098323   0.000000
     5  H    2.068406   2.904271   1.092516   1.763511   0.000000
     6  C    2.475143   2.619266   1.536651   2.166905   2.159129
     7  H    2.733496   2.444137   2.166225   2.513303   3.061982
     8  H    2.680888   2.913485   2.140799   3.050969   2.497001
     9  C    3.838132   4.067786   2.566468   2.839380   2.761981
    10  H    3.982420   4.427491   2.585254   2.760658   2.390280
    11  H    4.546203   4.783384   3.405881   3.859434   3.479926
    12  N    4.772041   4.770453   3.524052   3.363817   3.922069
    13  C    5.369743   5.129994   4.373552   4.330927   4.967254
    14  H    6.208988   5.902276   5.207601   4.982807   5.824162
    15  H    5.848886   5.685639   4.863302   5.020011   5.330893
    16  H    4.790764   4.389962   4.032907   4.044077   4.807811
    17  C    6.026672   6.154314   4.668623   4.478056   4.795200
    18  H    6.436465   6.603370   5.112905   5.134059   5.155170
    19  H    6.776692   6.792399   5.460379   5.121852   5.693965
    20  H    5.980929   6.254672   4.557743   4.295118   4.485672
    21  C    4.552377   4.460443   3.390713   2.775971   3.933343
    22  H    4.440092   4.558380   3.178664   2.440749   3.481387
    23  H    3.841911   3.574319   2.925532   2.302634   3.718649
    24  C    5.948808   5.724979   4.892890   4.146720   5.459410
    25  O    6.862522   6.607613   5.772274   5.165260   6.319268
    26  O    6.073955   5.809113   5.170264   4.247590   5.769808
                    6          7          8          9         10
     6  C    0.000000
     7  H    1.090548   0.000000
     8  H    1.089924   1.739902   0.000000
     9  C    1.529809   2.178723   2.130691   0.000000
    10  H    2.161019   3.015018   2.727094   1.089591   0.000000
    11  H    2.167815   2.759852   2.272012   1.089116   1.756919
    12  N    2.583695   2.672064   3.387257   1.505154   2.088841
    13  C    3.121738   2.759813   3.714840   2.463884   3.371000
    14  H    4.094260   3.655558   4.770268   3.384188   4.152741
    15  H    3.447259   3.242580   3.755201   2.663571   3.588507
    16  H    2.789325   2.091346   3.356289   2.713236   3.720735
    17  C    3.842505   4.117936   4.511431   2.420364   2.520459
    18  H    4.092567   4.436982   4.523038   2.611854   2.798499
    19  H    4.654086   4.736115   5.394641   3.357230   3.529466
    20  H    4.051236   4.523604   4.752805   2.640669   2.268244
    21  C    3.021049   2.933866   4.061840   2.490550   2.745652
    22  H    3.216758   3.434370   4.252518   2.638921   2.445820
    23  H    2.647976   2.285612   3.706978   2.709975   3.146860
    24  C    4.537619   4.261776   5.561163   3.951622   4.194631
    25  O    5.136438   4.813815   6.058635   4.350771   4.713816
    26  O    5.135273   4.824425   6.208981   4.793429   4.927449
                   11         12         13         14         15
    11  H    0.000000
    12  N    2.078792   0.000000
    13  C    2.600995   1.493718   0.000000
    14  H    3.578978   2.085410   1.087028   0.000000
    15  H    2.331739   2.109551   1.087826   1.802870   0.000000
    16  H    2.975312   2.116073   1.085550   1.780587   1.781467
    17  C    2.608184   1.495631   2.426357   2.619538   2.641664
    18  H    2.327540   2.111877   2.656135   2.994120   2.404285
    19  H    3.580211   2.092730   2.616396   2.338078   2.962537
    20  H    2.991708   2.107806   3.367542   3.599568   3.637330
    21  C    3.397195   1.515311   2.463981   2.639513   3.403816
    22  H    3.629870   2.103569   3.382572   3.630692   4.193060
    23  H    3.661244   2.108255   2.664455   2.974115   3.654055
    24  C    4.716342   2.645758   3.099627   2.663403   4.089816
    25  O    4.878524   2.865231   2.904156   2.107156   3.745492
    26  O    5.680819   3.675118   4.184846   3.788810   5.222677
                   16         17         18         19         20
    16  H    0.000000
    17  C    3.373525   0.000000
    18  H    3.646455   1.087813   0.000000
    19  H    3.607839   1.086482   1.802705   0.000000
    20  H    4.195782   1.087209   1.782902   1.784732   0.000000
    21  C    2.691803   2.454382   3.397448   2.648527   2.654065
    22  H    3.654873   2.677711   3.650357   3.030177   2.415559
    23  H    2.432419   3.379300   4.196655   3.622747   3.640066
    24  C    3.427197   3.060260   4.068874   2.638907   3.342598
    25  O    3.458201   2.936676   3.786165   2.163072   3.488781
    26  O    4.308805   4.169212   5.216124   3.793453   4.257437
                   21         22         23         24         25
    21  C    0.000000
    22  H    1.088273   0.000000
    23  H    1.086348   1.771820   0.000000
    24  C    1.576821   2.183126   2.167118   0.000000
    25  O    2.416823   3.144089   3.065855   1.244272   0.000000
    26  O    2.303885   2.587227   2.552124   1.227537   2.260259
                   26
    26  O    0.000000
 Stoichiometry    C7H15N2O2(2)
 Framework group  C1[X(C7H15N2O2)]
 Deg. of freedom    72
 Full point group                 C1      NOp   1
 Largest Abelian subgroup         C1      NOp   1
 Largest concise Abelian subgroup C1      NOp   1
                         Standard orientation:                         
 ---------------------------------------------------------------------
 Center     Atomic      Atomic             Coordinates (Angstroms)
 Number     Number       Type             X           Y           Z
 ---------------------------------------------------------------------
      1          7           0        3.857278    1.266515    0.231511
      2          1           0        3.502671    1.588460    1.136948
      3          6           0        2.765128    0.634738   -0.453124
      4          1           0        2.001017    1.390733   -0.678777
      5          1           0        3.122316    0.241221   -1.407668
      6          6           0        2.134347   -0.505802    0.360865
      7          1           0        1.766914   -0.123180    1.313697
      8          1           0        2.921779   -1.217314    0.609130
      9          6           0        1.042351   -1.266639   -0.393448
     10          1           0        1.155988   -1.116540   -1.466651
     11          1           0        1.118653   -2.336185   -0.202597
     12          7           0       -0.382002   -0.903830   -0.069297
     13          6           0       -0.721966   -1.315614    1.325712
     14          1           0       -1.764490   -1.052139    1.484944
     15          1           0       -0.553121   -2.385923    1.422119
     16          1           0       -0.089942   -0.773892    2.022491
     17          6           0       -1.264440   -1.655069   -1.014737
     18          1           0       -1.067834   -2.719083   -0.902674
     19          1           0       -2.291394   -1.402290   -0.765917
     20          1           0       -1.030785   -1.336345   -2.027576
     21          6           0       -0.618573    0.582971   -0.241416
     22          1           0       -0.304842    0.833418   -1.252943
     23          1           0        0.026566    1.093428    0.468078
     24          6           0       -2.084368    1.120940   -0.021416
     25          8           0       -2.936654    0.311091    0.385971
     26          8           0       -2.107758    2.339371   -0.168811
 ---------------------------------------------------------------------
 Rotational constants (GHZ):           1.5644115           0.6479188           0.5220678
 Standard basis: 6-311+G(2d,2p) (5D, 7F)
 There are   454 symmetry adapted cartesian basis functions of A   symmetry.
 There are   432 symmetry adapted basis functions of A   symmetry.
   432 basis functions,   627 primitive gaussians,   454 cartesian basis functions
    44 alpha electrons       43 beta electrons
       nuclear repulsion energy       669.3167751734 Hartrees.
 NAtoms=   26 NActive=   26 NUniq=   26 SFac= 1.00D+00 NAtFMM=   60 NAOKFM=F Big=F
 Integral buffers will be    131072 words long.
 Raffenetti 2 integral format.
 Two-electron integral symmetry is turned on.
 Nuclear repulsion after empirical dispersion term =      669.2958326696 Hartrees.
 One-electron integrals computed using PRISM.
 NBasis=   432 RedAO= T EigKep=  1.18D-05  NBF=   432
 NBsUse=   432 1.00D-06 EigRej= -1.00D+00 NBFU=   432
 Initial guess from the checkpoint file:  "aminopropyl_betaine.chk"
 B after Tr=     0.000000    0.000000    0.000000
         Rot=    0.999998    0.001834    0.000383    0.000742 Ang=   0.23 deg.
 Initial guess <Sx>= 0.0000 <Sy>= 0.0000 <Sz>= 0.5000 <S**2>= 0.7543 S= 0.5021
 ExpMin= 4.38D-02 ExpMax= 8.59D+03 ExpMxC= 1.30D+03 IAcc=2 IRadAn=         4 AccDes= 0.00D+00
 Harris functional with IExCor= 4639 and IRadAn=       4 diagonalized for initial guess.
 HarFok:  IExCor= 4639 AccDes= 0.00D+00 IRadAn=         4 IDoV= 1 UseB2=F ITyADJ=14
 ICtDFT=  3500011 ScaDFX=  1.000000  1.000000  1.000000  1.000000
 FoFCou: FMM=F IPFlag=           0 FMFlag=      100000 FMFlg1=           0
         NFxFlg=           0 DoJE=T BraDBF=F KetDBF=T FulRan=T
         wScrn=  0.000000 ICntrl=       500 IOpCl=  0 I1Cent=   200000004 NGrid=           0
         NMat0=    1 NMatS0=      1 NMatT0=    0 NMatD0=    1 NMtDS0=    0 NMtDT0=    0
 Petite list used in FoFCou.
 Requested convergence on RMS density matrix=1.00D-08 within  32 cycles.
 Requested convergence on MAX density matrix=1.00D-06.
 Requested convergence on             energy=1.00D-06.
 No special actions if energy rises.
 SCF Done:  E(UwB97XD) =  -535.628886502     A.U. after   15 cycles
            NFock= 15  Conv=0.51D-08     -V/T= 2.0039
 <Sx>= 0.0000 <Sy>= 0.0000 <Sz>= 0.5000 <S**2>= 0.7543 S= 0.5021
 <L.S>= 0.000000000000E+00
 Annihilation of the first spin contaminant:
 S**2 before annihilation     0.7543,   after     0.7500
 QCSCF skips out because SCF is already converged.
 Calling FoFJK, ICntrl=      2127 FMM=F ISym2X=0 I1Cent= 0 IOpClX= 1 NMat=1 NMatS=1 NMatT=0.
 ***** Axes restored to original set *****
 -------------------------------------------------------------------
 Center     Atomic                   Forces (Hartrees/Bohr)
 Number     Number              X              Y              Z
 -------------------------------------------------------------------
      1        7          -0.000816649   -0.000147351   -0.000387745
      2        1           0.000356151   -0.000071005   -0.000275948
      3        6           0.000322300    0.000544247    0.000370594
      4        1           0.000201103    0.000094672   -0.000105965
      5        1           0.000248555    0.000309062    0.000242144
      6        6          -0.000286530   -0.000761148    0.000161766
      7        1          -0.000069711    0.000077913   -0.000049331
      8        1           0.000067988   -0.000020043    0.000072170
      9        6          -0.000058111   -0.000093705    0.000051737
     10        1          -0.000035300    0.000024943   -0.000024132
     11        1           0.000085272    0.000031106    0.000033461
     12        7           0.000062129   -0.000161309   -0.000421542
     13        6          -0.000063844   -0.000318801    0.000045726
     14        1           0.000114953    0.000205581    0.000109582
     15        1           0.000113818   -0.000035173   -0.000060009
     16        1          -0.000045740    0.000047700   -0.000035835
     17        6          -0.000025479    0.000626450    0.000426337
     18        1          -0.000193181    0.000032221    0.000009172
     19        1          -0.000211227    0.000007562    0.000152824
     20        1          -0.000025519    0.000011039    0.000011029
     21        6          -0.000747400   -0.000379007   -0.005050678
     22        1           0.000928046   -0.000172183   -0.000209501
     23        1          -0.001019071    0.000114933    0.000195695
     24        6           0.004424272    0.001041201    0.018738687
     25        8          -0.001761439   -0.001274207   -0.006993437
     26        8          -0.001565384    0.000265301   -0.007006802
 -------------------------------------------------------------------
 Cartesian Forces:  Max     0.018738687 RMS     0.002554461

 GradGradGradGradGradGradGradGradGradGradGradGradGradGradGradGradGradGrad
 Berny optimization.
 Using GEDIIS/GDIIS optimizer.
 FormGI is forming the generalized inverse of G from B-inverse, IUseBI=4.
 Internal  Forces:  Max     0.005293618 RMS     0.001125768
 Search for a local minimum.
 Step number   3 out of a maximum of  144
 All quantities printed in internal units (Hartrees-Bohrs-Radians)
 Mixed Optimization -- RFO/linear search
 Update second derivatives using D2CorX and points    1    3    2
 DE=  7.51D-04 DEPred=-1.82D-04 R=-4.13D+00
 Trust test=-4.13D+00 RLast= 1.88D-01 DXMaxT set to 2.52D-01
 ITU= -1  1  0
 Use linear search instead of GDIIS.
     Eigenvalues ---    0.00200   0.00230   0.00258   0.00293   0.00388
     Eigenvalues ---    0.00433   0.00455   0.00864   0.02593   0.03207
     Eigenvalues ---    0.03386   0.03530   0.04436   0.04719   0.04828
     Eigenvalues ---    0.04919   0.05118   0.05269   0.05382   0.05999
     Eigenvalues ---    0.06037   0.06164   0.06183   0.07253   0.08522
     Eigenvalues ---    0.08960   0.09874   0.10485   0.12365   0.12626
     Eigenvalues ---    0.13354   0.13810   0.14328   0.14662   0.15997
     Eigenvalues ---    0.16000   0.16000   0.16000   0.16000   0.16007
     Eigenvalues ---    0.16826   0.21239   0.21933   0.22030   0.22378
     Eigenvalues ---    0.24963   0.25042   0.25539   0.28367   0.29552
     Eigenvalues ---    0.30927   0.31777   0.32893   0.33069   0.34387
     Eigenvalues ---    0.34741   0.34806   0.34848   0.34948   0.35001
     Eigenvalues ---    0.35018   0.35072   0.35074   0.35136   0.35168
     Eigenvalues ---    0.35217   0.35266   0.35338   0.37258   0.43274
     Eigenvalues ---    0.85470   0.91951
 RFO step:  Lambda=-1.09982906D-03 EMin= 1.99778357D-03
 Quartic linear search produced a step of -0.83737.
 Iteration  1 RMS(Cart)=  0.04442634 RMS(Int)=  0.00219080
 Iteration  2 RMS(Cart)=  0.00243898 RMS(Int)=  0.00055022
 Iteration  3 RMS(Cart)=  0.00000769 RMS(Int)=  0.00055018
 Iteration  4 RMS(Cart)=  0.00000000 RMS(Int)=  0.00055018
 Variable       Old X    -DE/DX   Delta X   Delta X   Delta X     New X
                                 (Linear)    (Quad)   (Total)
    R1        1.93567  -0.00039  -0.00730   0.03244   0.02514   1.96080
    R2        2.71270  -0.00078  -0.00479   0.02386   0.01907   2.73177
    R3        2.07553  -0.00004  -0.00229   0.00982   0.00753   2.08306
    R4        2.06456  -0.00023  -0.00183   0.00817   0.00634   2.07090
    R5        2.90385   0.00077  -0.00496   0.02310   0.01815   2.92200
    R6        2.06084   0.00000  -0.00054   0.00253   0.00199   2.06283
    R7        2.05966   0.00007  -0.00062   0.00277   0.00215   2.06180
    R8        2.89092   0.00005  -0.00061   0.00275   0.00214   2.89306
    R9        2.05903   0.00002   0.00033  -0.00147  -0.00114   2.05789
   R10        2.05813  -0.00003   0.00011  -0.00057  -0.00046   2.05768
   R11        2.84433  -0.00001   0.00009  -0.00036  -0.00027   2.84406
   R12        2.82272   0.00006  -0.00020   0.00096   0.00075   2.82347
   R13        2.82633  -0.00041  -0.00078   0.00340   0.00262   2.82895
   R14        2.86352  -0.00042  -0.00085   0.00363   0.00279   2.86631
   R15        2.05419  -0.00003   0.00001  -0.00008  -0.00007   2.05412
   R16        2.05569   0.00005  -0.00000   0.00001   0.00001   2.05571
   R17        2.05139  -0.00003  -0.00006   0.00028   0.00022   2.05161
   R18        2.05567  -0.00005   0.00003  -0.00018  -0.00014   2.05553
   R19        2.05315   0.00023   0.00001   0.00008   0.00009   2.05324
   R20        2.05453  -0.00001   0.00001  -0.00004  -0.00003   2.05449
   R21        2.05654   0.00044   0.00000   0.00019   0.00019   2.05673
   R22        2.05290  -0.00044  -0.00012   0.00036   0.00024   2.05314
   R23        2.97976  -0.00027  -0.00132   0.00588   0.00456   2.98432
   R24        2.35133   0.00026  -0.00006   0.00030   0.00024   2.35157
   R25        2.31971   0.00047   0.00024  -0.00102  -0.00078   2.31893
    A1        1.87185   0.00045  -0.00443   0.02980   0.02537   1.89722
    A2        1.90113  -0.00017  -0.00183   0.00733   0.00491   1.90604
    A3        1.90338  -0.00051  -0.02291   0.10270   0.07979   1.98316
    A4        1.96745   0.00041   0.00385  -0.01702  -0.01328   1.95416
    A5        1.87117  -0.00008   0.00434  -0.02054  -0.01744   1.85373
    A6        1.91148   0.00012   0.00963  -0.04220  -0.03307   1.87842
    A7        1.90676   0.00020   0.00652  -0.02992  -0.02379   1.88297
    A8        1.91847  -0.00013  -0.00068   0.00261   0.00193   1.92041
    A9        1.88454  -0.00001  -0.00024   0.00116   0.00092   1.88546
   A10        1.98336   0.00018  -0.00223   0.01015   0.00792   1.99128
   A11        1.84776   0.00004   0.00140  -0.00603  -0.00464   1.84312
   A12        1.94422  -0.00005   0.00097  -0.00486  -0.00391   1.94031
   A13        1.87900  -0.00003   0.00105  -0.00419  -0.00315   1.87585
   A14        1.92059   0.00011   0.00137  -0.00614  -0.00477   1.91582
   A15        1.93049  -0.00005   0.00016  -0.00094  -0.00079   1.92971
   A16        2.03691  -0.00018  -0.00056   0.00257   0.00201   2.03892
   A17        1.87609  -0.00001  -0.00070   0.00318   0.00248   1.87857
   A18        1.85210  -0.00002  -0.00041   0.00171   0.00130   1.85340
   A19        1.83928   0.00016   0.00003   0.00014   0.00017   1.83945
   A20        1.92843  -0.00028   0.00106  -0.00493  -0.00386   1.92457
   A21        1.87667   0.00053   0.00046  -0.00116  -0.00069   1.87598
   A22        1.93884   0.00006   0.00106  -0.00477  -0.00371   1.93513
   A23        1.89400  -0.00006  -0.00070   0.00299   0.00228   1.89628
   A24        1.91882   0.00032  -0.00089   0.00421   0.00330   1.92212
   A25        1.90596  -0.00057  -0.00104   0.00383   0.00278   1.90874
   A26        1.86321   0.00005   0.00005  -0.00012  -0.00007   1.86314
   A27        1.89513  -0.00010   0.00009  -0.00049  -0.00039   1.89474
   A28        1.90643  -0.00007   0.00007  -0.00049  -0.00042   1.90601
   A29        1.95450   0.00014  -0.00004   0.00048   0.00044   1.95494
   A30        1.92133  -0.00008  -0.00003  -0.00004  -0.00006   1.92127
   A31        1.92170   0.00006  -0.00014   0.00059   0.00046   1.92215
   A32        1.89604   0.00019   0.00035  -0.00141  -0.00106   1.89498
   A33        1.87136  -0.00013  -0.00078   0.00344   0.00266   1.87402
   A34        1.89109   0.00003   0.00011  -0.00044  -0.00033   1.89076
   A35        1.95499  -0.00010   0.00031  -0.00163  -0.00132   1.95367
   A36        1.92183  -0.00002   0.00009  -0.00035  -0.00026   1.92158
   A37        1.92653   0.00004  -0.00010   0.00048   0.00038   1.92691
   A38        1.86124  -0.00006   0.00053  -0.00250  -0.00198   1.85926
   A39        1.86936   0.00082   0.00152  -0.00661  -0.00509   1.86427
   A40        2.05334  -0.00139  -0.00364   0.01582   0.01218   2.06552
   A41        1.90467  -0.00012   0.00033  -0.00115  -0.00084   1.90383
   A42        1.89563   0.00098   0.00098  -0.00334  -0.00237   1.89326
   A43        1.87613  -0.00018   0.00047  -0.00303  -0.00255   1.87358
   A44        2.04920   0.00012   0.00118   0.00885   0.00649   2.05569
   A45        1.91729   0.00103   0.00276   0.00215   0.00137   1.91866
   A46        2.30810   0.00029   0.00325  -0.00048  -0.00076   2.30734
    D1        1.14668   0.00028  -0.01017   0.03682   0.02627   1.17296
    D2       -3.09966  -0.00019  -0.01850   0.07362   0.05528  -3.04438
    D3       -0.97870  -0.00002  -0.02372   0.09656   0.07306  -0.90564
    D4        1.03004   0.00017  -0.01605   0.04566   0.02979   1.05983
    D5       -0.97790   0.00019  -0.01721   0.05080   0.03378  -0.94412
    D6       -3.06095   0.00012  -0.01699   0.04899   0.03219  -3.02876
    D7       -1.08947   0.00003  -0.02325   0.07761   0.05449  -1.03498
    D8       -3.09741   0.00005  -0.02441   0.08275   0.05848  -3.03893
    D9        1.10273  -0.00002  -0.02419   0.08094   0.05688   1.15961
   D10       -3.13411  -0.00007  -0.03805   0.14390   0.10551  -3.02859
   D11        1.14114  -0.00004  -0.03922   0.14904   0.10950   1.25064
   D12       -0.94191  -0.00011  -0.03900   0.14723   0.10791  -0.83400
   D13        0.36404   0.00005   0.00301  -0.01007  -0.00707   0.35698
   D14        2.43437   0.00007   0.00311  -0.01059  -0.00748   2.42689
   D15       -1.74696   0.00012   0.00286  -0.00928  -0.00642  -1.75338
   D16        2.54249  -0.00003   0.00113  -0.00255  -0.00143   2.54106
   D17       -1.67038  -0.00001   0.00123  -0.00306  -0.00184  -1.67221
   D18        0.43148   0.00004   0.00098  -0.00175  -0.00078   0.43070
   D19       -1.72216  -0.00003   0.00396  -0.01489  -0.01092  -1.73308
   D20        0.34816  -0.00001   0.00406  -0.01540  -0.01133   0.33683
   D21        2.45002   0.00004   0.00382  -0.01409  -0.01027   2.43975
   D22       -1.18066  -0.00001   0.00292  -0.00995  -0.00703  -1.18769
   D23        3.03839  -0.00010   0.00289  -0.01010  -0.00721   3.03118
   D24        0.95383   0.00024   0.00326  -0.01128  -0.00802   0.94581
   D25        2.95570  -0.00002   0.00183  -0.00500  -0.00318   2.95252
   D26        0.89156  -0.00010   0.00180  -0.00516  -0.00336   0.88820
   D27       -1.19300   0.00023   0.00217  -0.00634  -0.00417  -1.19717
   D28        0.96902  -0.00007   0.00278  -0.00937  -0.00660   0.96242
   D29       -1.09512  -0.00015   0.00275  -0.00953  -0.00678  -1.10190
   D30        3.10350   0.00018   0.00312  -0.01071  -0.00759   3.09591
   D31       -3.11455  -0.00022  -0.00181   0.00544   0.00362  -3.11092
   D32       -1.00430  -0.00008  -0.00178   0.00567   0.00389  -1.00041
   D33        1.09167  -0.00011  -0.00185   0.00581   0.00396   1.09563
   D34       -1.06103   0.00022  -0.00106   0.00299   0.00193  -1.05910
   D35        1.04922   0.00036  -0.00103   0.00322   0.00219   1.05141
   D36       -3.13800   0.00033  -0.00110   0.00336   0.00226  -3.13573
   D37        1.02246  -0.00032  -0.00327   0.01193   0.00866   1.03112
   D38        3.13271  -0.00018  -0.00324   0.01216   0.00893  -3.14155
   D39       -1.05451  -0.00021  -0.00330   0.01230   0.00900  -1.04551
   D40        1.00966   0.00003   0.00117  -0.00415  -0.00298   1.00668
   D41        3.12571  -0.00007   0.00128  -0.00489  -0.00361   3.12210
   D42       -1.07805  -0.00008   0.00079  -0.00266  -0.00187  -1.07992
   D43       -1.07657   0.00010   0.00003   0.00072   0.00075  -1.07582
   D44        1.03948   0.00000   0.00014  -0.00002   0.00012   1.03960
   D45        3.11890  -0.00001  -0.00035   0.00221   0.00186   3.12076
   D46        3.11509   0.00009   0.00212  -0.00838  -0.00626   3.10883
   D47       -1.05205  -0.00001   0.00224  -0.00913  -0.00689  -1.05894
   D48        1.02737  -0.00002   0.00175  -0.00690  -0.00515   1.02222
   D49        0.94926  -0.00013   0.00775  -0.03699  -0.02924   0.92002
   D50       -1.08814  -0.00036   0.00636  -0.03118  -0.02483  -1.11297
   D51        3.08174   0.00016   0.00699  -0.03262  -0.02562   3.05612
   D52        3.08930  -0.00023   0.00921  -0.04357  -0.03437   3.05494
   D53        1.05191  -0.00046   0.00782  -0.03776  -0.02996   1.02195
   D54       -1.06140   0.00006   0.00845  -0.03920  -0.03075  -1.09215
   D55       -1.11772  -0.00046   0.00719  -0.03508  -0.02788  -1.14560
   D56        3.12808  -0.00069   0.00580  -0.02927  -0.02347   3.10460
   D57        1.01477  -0.00017   0.00643  -0.03070  -0.02426   0.99050
   D58        0.09932  -0.00499  -0.05407  -0.02355  -0.07755   0.02177
   D59        3.11764   0.00528   0.04599   0.05136   0.09729  -3.06826
   D60        2.21409  -0.00526  -0.05515  -0.01837  -0.07345   2.14064
   D61       -1.05078   0.00501   0.04492   0.05654   0.10139  -0.94938
   D62       -2.01047  -0.00498  -0.05398  -0.02318  -0.07709  -2.08757
   D63        1.00784   0.00529   0.04609   0.05173   0.09775   1.10559
         Item               Value     Threshold  Converged?
 Maximum Force            0.005294     0.000450     NO 
 RMS     Force            0.001126     0.000300     NO 
 Maximum Displacement     0.211235     0.001800     NO 
 RMS     Displacement     0.044456     0.001200     NO 
 Predicted change in Energy=-6.855193D-04
 GradGradGradGradGradGradGradGradGradGradGradGradGradGradGradGradGradGrad

                          Input orientation:                          
 ---------------------------------------------------------------------
 Center     Atomic      Atomic             Coordinates (Angstroms)
 Number     Number       Type             X           Y           Z
 ---------------------------------------------------------------------
      1          7           0        2.453578    0.984831    0.386005
      2          1           0        2.154932    1.181732    1.360008
      3          6           0        1.310753    0.512517   -0.362733
      4          1           0        0.582424    1.333095   -0.468877
      5          1           0        1.556056    0.187662   -1.380194
      6          6           0        0.595981   -0.658599    0.350351
      7          1           0        0.233412   -0.335689    1.328035
      8          1           0        1.337093   -1.433165    0.553357
      9          6           0       -0.525642   -1.299431   -0.471280
     10          1           0       -0.388647   -1.066548   -1.526217
     11          1           0       -0.504708   -2.383127   -0.367288
     12          7           0       -1.934138   -0.892606   -0.131150
     13          6           0       -2.309879   -1.408182    1.219917
     14          1           0       -3.340947   -1.110763    1.393107
     15          1           0       -2.191479   -2.489548    1.223113
     16          1           0       -1.661988   -0.959148    1.966424
     17          6           0       -2.839742   -1.512885   -1.149084
     18          1           0       -2.695846   -2.590889   -1.129768
     19          1           0       -3.857622   -1.234537   -0.890266
     20          1           0       -2.575925   -1.118231   -2.127161
     21          6           0       -2.086570    0.615859   -0.175161
     22          1           0       -1.715448    0.936339   -1.146818
     23          1           0       -1.443096    1.019578    0.601617
     24          6           0       -3.525437    1.230635    0.038614
     25          8           0       -4.465266    0.444901    0.257407
     26          8           0       -3.486458    2.448107   -0.109977
 ---------------------------------------------------------------------
                    Distance matrix (angstroms):
                    1          2          3          4          5
     1  N    0.000000
     2  H    1.037613   0.000000
     3  C    1.445593   2.031827   0.000000
     4  H    2.086463   2.416715   1.102306   0.000000
     5  H    2.135529   2.975825   1.095871   1.757975   0.000000
     6  C    2.480484   2.614680   1.546253   2.153640   2.152369
     7  H    2.749606   2.448638   2.176882   2.477003   3.059051
     8  H    2.668568   2.856087   2.150720   3.044123   2.532518
     9  C    3.850785   4.085984   2.582108   2.856223   2.714966
    10  H    3.992868   4.455879   2.595208   2.796290   2.318672
    11  H    4.545552   4.771316   3.417700   3.873304   3.446982
    12  N    4.800445   4.821506   3.543630   3.376520   3.861158
    13  C    5.395595   5.163508   4.393499   4.328052   4.924708
    14  H    6.243580   5.954940   5.230327   4.983198   5.775617
    15  H    5.860769   5.691074   4.877799   5.016968   5.290433
    16  H    4.818160   4.418143   4.053142   4.027711   4.782346
    17  C    6.050977   6.205100   4.684784   4.502610   4.718931
    18  H    6.449800   6.630362   5.125652   5.155723   5.085444
    19  H    6.810706   6.859511   5.481112   5.146291   5.618772
    20  H    6.002897   6.311195   4.569334   4.328288   4.397338
    21  C    4.589552   4.546129   3.404066   2.779249   3.860593
    22  H    4.442148   4.617817   3.154728   2.428423   3.364182
    23  H    3.902790   3.680660   2.961548   2.312354   3.689793
    24  C    5.994141   5.832244   4.905660   4.140358   5.377953
    25  O    6.941072   6.751717   5.809608   5.176442   6.245337
    26  O    6.137688   5.965722   5.179153   4.234131   5.670099
                    6          7          8          9         10
     6  C    0.000000
     7  H    1.091601   0.000000
     8  H    1.091060   1.738589   0.000000
     9  C    1.530942   2.177728   2.130152   0.000000
    10  H    2.158107   3.011290   2.727126   1.088987   0.000000
    11  H    2.168068   2.758794   2.267652   1.088875   1.757830
    12  N    2.586137   2.671638   3.385514   1.505010   2.089260
    13  C    3.124426   2.762292   3.707469   2.460788   3.368842
    14  H    4.097706   3.658007   4.763736   3.381934   4.152165
    15  H    3.447321   3.245029   3.743706   2.657510   3.582449
    16  H    2.792928   2.094942   3.349020   2.710992   3.719068
    17  C    3.844776   4.119003   4.511165   2.420751   2.519783
    18  H    4.093974   4.439288   4.520822   2.609838   2.793556
    19  H    4.658907   4.739762   5.395235   3.358847   3.530784
    20  H    4.050965   4.521407   4.753532   2.641672   2.268918
    21  C    3.016038   2.923586   4.055947   2.488477   2.745685
    22  H    3.182460   3.397206   4.221748   2.621194   2.432263
    23  H    2.652781   2.274887   3.707793   2.714891   3.160927
    24  C    4.544499   4.271407   5.568212   3.957271   4.191085
    25  O    5.180982   4.881920   6.105907   4.369705   4.699427
    26  O    5.150712   4.863623   6.226631   4.789678   4.894382
                   11         12         13         14         15
    11  H    0.000000
    12  N    2.078626   0.000000
    13  C    2.593912   1.494116   0.000000
    14  H    3.572415   2.085681   1.086993   0.000000
    15  H    2.320754   2.109615   1.087833   1.803114   0.000000
    16  H    2.968707   2.116201   1.085664   1.780613   1.781851
    17  C    2.611687   1.497015   2.429791   2.622145   2.646022
    18  H    2.329298   2.112251   2.658719   2.995300   2.408465
    19  H    3.582568   2.095940   2.622695   2.344368   2.969419
    20  H    2.997841   2.108757   3.370130   3.602443   3.640417
    21  C    3.396044   1.516786   2.468370   2.648424   3.407305
    22  H    3.618344   2.103437   3.384015   3.644735   4.192837
    23  H    3.660293   2.105828   2.650966   2.960852   3.641469
    24  C    4.727455   2.658797   3.136305   2.711241   4.125801
    25  O    4.906527   2.889033   3.001006   2.230247   3.835842
    26  O    5.683121   3.683817   4.245459   3.866005   5.275844
                   16         17         18         19         20
    16  H    0.000000
    17  C    3.376406   0.000000
    18  H    3.649362   1.087737   0.000000
    19  H    3.613491   1.086529   1.801881   0.000000
    20  H    4.197382   1.087191   1.782665   1.784988   0.000000
    21  C    2.692081   2.459135   3.400842   2.659317   2.656472
    22  H    3.645272   2.694947   3.660985   3.060626   2.433670
    23  H    2.413704   3.380671   4.195539   3.624456   3.646883
    24  C    3.461797   3.067198   4.081345   2.655228   3.333065
    25  O    3.570779   2.907485   3.777714   2.122945   3.420403
    26  O    4.387427   4.145774   5.201589   3.782656   4.197246
                   21         22         23         24         25
    21  C    0.000000
    22  H    1.088373   0.000000
    23  H    1.086476   1.771476   0.000000
    24  C    1.579236   2.183556   2.167409   0.000000
    25  O    2.423745   3.126477   3.095520   1.244398   0.000000
    26  O    2.306744   2.548913   2.592757   1.227126   2.259618
                   26
    26  O    0.000000
 Stoichiometry    C7H15N2O2(2)
 Framework group  C1[X(C7H15N2O2)]
 Deg. of freedom    72
 Full point group                 C1      NOp   1
 Largest Abelian subgroup         C1      NOp   1
 Largest concise Abelian subgroup C1      NOp   1
                         Standard orientation:                         
 ---------------------------------------------------------------------
 Center     Atomic      Atomic             Coordinates (Angstroms)
 Number     Number       Type             X           Y           Z
 ---------------------------------------------------------------------
      1          7           0        3.900265    1.245643    0.226016
      2          1           0        3.617187    1.475626    1.197415
      3          6           0        2.767258    0.670096   -0.463026
      4          1           0        1.989262    1.440861   -0.588408
      5          1           0        3.003455    0.307217   -1.469735
      6          6           0        2.142364   -0.501314    0.329568
      7          1           0        1.788179   -0.149179    1.300211
      8          1           0        2.933046   -1.220419    0.548933
      9          6           0        1.038450   -1.247458   -0.424373
     10          1           0        1.132710   -1.062451   -1.493383
     11          1           0        1.125974   -2.321262   -0.266469
     12          7           0       -0.381765   -0.904955   -0.062799
     13          6           0       -0.689558   -1.370056    1.323320
     14          1           0       -1.731247   -1.123677    1.512359
     15          1           0       -0.507657   -2.441202    1.377538
     16          1           0       -0.049134   -0.846243    2.026272
     17          6           0       -1.276671   -1.628450   -1.020270
     18          1           0       -1.069087   -2.693940   -0.950900
     19          1           0       -2.301745   -1.395861   -0.745187
     20          1           0       -1.063287   -1.270872   -2.024555
     21          6           0       -0.623883    0.587921   -0.178300
     22          1           0       -0.298879    0.878043   -1.175676
     23          1           0        0.015626    1.067881    0.557292
     24          6           0       -2.090091    1.129412    0.047554
     25          8           0       -2.975722    0.303518    0.334056
     26          8           0       -2.126918    2.337702   -0.163437
 ---------------------------------------------------------------------
 Rotational constants (GHZ):           1.5678537           0.6399160           0.5165718
 Standard basis: 6-311+G(2d,2p) (5D, 7F)
 There are   454 symmetry adapted cartesian basis functions of A   symmetry.
 There are   432 symmetry adapted basis functions of A   symmetry.
   432 basis functions,   627 primitive gaussians,   454 cartesian basis functions
    44 alpha electrons       43 beta electrons
       nuclear repulsion energy       667.5516068247 Hartrees.
 NAtoms=   26 NActive=   26 NUniq=   26 SFac= 1.00D+00 NAtFMM=   60 NAOKFM=F Big=F
 Integral buffers will be    131072 words long.
 Raffenetti 2 integral format.
 Two-electron integral symmetry is turned on.
 Nuclear repulsion after empirical dispersion term =      667.5306402589 Hartrees.
 One-electron integrals computed using PRISM.
 NBasis=   432 RedAO= T EigKep=  1.20D-05  NBF=   432
 NBsUse=   432 1.00D-06 EigRej= -1.00D+00 NBFU=   432
 Lowest energy guess from the checkpoint file:  "aminopropyl_betaine.chk"
 B after Tr=     0.000000    0.000000   -0.000000
         Rot=    0.999972   -0.007286   -0.001898    0.000233 Ang=  -0.86 deg.
 B after Tr=    -0.000000   -0.000000   -0.000000
         Rot=    0.999956   -0.009086   -0.002276   -0.000510 Ang=  -1.07 deg.
 Initial guess <Sx>= 0.0000 <Sy>= 0.0000 <Sz>= 0.5000 <S**2>= 0.7543 S= 0.5022
 Requested convergence on RMS density matrix=1.00D-08 within  32 cycles.
 Requested convergence on MAX density matrix=1.00D-06.
 Requested convergence on             energy=1.00D-06.
 No special actions if energy rises.
 SCF Done:  E(UwB97XD) =  -535.627920523     A.U. after   16 cycles
            NFock= 16  Conv=0.40D-08     -V/T= 2.0041
 <Sx>= 0.0000 <Sy>= 0.0000 <Sz>= 0.5000 <S**2>= 0.7544 S= 0.5022
 <L.S>= 0.000000000000E+00
 Annihilation of the first spin contaminant:
 S**2 before annihilation     0.7544,   after     0.7500
 QCSCF skips out because SCF is already converged.
 Calling FoFJK, ICntrl=      2127 FMM=F ISym2X=0 I1Cent= 0 IOpClX= 1 NMat=1 NMatS=1 NMatT=0.
 ***** Axes restored to original set *****
 -------------------------------------------------------------------
 Center     Atomic                   Forces (Hartrees/Bohr)
 Number     Number              X              Y              Z
 -------------------------------------------------------------------
      1        7          -0.004312888   -0.001387033   -0.002375984
      2        1          -0.000261365   -0.002865863   -0.012036847
      3        6          -0.009704709   -0.000420400    0.011398638
      4        1           0.003504094    0.000215284    0.000051046
      5        1           0.008484256    0.003698534    0.004119972
      6        6           0.001215459   -0.000787063    0.000790562
      7        1           0.000539374    0.000455783   -0.000765823
      8        1          -0.000090334    0.000353938   -0.000531116
      9        6           0.001118297    0.000833793    0.000277958
     10        1          -0.000539089   -0.000301829   -0.000587484
     11        1           0.000098752   -0.000076014   -0.000243308
     12        7          -0.000200931    0.000110501   -0.000200259
     13        6          -0.001139893    0.001753720   -0.001553340
     14        1          -0.000271984   -0.000042769    0.000193773
     15        1          -0.000500910    0.000108665    0.000150712
     16        1          -0.000155471   -0.000043538   -0.000027017
     17        6           0.000125524   -0.000199995    0.000721731
     18        1           0.000240079   -0.000148285   -0.000020219
     19        1           0.000060700    0.000759893    0.000024509
     20        1          -0.000145134    0.000192352    0.000153209
     21        6           0.000644097    0.000631853    0.002545416
     22        1          -0.000665894   -0.000014044    0.000010618
     23        1           0.000582976    0.000193463   -0.000171800
     24        6          -0.003367606   -0.002668530   -0.009383853
     25        8           0.003046158   -0.001390452    0.004028591
     26        8           0.001696444    0.001038036    0.003430316
 -------------------------------------------------------------------
 Cartesian Forces:  Max     0.012036847 RMS     0.002978745

 GradGradGradGradGradGradGradGradGradGradGradGradGradGradGradGradGradGrad
 Berny optimization.
 Using GEDIIS/GDIIS optimizer.
 FormGI is forming the generalized inverse of G from B-inverse, IUseBI=4.
 Internal  Forces:  Max     0.012469196 RMS     0.002368895
 Search for a local minimum.
 Step number   4 out of a maximum of  144
 All quantities printed in internal units (Hartrees-Bohrs-Radians)
 Mixed Optimization -- RFO/linear search
 Iteration  1 RMS(Cart)=  0.04434189 RMS(Int)=  0.00210305
 Iteration  2 RMS(Cart)=  0.00242742 RMS(Int)=  0.00000604
 Iteration  3 RMS(Cart)=  0.00000715 RMS(Int)=  0.00000000
 Iteration  4 RMS(Cart)=  0.00000000 RMS(Int)=  0.00000000
 Update second derivatives using D2CorX and points    1    4    3    2
 DE=  7.51D-04 DEPred=-6.86D-04 R=-1.10D+00
 Trust test=-1.10D+00 RLast= 1.88D-01 DXMaxT set to 1.26D-01
 ITU= -1 -1  1  0
 Use linear search instead of GDIIS.
 Energy rises -- skip Quadratic/GDIIS search.
 Quartic linear search produced a step of -0.83737.
 Iteration  1 RMS(Cart)=  0.01398651 RMS(Int)=  0.00099454
 Iteration  2 RMS(Cart)=  0.00040071 RMS(Int)=  0.00093342
 Iteration  3 RMS(Cart)=  0.00000028 RMS(Int)=  0.00093342
 Variable       Old X    -DE/DX   Delta X   Delta X   Delta X     New X
                                 (Linear)    (Quad)   (Total)
    R1        1.93567  -0.00039  -0.00730   0.00000   0.01784   1.95351
    R2        2.71270  -0.00078  -0.00479   0.00000   0.01429   2.72699
    R3        2.07553  -0.00004  -0.00229   0.00000   0.00523   2.08076
    R4        2.06456  -0.00023  -0.00183   0.00000   0.00451   2.06907
    R5        2.90385   0.00077  -0.00496   0.00000   0.01319   2.91704
    R6        2.06084   0.00000  -0.00054   0.00000   0.00145   2.06229
    R7        2.05966   0.00007  -0.00062   0.00000   0.00153   2.06119
    R8        2.89092   0.00005  -0.00061   0.00000   0.00153   2.89245
    R9        2.05903   0.00002   0.00033   0.00000  -0.00081   2.05821
   R10        2.05813  -0.00003   0.00011   0.00000  -0.00034   2.05779
   R11        2.84433  -0.00001   0.00009   0.00000  -0.00018   2.84415
   R12        2.82272   0.00006  -0.00020   0.00000   0.00055   2.82327
   R13        2.82633  -0.00041  -0.00078   0.00000   0.00184   2.82817
   R14        2.86352  -0.00042  -0.00085   0.00000   0.00194   2.86546
   R15        2.05419  -0.00003   0.00001   0.00000  -0.00005   2.05413
   R16        2.05569   0.00005  -0.00000   0.00000   0.00001   2.05571
   R17        2.05139  -0.00003  -0.00006   0.00000   0.00015   2.05154
   R18        2.05567  -0.00005   0.00003   0.00000  -0.00011   2.05556
   R19        2.05315   0.00023   0.00001   0.00000   0.00009   2.05325
   R20        2.05453  -0.00001   0.00001   0.00000  -0.00003   2.05450
   R21        2.05654   0.00044   0.00000   0.00000   0.00019   2.05673
   R22        2.05290  -0.00044  -0.00012   0.00000   0.00012   2.05302
   R23        2.97976  -0.00027  -0.00132   0.00000   0.00325   2.98301
   R24        2.35133   0.00026  -0.00006   0.00000   0.00018   2.35151
   R25        2.31971   0.00047   0.00024   0.00000  -0.00053   2.31918
    A1        1.87185   0.00045  -0.00443   0.00000   0.02094   1.89278
    A2        1.90113  -0.00017  -0.00183   0.00000   0.00347   1.90459
    A3        1.90338  -0.00051  -0.02291   0.00000   0.05688   1.96026
    A4        1.96745   0.00041   0.00385   0.00000  -0.00936   1.95808
    A5        1.87117  -0.00008   0.00434   0.00000  -0.01227   1.85889
    A6        1.91148   0.00012   0.00963   0.00000  -0.02310   1.88838
    A7        1.90676   0.00020   0.00652   0.00000  -0.01701   1.88975
    A8        1.91847  -0.00013  -0.00068   0.00000   0.00125   1.91972
    A9        1.88454  -0.00001  -0.00024   0.00000   0.00067   1.88522
   A10        1.98336   0.00018  -0.00223   0.00000   0.00569   1.98905
   A11        1.84776   0.00004   0.00140   0.00000  -0.00324   1.84453
   A12        1.94422  -0.00005   0.00097   0.00000  -0.00292   1.94129
   A13        1.87900  -0.00003   0.00105   0.00000  -0.00209   1.87691
   A14        1.92059   0.00011   0.00137   0.00000  -0.00339   1.91720
   A15        1.93049  -0.00005   0.00016   0.00000  -0.00063   1.92987
   A16        2.03691  -0.00018  -0.00056   0.00000   0.00144   2.03836
   A17        1.87609  -0.00001  -0.00070   0.00000   0.00178   1.87787
   A18        1.85210  -0.00002  -0.00041   0.00000   0.00088   1.85299
   A19        1.83928   0.00016   0.00003   0.00000   0.00020   1.83948
   A20        1.92843  -0.00028   0.00106   0.00000  -0.00280   1.92563
   A21        1.87667   0.00053   0.00046   0.00000  -0.00023   1.87644
   A22        1.93884   0.00006   0.00106   0.00000  -0.00265   1.93619
   A23        1.89400  -0.00006  -0.00070   0.00000   0.00158   1.89559
   A24        1.91882   0.00032  -0.00089   0.00000   0.00243   1.92125
   A25        1.90596  -0.00057  -0.00104   0.00000   0.00174   1.90770
   A26        1.86321   0.00005   0.00005   0.00000  -0.00001   1.86319
   A27        1.89513  -0.00010   0.00009   0.00000  -0.00030   1.89483
   A28        1.90643  -0.00007   0.00007   0.00000  -0.00035   1.90608
   A29        1.95450   0.00014  -0.00004   0.00000   0.00040   1.95490
   A30        1.92133  -0.00008  -0.00003   0.00000  -0.00009   1.92124
   A31        1.92170   0.00006  -0.00014   0.00000   0.00032   1.92202
   A32        1.89604   0.00019   0.00035   0.00000  -0.00072   1.89532
   A33        1.87136  -0.00013  -0.00078   0.00000   0.00188   1.87324
   A34        1.89109   0.00003   0.00011   0.00000  -0.00022   1.89087
   A35        1.95499  -0.00010   0.00031   0.00000  -0.00100   1.95398
   A36        1.92183  -0.00002   0.00009   0.00000  -0.00016   1.92167
   A37        1.92653   0.00004  -0.00010   0.00000   0.00028   1.92681
   A38        1.86124  -0.00006   0.00053   0.00000  -0.00144   1.85980
   A39        1.86936   0.00082   0.00152   0.00000  -0.00356   1.86580
   A40        2.05334  -0.00139  -0.00364   0.00000   0.00854   2.06188
   A41        1.90467  -0.00012   0.00033   0.00000  -0.00051   1.90417
   A42        1.89563   0.00098   0.00098   0.00000  -0.00139   1.89424
   A43        1.87613  -0.00018   0.00047   0.00000  -0.00208   1.87405
   A44        2.04920   0.00012   0.00118   0.00000   0.00153   2.05073
   A45        1.91729   0.00103   0.00276   0.00000  -0.00203   1.91526
   A46        2.30810   0.00029   0.00325   0.00000  -0.00376   2.30434
    D1        1.14668   0.00028  -0.01017   0.00000   0.01637   1.16305
    D2       -3.09966  -0.00019  -0.01850   0.00000   0.03666  -3.06300
    D3       -0.97870  -0.00002  -0.02372   0.00000   0.04920  -0.92950
    D4        1.03004   0.00017  -0.01605   0.00000   0.01362   1.04366
    D5       -0.97790   0.00019  -0.01721   0.00000   0.01644  -0.96147
    D6       -3.06095   0.00012  -0.01699   0.00000   0.01507  -3.04588
    D7       -1.08947   0.00003  -0.02325   0.00000   0.03117  -1.05831
    D8       -3.09741   0.00005  -0.02441   0.00000   0.03398  -3.06343
    D9        1.10273  -0.00002  -0.02419   0.00000   0.03261   1.13534
   D10       -3.13411  -0.00007  -0.03805   0.00000   0.06767  -3.06643
   D11        1.14114  -0.00004  -0.03922   0.00000   0.07049   1.21163
   D12       -0.94191  -0.00011  -0.03900   0.00000   0.06912  -0.87279
   D13        0.36404   0.00005   0.00301   0.00000  -0.00406   0.35999
   D14        2.43437   0.00007   0.00311   0.00000  -0.00437   2.42999
   D15       -1.74696   0.00012   0.00286   0.00000  -0.00355  -1.75052
   D16        2.54249  -0.00003   0.00113   0.00000  -0.00029   2.54220
   D17       -1.67038  -0.00001   0.00123   0.00000  -0.00060  -1.67098
   D18        0.43148   0.00004   0.00098   0.00000   0.00021   0.43169
   D19       -1.72216  -0.00003   0.00396   0.00000  -0.00697  -1.72912
   D20        0.34816  -0.00001   0.00406   0.00000  -0.00728   0.34088
   D21        2.45002   0.00004   0.00382   0.00000  -0.00646   2.44356
   D22       -1.18066  -0.00001   0.00292   0.00000  -0.00411  -1.18477
   D23        3.03839  -0.00010   0.00289   0.00000  -0.00432   3.03407
   D24        0.95383   0.00024   0.00326   0.00000  -0.00476   0.94906
   D25        2.95570  -0.00002   0.00183   0.00000  -0.00135   2.95435
   D26        0.89156  -0.00010   0.00180   0.00000  -0.00156   0.89001
   D27       -1.19300   0.00023   0.00217   0.00000  -0.00200  -1.19500
   D28        0.96902  -0.00007   0.00278   0.00000  -0.00382   0.96520
   D29       -1.09512  -0.00015   0.00275   0.00000  -0.00403  -1.09915
   D30        3.10350   0.00018   0.00312   0.00000  -0.00447   3.09903
   D31       -3.11455  -0.00022  -0.00181   0.00000   0.00181  -3.11274
   D32       -1.00430  -0.00008  -0.00178   0.00000   0.00211  -1.00219
   D33        1.09167  -0.00011  -0.00185   0.00000   0.00211   1.09378
   D34       -1.06103   0.00022  -0.00106   0.00000   0.00087  -1.06016
   D35        1.04922   0.00036  -0.00103   0.00000   0.00117   1.05039
   D36       -3.13800   0.00033  -0.00110   0.00000   0.00117  -3.13683
   D37        1.02246  -0.00032  -0.00327   0.00000   0.00539   1.02785
   D38       -3.15048  -0.00018  -0.00324   0.00000   0.00569   3.13840
   D39       -1.05451  -0.00021  -0.00330   0.00000   0.00569  -1.04882
   D40        1.00966   0.00003   0.00117   0.00000  -0.00181   1.00785
   D41        3.12571  -0.00007   0.00128   0.00000  -0.00232   3.12339
   D42       -1.07805  -0.00008   0.00079   0.00000  -0.00108  -1.07913
   D43       -1.07657   0.00010   0.00003   0.00000   0.00078  -1.07579
   D44        1.03948   0.00000   0.00014   0.00000   0.00026   1.03974
   D45        3.11890  -0.00001  -0.00035   0.00000   0.00151   3.12042
   D46        3.11509   0.00009   0.00212   0.00000  -0.00414   3.11095
   D47       -1.05205  -0.00001   0.00224   0.00000  -0.00465  -1.05670
   D48        1.02737  -0.00002   0.00175   0.00000  -0.00340   1.02397
   D49        0.94926  -0.00013   0.00775   0.00000  -0.02149   0.92777
   D50       -1.08814  -0.00036   0.00636   0.00000  -0.01846  -1.10660
   D51        3.08174   0.00016   0.00699   0.00000  -0.01863   3.06311
   D52        3.08930  -0.00023   0.00921   0.00000  -0.02516   3.06415
   D53        1.05191  -0.00046   0.00782   0.00000  -0.02213   1.02978
   D54       -1.06140   0.00006   0.00845   0.00000  -0.02230  -1.08370
   D55       -1.11772  -0.00046   0.00719   0.00000  -0.02069  -1.13841
   D56        3.12808  -0.00069   0.00580   0.00000  -0.01767   3.11041
   D57        1.01477  -0.00017   0.00643   0.00000  -0.01784   0.99693
   D58        0.09932  -0.00499  -0.05407   0.00000  -0.13127  -0.03195
   D59       -3.16555   0.00528   0.04599   0.00000   0.14293  -3.02262
   D60        2.21409  -0.00526  -0.05515   0.00000  -0.12824   2.08585
   D61       -1.05078   0.00501   0.04492   0.00000   0.14596  -0.90482
   D62       -2.01047  -0.00498  -0.05398   0.00000  -0.13072  -2.14119
   D63        1.00784   0.00529   0.04609   0.00000   0.14349   1.15133
         Item               Value     Threshold  Converged?
 Maximum Force            0.012469     0.000450     NO 
 RMS     Force            0.002369     0.000300     NO 
 Maximum Displacement     0.060469     0.001800     NO 
 RMS     Displacement     0.013987     0.001200     NO 
 Predicted change in Energy=-2.434554D-03
 GradGradGradGradGradGradGradGradGradGradGradGradGradGradGradGradGradGrad

                          Input orientation:                          
 ---------------------------------------------------------------------
 Center     Atomic      Atomic             Coordinates (Angstroms)
 Number     Number       Type             X           Y           Z
 ---------------------------------------------------------------------
      1          7           0        2.441291    0.991075    0.393038
      2          1           0        2.126939    1.208733    1.353480
      3          6           0        1.309244    0.506114   -0.359095
      4          1           0        0.582176    1.323535   -0.483985
      5          1           0        1.588055    0.181092   -1.366786
      6          6           0        0.598517   -0.667240    0.348648
      7          1           0        0.240200   -0.349551    1.329287
      8          1           0        1.340151   -1.443101    0.542854
      9          6           0       -0.526387   -1.300018   -0.474139
     10          1           0       -0.392036   -1.062336   -1.528523
     11          1           0       -0.508621   -2.384404   -0.376310
     12          7           0       -1.932757   -0.890626   -0.128133
     13          6           0       -2.306788   -1.408650    1.222352
     14          1           0       -3.335942   -1.107025    1.399641
     15          1           0       -2.193398   -2.490557    1.221921
     16          1           0       -1.654607   -0.965045    1.968319
     17          6           0       -2.843568   -1.505005   -1.144391
     18          1           0       -2.703775   -2.583620   -1.128383
     19          1           0       -3.859309   -1.223069   -0.881080
     20          1           0       -2.581754   -1.108732   -2.122355
     21          6           0       -2.083091    0.617739   -0.167100
     22          1           0       -1.722395    0.940326   -1.141983
     23          1           0       -1.431917    1.020091    0.603856
     24          6           0       -3.520170    1.228807    0.063524
     25          8           0       -4.462513    0.433603    0.231133
     26          8           0       -3.492154    2.439770   -0.133809
 ---------------------------------------------------------------------
                    Distance matrix (angstroms):
                    1          2          3          4          5
     1  N    0.000000
     2  H    1.033751   0.000000
     3  C    1.443060   2.023663   0.000000
     4  H    2.082308   2.403278   1.101092   0.000000
     5  H    2.116853   2.957413   1.094905   1.759632   0.000000
     6  C    2.479475   2.620121   1.543629   2.157946   2.154430
     7  H    2.742014   2.447165   2.173856   2.490807   3.060573
     8  H    2.675849   2.882425   2.148000   3.046834   2.519163
     9  C    3.848145   4.083401   2.577768   2.848165   2.731551
    10  H    3.992072   4.450722   2.592672   2.780743   2.343722
    11  H    4.548378   4.780062   3.414678   3.866555   3.458160
    12  N    4.790064   4.804541   3.537626   3.369574   3.883163
    13  C    5.384301   5.150322   4.386682   4.326954   4.939708
    14  H    6.228298   5.933627   5.222368   4.980695   5.792936
    15  H    5.855694   5.689232   4.873207   5.016097   5.304573
    16  H    4.804612   4.404932   4.045439   4.031698   4.790763
    17  C    6.043496   6.189481   4.680506   4.491381   4.746753
    18  H    6.447083   6.624000   5.122752   5.145735   5.110800
    19  H    6.798778   6.836818   5.475079   5.135141   5.646358
    20  H    5.997281   6.294748   4.566911   4.314005   4.429654
    21  C    4.574185   4.515062   3.399597   2.775286   3.886801
    22  H    4.437922   4.595297   3.161059   2.427110   3.403829
    23  H    3.879049   3.641837   2.950493   2.309122   3.702374
    24  C    5.975293   5.792601   4.901442   4.139805   5.407167
    25  O    6.928167   6.729143   5.802310   5.172259   6.263104
    26  O    6.130421   5.941522   5.181043   4.238959   5.694768
                    6          7          8          9         10
     6  C    0.000000
     7  H    1.091316   0.000000
     8  H    1.090733   1.739028   0.000000
     9  C    1.530619   2.177932   2.130425   0.000000
    10  H    2.158950   3.012451   2.726913   1.089160   0.000000
    11  H    2.167942   2.758700   2.269113   1.088935   1.757570
    12  N    2.585453   2.671812   3.386352   1.505058   2.089114
    13  C    3.123114   2.760484   3.709861   2.461647   3.369499
    14  H    4.096091   3.656161   4.765803   3.382587   4.152436
    15  H    3.447010   3.243121   3.747568   2.659497   3.584643
    16  H    2.790804   2.092245   3.350979   2.711215   3.719067
    17  C    3.844342   4.118711   4.511555   2.420865   2.520620
    18  H    4.093808   4.438265   4.521853   2.610879   2.796168
    19  H    4.657616   4.738643   5.395404   3.358555   3.530865
    20  H    4.051529   4.522567   4.753575   2.641541   2.269285
    21  C    3.017977   2.927884   4.058285   2.489054   2.745140
    22  H    3.192629   3.409214   4.230672   2.625946   2.435143
    23  H    2.652334   2.279944   3.708827   2.713847   3.156722
    24  C    4.543113   4.270100   5.567007   3.955601   4.191560
    25  O    5.180703   4.892319   6.106562   4.358433   4.680065
    26  O    5.159444   4.883792   6.235842   4.785145   4.880646
                   11         12         13         14         15
    11  H    0.000000
    12  N    2.078733   0.000000
    13  C    2.596386   1.494008   0.000000
    14  H    3.574835   2.085630   1.086999   0.000000
    15  H    2.324669   2.109588   1.087833   1.803095   0.000000
    16  H    2.970715   2.116133   1.085630   1.780574   1.781739
    17  C    2.610606   1.496602   2.428763   2.621625   2.644516
    18  H    2.328948   2.112155   2.657839   2.995142   2.406881
    19  H    3.581983   2.095006   2.620914   2.342876   2.967221
    20  H    2.995645   2.108480   3.369365   3.601841   3.639291
    21  C    3.396408   1.516338   2.467158   2.645586   3.406325
    22  H    3.621234   2.103456   3.383678   3.640746   4.192951
    23  H    3.661119   2.106535   2.654566   2.963649   3.645066
    24  C    4.724212   2.654921   3.125917   2.697269   4.115322
    25  O    4.893201   2.877902   3.003924   2.237880   3.831613
    26  O    5.677405   3.677402   4.249070   3.867250   5.275689
                   16         17         18         19         20
    16  H    0.000000
    17  C    3.375522   0.000000
    18  H    3.648301   1.087754   0.000000
    19  H    3.611975   1.086532   1.802088   0.000000
    20  H    4.196887   1.087195   1.782741   1.784933   0.000000
    21  C    2.692363   2.457533   3.399708   2.655803   2.655633
    22  H    3.648152   2.690107   3.658071   3.052007   2.428634
    23  H    2.419115   3.380124   4.195833   3.623401   3.645029
    24  C    3.452761   3.064405   4.076978   2.649337   3.335083
    25  O    3.585857   2.875979   3.747677   2.084571   3.384518
    26  O    4.403213   4.123493   5.181232   3.756275   4.168334
                   21         22         23         24         25
    21  C    0.000000
    22  H    1.088375   0.000000
    23  H    1.086411   1.771636   0.000000
    24  C    1.578540   2.183681   2.167101   0.000000
    25  O    2.419534   3.106519   3.109245   1.244368   0.000000
    26  O    2.303555   2.529188   2.608489   1.227255   2.258203
                   26
    26  O    0.000000
 Stoichiometry    C7H15N2O2(2)
 Framework group  C1[X(C7H15N2O2)]
 Deg. of freedom    72
 Full point group                 C1      NOp   1
 Largest Abelian subgroup         C1      NOp   1
 Largest concise Abelian subgroup C1      NOp   1
                         Standard orientation:                         
 ---------------------------------------------------------------------
 Center     Atomic      Atomic             Coordinates (Angstroms)
 Number     Number       Type             X           Y           Z
 ---------------------------------------------------------------------
      1          7           0        3.889500    1.250099    0.229819
      2          1           0        3.591525    1.495655    1.188753
      3          6           0        2.765971    0.665645   -0.461930
      4          1           0        1.988993    1.433321   -0.601150
      5          1           0        3.033357    0.308717   -1.461891
      6          6           0        2.146294   -0.510719    0.322265
      7          1           0        1.799201   -0.166940    1.298129
      8          1           0        2.937429   -1.232771    0.528284
      9          6           0        1.036441   -1.245585   -0.433376
     10          1           0        1.125407   -1.051869   -1.501472
     11          1           0        1.120442   -2.321201   -0.285813
     12          7           0       -0.380596   -0.900743   -0.061502
     13          6           0       -0.683579   -1.373363    1.323016
     14          1           0       -1.722905   -1.122650    1.519262
     15          1           0       -0.507212   -2.445807    1.369270
     16          1           0       -0.036650   -0.857788    2.026050
     17          6           0       -1.283617   -1.614415   -1.018082
     18          1           0       -1.080609   -2.681277   -0.956422
     19          1           0       -2.305863   -1.378413   -0.735469
     20          1           0       -1.074469   -1.251595   -2.021382
     21          6           0       -0.619919    0.592957   -0.165742
     22          1           0       -0.307704    0.888078   -1.165735
     23          1           0        0.029156    1.068545    0.564193
     24          6           0       -2.082801    1.131585    0.082543
     25          8           0       -2.971682    0.293013    0.317363
     26          8           0       -2.131462    2.331222   -0.171736
 ---------------------------------------------------------------------
 Rotational constants (GHZ):           1.5732389           0.6412418           0.5178083
 Standard basis: 6-311+G(2d,2p) (5D, 7F)
 There are   454 symmetry adapted cartesian basis functions of A   symmetry.
 There are   432 symmetry adapted basis functions of A   symmetry.
   432 basis functions,   627 primitive gaussians,   454 cartesian basis functions
    44 alpha electrons       43 beta electrons
       nuclear repulsion energy       668.1508580515 Hartrees.
 NAtoms=   26 NActive=   26 NUniq=   26 SFac= 1.00D+00 NAtFMM=   60 NAOKFM=F Big=F
 Integral buffers will be    131072 words long.
 Raffenetti 2 integral format.
 Two-electron integral symmetry is turned on.
 Nuclear repulsion after empirical dispersion term =      668.1298962304 Hartrees.
 One-electron integrals computed using PRISM.
 NBasis=   432 RedAO= T EigKep=  1.20D-05  NBF=   432
 NBsUse=   432 1.00D-06 EigRej= -1.00D+00 NBFU=   432
 Lowest energy guess from the checkpoint file:  "aminopropyl_betaine.chk"
 B after Tr=    -0.000000    0.000000    0.000000
         Rot=    0.999959   -0.008712   -0.002256    0.000091 Ang=  -1.03 deg.
 B after Tr=    -0.000000   -0.000000    0.000000
         Rot=    0.999999   -0.001391   -0.000352   -0.000144 Ang=  -0.17 deg.
 Initial guess <Sx>= 0.0000 <Sy>= 0.0000 <Sz>= 0.5000 <S**2>= 0.7543 S= 0.5022
 Requested convergence on RMS density matrix=1.00D-08 within  32 cycles.
 Requested convergence on MAX density matrix=1.00D-06.
 Requested convergence on             energy=1.00D-06.
 No special actions if energy rises.
 SCF Done:  E(UwB97XD) =  -535.627143434     A.U. after   16 cycles
            NFock= 16  Conv=0.44D-08     -V/T= 2.0040
 <Sx>= 0.0000 <Sy>= 0.0000 <Sz>= 0.5000 <S**2>= 0.7544 S= 0.5022
 <L.S>= 0.000000000000E+00
 Annihilation of the first spin contaminant:
 S**2 before annihilation     0.7544,   after     0.7500
 QCSCF skips out because SCF is already converged.
 Calling FoFJK, ICntrl=      2127 FMM=F ISym2X=0 I1Cent= 0 IOpClX= 1 NMat=1 NMatS=1 NMatT=0.
 ***** Axes restored to original set *****
 -------------------------------------------------------------------
 Center     Atomic                   Forces (Hartrees/Bohr)
 Number     Number              X              Y              Z
 -------------------------------------------------------------------
      1        7          -0.003249767   -0.001102243   -0.002171101
      2        1          -0.000205669   -0.002380338   -0.008810568
      3        6          -0.006736821   -0.000020563    0.008477972
      4        1           0.002503179    0.000159893    0.000086198
      5        1           0.006099799    0.002828083    0.003230945
      6        6           0.000823933   -0.000659744    0.000573639
      7        1           0.000364543    0.000381954   -0.000571828
      8        1          -0.000044861    0.000262140   -0.000338236
      9        6           0.000874928    0.000627236    0.000237639
     10        1          -0.000425288   -0.000231134   -0.000421287
     11        1           0.000065081   -0.000039546   -0.000208137
     12        7          -0.000163236    0.000129552    0.000233545
     13        6          -0.000917385    0.001808903   -0.001498842
     14        1          -0.000289110   -0.000251921    0.000104167
     15        1          -0.000556043    0.000132798    0.000187342
     16        1          -0.000119775   -0.000046569    0.000011102
     17        6           0.000068359   -0.000894139    0.000180824
     18        1           0.000430471   -0.000171270   -0.000018612
     19        1           0.000340383    0.000593522   -0.000201406
     20        1          -0.000118952    0.000186899    0.000153265
     21        6           0.001835137    0.000703034    0.006692661
     22        1          -0.001421855    0.000087242    0.000194944
     23        1           0.001447146   -0.000041626   -0.000256902
     24        6          -0.004919808   -0.004282128   -0.025834915
     25        8           0.002232012   -0.000466875    0.010545717
     26        8           0.002083601    0.002686836    0.009421876
 -------------------------------------------------------------------
 Cartesian Forces:  Max     0.025834915 RMS     0.004036973

 GradGradGradGradGradGradGradGradGradGradGradGradGradGradGradGradGradGrad
 Berny optimization.
 Using GEDIIS/GDIIS optimizer.
 FormGI is forming the generalized inverse of G from B-inverse, IUseBI=4.
 Internal  Forces:  Max     0.009605234 RMS     0.002278243
 Search for a local minimum.
 Step number   5 out of a maximum of  144
 All quantities printed in internal units (Hartrees-Bohrs-Radians)
 Mixed Optimization -- RFO/linear search
 Update second derivatives using D2CorX and points    1    4    3    5    2
 ITU=  0 -1 -1  1  0
 Use linear search instead of GDIIS.
 Energy rises -- skip Quadratic/GDIIS search.
 Quartic linear search produced a step of -0.87510.
 Iteration  1 RMS(Cart)=  0.03935789 RMS(Int)=  0.00156325
 Iteration  2 RMS(Cart)=  0.00177331 RMS(Int)=  0.00007639
 Iteration  3 RMS(Cart)=  0.00000317 RMS(Int)=  0.00007634
 Iteration  4 RMS(Cart)=  0.00000000 RMS(Int)=  0.00007634
 Variable       Old X    -DE/DX   Delta X   Delta X   Delta X     New X
                                 (Linear)    (Quad)   (Total)
    R1        1.95351  -0.00863  -0.02324   0.00000  -0.02324   1.93027
    R2        2.72699  -0.00961  -0.01750   0.00000  -0.01750   2.70948
    R3        2.08076  -0.00155  -0.00698   0.00000  -0.00698   2.07379
    R4        2.06907  -0.00226  -0.00586   0.00000  -0.00586   2.06321
    R5        2.91704  -0.00150  -0.01672   0.00000  -0.01672   2.90031
    R6        2.06229  -0.00052  -0.00183   0.00000  -0.00183   2.06045
    R7        2.06119  -0.00028  -0.00198   0.00000  -0.00198   2.05920
    R8        2.89245  -0.00030  -0.00198   0.00000  -0.00198   2.89047
    R9        2.05821   0.00030   0.00105   0.00000   0.00105   2.05927
   R10        2.05779   0.00002   0.00042   0.00000   0.00042   2.05821
   R11        2.84415   0.00010   0.00025   0.00000   0.00025   2.84440
   R12        2.82327  -0.00118  -0.00069   0.00000  -0.00069   2.82257
   R13        2.82817  -0.00040  -0.00242   0.00000  -0.00242   2.82575
   R14        2.86546  -0.00144  -0.00258   0.00000  -0.00258   2.86288
   R15        2.05413   0.00022   0.00006   0.00000   0.00006   2.05419
   R16        2.05571  -0.00019  -0.00001   0.00000  -0.00001   2.05569
   R17        2.05154  -0.00008  -0.00020   0.00000  -0.00020   2.05134
   R18        2.05556   0.00022   0.00013   0.00000   0.00013   2.05569
   R19        2.05325  -0.00021  -0.00008   0.00000  -0.00008   2.05317
   R20        2.05450  -0.00010   0.00003   0.00000   0.00003   2.05453
   R21        2.05673  -0.00062  -0.00017   0.00000  -0.00017   2.05656
   R22        2.05302   0.00067  -0.00023   0.00000  -0.00023   2.05279
   R23        2.98301  -0.00111  -0.00422   0.00000  -0.00422   2.97879
   R24        2.35151   0.00003  -0.00022   0.00000  -0.00022   2.35130
   R25        2.31918   0.00119   0.00072   0.00000   0.00072   2.31990
    A1        1.89278  -0.00581  -0.02295   0.00000  -0.02295   1.86983
    A2        1.90459  -0.00146  -0.00495   0.00000  -0.00488   1.89972
    A3        1.96026  -0.00689  -0.07372   0.00000  -0.07372   1.88654
    A4        1.95808   0.00376   0.01221   0.00000   0.01223   1.97031
    A5        1.85889   0.00036   0.01528   0.00000   0.01545   1.87434
    A6        1.88838   0.00108   0.03028   0.00000   0.03035   1.91874
    A7        1.88975   0.00324   0.02170   0.00000   0.02176   1.91151
    A8        1.91972  -0.00030  -0.00181   0.00000  -0.00181   1.91792
    A9        1.88522   0.00016  -0.00084   0.00000  -0.00084   1.88437
   A10        1.98905  -0.00052  -0.00731   0.00000  -0.00731   1.98174
   A11        1.84453   0.00007   0.00429   0.00000   0.00430   1.84882
   A12        1.94129   0.00048   0.00357   0.00000   0.00358   1.94487
   A13        1.87691   0.00016   0.00293   0.00000   0.00293   1.87984
   A14        1.91720   0.00059   0.00440   0.00000   0.00440   1.92160
   A15        1.92987  -0.00005   0.00071   0.00000   0.00072   1.93058
   A16        2.03836  -0.00033  -0.00185   0.00000  -0.00185   2.03651
   A17        1.87787  -0.00019  -0.00229   0.00000  -0.00229   1.87558
   A18        1.85299  -0.00033  -0.00121   0.00000  -0.00121   1.85178
   A19        1.83948   0.00029  -0.00014   0.00000  -0.00014   1.83934
   A20        1.92563   0.00119   0.00356   0.00000   0.00356   1.92919
   A21        1.87644  -0.00068   0.00069   0.00000   0.00068   1.87712
   A22        1.93619   0.00034   0.00343   0.00000   0.00343   1.93961
   A23        1.89559  -0.00015  -0.00212   0.00000  -0.00212   1.89347
   A24        1.92125  -0.00138  -0.00305   0.00000  -0.00305   1.91820
   A25        1.90770   0.00069  -0.00261   0.00000  -0.00261   1.90509
   A26        1.86319   0.00014   0.00007   0.00000   0.00007   1.86326
   A27        1.89483   0.00044   0.00036   0.00000   0.00036   1.89519
   A28        1.90608   0.00010   0.00038   0.00000   0.00038   1.90646
   A29        1.95490  -0.00048  -0.00039   0.00000  -0.00039   1.95450
   A30        1.92124  -0.00008   0.00005   0.00000   0.00005   1.92129
   A31        1.92202  -0.00009  -0.00042   0.00000  -0.00042   1.92159
   A32        1.89532  -0.00021   0.00099   0.00000   0.00099   1.89632
   A33        1.87324  -0.00032  -0.00246   0.00000  -0.00246   1.87078
   A34        1.89087  -0.00013   0.00031   0.00000   0.00031   1.89117
   A35        1.95398   0.00053   0.00121   0.00000   0.00121   1.95519
   A36        1.92167   0.00016   0.00024   0.00000   0.00024   1.92191
   A37        1.92681  -0.00007  -0.00035   0.00000  -0.00035   1.92646
   A38        1.85980   0.00155   0.00181   0.00000   0.00182   1.86161
   A39        1.86580   0.00086   0.00471   0.00000   0.00471   1.87051
   A40        2.06188  -0.00428  -0.01128   0.00000  -0.01128   2.05060
   A41        1.90417  -0.00050   0.00078   0.00000   0.00078   1.90495
   A42        1.89424   0.00091   0.00224   0.00000   0.00224   1.89648
   A43        1.87405   0.00158   0.00231   0.00000   0.00231   1.87636
   A44        2.05073  -0.00049  -0.00011   0.00000   0.00038   2.05111
   A45        1.91526   0.00162   0.00465   0.00000   0.00515   1.92041
   A46        2.30434   0.00135   0.00670   0.00000   0.00719   2.31152
    D1        1.16305   0.00230  -0.02495   0.00000  -0.02489   1.13815
    D2       -3.06300  -0.00239  -0.05142   0.00000  -0.05144  -3.11444
    D3       -0.92950  -0.00046  -0.06784   0.00000  -0.06787  -0.99737
    D4        1.04366   0.00169  -0.02869   0.00000  -0.02872   1.01494
    D5       -0.96147   0.00168  -0.03237   0.00000  -0.03240  -0.99387
    D6       -3.04588   0.00169  -0.03094   0.00000  -0.03097  -3.07685
    D7       -1.05831   0.00046  -0.05157   0.00000  -0.05158  -1.10989
    D8       -3.06343   0.00044  -0.05525   0.00000  -0.05526  -3.11870
    D9        1.13534   0.00045  -0.05382   0.00000  -0.05383   1.08151
   D10       -3.06643  -0.00221  -0.09899   0.00000  -0.09895   3.11780
   D11        1.21163  -0.00222  -0.10267   0.00000  -0.10263   1.10900
   D12       -0.87279  -0.00221  -0.10124   0.00000  -0.10120  -0.97399
   D13        0.35999   0.00011   0.00669   0.00000   0.00669   0.36668
   D14        2.42999   0.00020   0.00707   0.00000   0.00707   2.43707
   D15       -1.75052   0.00031   0.00610   0.00000   0.00610  -1.74442
   D16        2.54220  -0.00032   0.00144   0.00000   0.00144   2.54364
   D17       -1.67098  -0.00022   0.00181   0.00000   0.00181  -1.66917
   D18        0.43169  -0.00012   0.00084   0.00000   0.00084   0.43254
   D19       -1.72912   0.00012   0.01024   0.00000   0.01023  -1.71889
   D20        0.34088   0.00021   0.01061   0.00000   0.01061   0.35150
   D21        2.44356   0.00032   0.00964   0.00000   0.00964   2.45320
   D22       -1.18477   0.00044   0.00665   0.00000   0.00665  -1.17812
   D23        3.03407   0.00035   0.00680   0.00000   0.00680   3.04087
   D24        0.94906  -0.00026   0.00757   0.00000   0.00757   0.95664
   D25        2.95435   0.00015   0.00309   0.00000   0.00309   2.95744
   D26        0.89001   0.00007   0.00324   0.00000   0.00324   0.89325
   D27       -1.19500  -0.00055   0.00402   0.00000   0.00402  -1.19099
   D28        0.96520   0.00038   0.00625   0.00000   0.00625   0.97144
   D29       -1.09915   0.00030   0.00640   0.00000   0.00640  -1.09275
   D30        3.09903  -0.00032   0.00717   0.00000   0.00717   3.10620
   D31       -3.11274   0.00024  -0.00348   0.00000  -0.00348  -3.11621
   D32       -1.00219  -0.00001  -0.00371   0.00000  -0.00371  -1.00589
   D33        1.09378   0.00020  -0.00378   0.00000  -0.00378   1.09000
   D34       -1.06016   0.00001  -0.00187   0.00000  -0.00187  -1.06203
   D35        1.05039  -0.00024  -0.00209   0.00000  -0.00209   1.04829
   D36       -3.13683  -0.00002  -0.00217   0.00000  -0.00217  -3.13900
   D37        1.02785  -0.00006  -0.00813   0.00000  -0.00813   1.01972
   D38        3.13840  -0.00031  -0.00836   0.00000  -0.00836   3.13004
   D39       -1.04882  -0.00009  -0.00843   0.00000  -0.00844  -1.05725
   D40        1.00785   0.00009   0.00281   0.00000   0.00281   1.01066
   D41        3.12339   0.00043   0.00338   0.00000   0.00338   3.12676
   D42       -1.07913   0.00009   0.00177   0.00000   0.00177  -1.07736
   D43       -1.07579  -0.00086  -0.00065   0.00000  -0.00065  -1.07644
   D44        1.03974  -0.00053  -0.00008   0.00000  -0.00008   1.03966
   D45        3.12042  -0.00086  -0.00169   0.00000  -0.00169   3.11873
   D46        3.11095   0.00049   0.00584   0.00000   0.00584   3.11679
   D47       -1.05670   0.00083   0.00641   0.00000   0.00641  -1.05029
   D48        1.02397   0.00050   0.00481   0.00000   0.00481   1.02877
   D49        0.92777   0.00076   0.02690   0.00000   0.02690   0.95467
   D50       -1.10660   0.00017   0.02280   0.00000   0.02281  -1.08380
   D51        3.06311   0.00029   0.02361   0.00000   0.02361   3.08672
   D52        3.06415   0.00156   0.03164   0.00000   0.03164   3.09578
   D53        1.02978   0.00096   0.02754   0.00000   0.02754   1.05732
   D54       -1.08370   0.00108   0.02834   0.00000   0.02834  -1.05536
   D55       -1.13841   0.00096   0.02562   0.00000   0.02562  -1.11278
   D56        3.11041   0.00036   0.02153   0.00000   0.02153   3.13193
   D57        0.99693   0.00048   0.02233   0.00000   0.02233   1.01926
   D58       -0.03195   0.00732   0.05837   0.00000   0.05837   0.02642
   D59       -3.02262  -0.00725  -0.07701   0.00000  -0.07701  -3.09962
   D60        2.08585   0.00708   0.05459   0.00000   0.05459   2.14044
   D61       -0.90482  -0.00749  -0.08079   0.00000  -0.08079  -0.98560
   D62       -2.14119   0.00783   0.05798   0.00000   0.05798  -2.08321
   D63        1.15133  -0.00674  -0.07740   0.00000  -0.07740   1.07393
         Item               Value     Threshold  Converged?
 Maximum Force            0.009605     0.000450     NO 
 RMS     Force            0.002278     0.000300     NO 
 Maximum Displacement     0.177859     0.001800     NO 
 RMS     Displacement     0.039344     0.001200     NO 
 Predicted change in Energy=-1.101745D-05
 GradGradGradGradGradGradGradGradGradGradGradGradGradGradGradGradGradGrad

                          Input orientation:                          
 ---------------------------------------------------------------------
 Center     Atomic      Atomic             Coordinates (Angstroms)
 Number     Number       Type             X           Y           Z
 ---------------------------------------------------------------------
      1          7           0        2.406178    1.005961    0.406094
      2          1           0        2.040969    1.287441    1.317553
      3          6           0        1.303520    0.485787   -0.348451
      4          1           0        0.588425    1.296776   -0.536128
      5          1           0        1.682174    0.153878   -1.317210
      6          6           0        0.597681   -0.682183    0.353822
      7          1           0        0.238121   -0.363744    1.332682
      8          1           0        1.339506   -1.457073    0.545264
      9          6           0       -0.523940   -1.307110   -0.477458
     10          1           0       -0.384218   -1.071478   -1.532181
     11          1           0       -0.514079   -2.391925   -0.380815
     12          7           0       -1.929649   -0.888766   -0.138974
     13          6           0       -2.316480   -1.396209    1.211518
     14          1           0       -3.343647   -1.083622    1.381377
     15          1           0       -2.214106   -2.479192    1.217394
     16          1           0       -1.664348   -0.955801    1.959266
     17          6           0       -2.839634   -1.502306   -1.154593
     18          1           0       -2.708733   -2.581985   -1.131842
     19          1           0       -3.853399   -1.209263   -0.896001
     20          1           0       -2.571341   -1.113653   -2.133876
     21          6           0       -2.077141    0.618293   -0.185398
     22          1           0       -1.738797    0.934761   -1.170152
     23          1           0       -1.411996    1.029028    0.568857
     24          6           0       -3.512480    1.217178    0.071288
     25          8           0       -4.431883    0.418131    0.325029
     26          8           0       -3.485310    2.438984   -0.045084
 ---------------------------------------------------------------------
                    Distance matrix (angstroms):
                    1          2          3          4          5
     1  N    0.000000
     2  H    1.021454   0.000000
     3  C    1.433797   1.990490   0.000000
     4  H    2.067989   2.355017   1.097400   0.000000
     5  H    2.054265   2.890619   1.091805   1.764254   0.000000
     6  C    2.474515   2.625124   1.534780   2.169880   2.160434
     7  H    2.726743   2.444770   2.164020   2.524379   3.061886
     8  H    2.687693   2.936126   2.138861   3.052412   2.486241
     9  C    3.836216   4.066020   2.563344   2.832141   2.776078
    10  H    3.982332   4.423462   2.583554   2.747141   2.411988
    11  H    4.548930   4.790664   3.403813   3.853071   3.490198
    12  N    4.763033   4.756381   3.519468   3.357830   3.939621
    13  C    5.359349   5.118650   4.368044   4.329539   4.978601
    14  H    6.195000   5.883885   5.201107   4.980393   5.837179
    15  H    5.843930   5.683592   4.859697   5.018660   5.342122
    16  H    4.778079   4.378733   4.026409   4.046738   4.813096
    17  C    6.020439   6.141211   4.665630   4.468663   4.818312
    18  H    6.434354   6.597853   5.111076   5.125516   5.176811
    19  H    6.766459   6.773251   5.455898   5.112685   5.716479
    20  H    5.976613   6.241075   4.556369   4.283350   4.512867
    21  C    4.538755   4.434574   3.387183   2.772831   3.953369
    22  H    4.435137   4.538688   3.183153   2.439058   3.512043
    23  H    3.821711   3.542639   2.917292   2.300949   3.727871
    24  C    5.931881   5.692004   4.889271   4.146410   5.481146
    25  O    6.863760   6.605953   5.775206   5.168859   6.336282
    26  O    6.080028   5.807115   5.180724   4.259234   5.791623
                    6          7          8          9         10
     6  C    0.000000
     7  H    1.090345   0.000000
     8  H    1.089683   1.740243   0.000000
     9  C    1.529573   2.178826   2.130934   0.000000
    10  H    2.161639   3.015897   2.726846   1.089718   0.000000
    11  H    2.167699   2.759601   2.273181   1.089156   1.756727
    12  N    2.583200   2.672199   3.387998   1.505191   2.088723
    13  C    3.120546   2.758016   3.716696   2.464503   3.371493
    14  H    4.092810   3.653719   4.771842   3.384666   4.152974
    15  H    3.446903   3.240653   3.758277   2.665138   3.590308
    16  H    2.787309   2.088667   3.357650   2.713222   3.720527
    17  C    3.842271   4.117698   4.511848   2.420548   2.521359
    18  H    4.092532   4.436036   4.523975   2.612823   2.800941
    19  H    4.653169   4.735237   5.394898   3.357090   3.529720
    20  H    4.051853   4.524651   4.752942   2.640644   2.268771
    21  C    3.022693   2.937584   4.063803   2.490966   2.745021
    22  H    3.224304   3.443617   4.259046   2.642289   2.447640
    23  H    2.648261   2.290443   3.708371   2.709420   3.143694
    24  C    4.536609   4.261154   5.560399   3.950256   4.194649
    25  O    5.148596   4.841036   6.072383   4.346546   4.695930
    26  O    5.154767   4.859780   6.229496   4.794776   4.914425
                   11         12         13         14         15
    11  H    0.000000
    12  N    2.078897   0.000000
    13  C    2.603003   1.493641   0.000000
    14  H    3.580983   2.085385   1.087031   0.000000
    15  H    2.334947   2.109527   1.087827   1.802878   0.000000
    16  H    2.976836   2.116009   1.085525   1.780545   1.781384
    17  C    2.607366   1.495321   2.425577   2.619250   2.640438
    18  H    2.327374   2.111811   2.655421   2.994074   2.402942
    19  H    3.579827   2.092038   2.615092   2.337111   2.960817
    20  H    2.989905   2.107600   3.366965   3.599217   3.636389
    21  C    3.397465   1.514972   2.463103   2.637298   3.403087
    22  H    3.631781   2.103570   3.382232   3.627633   4.193014
    23  H    3.662110   2.108773   2.666998   2.975694   3.656718
    24  C    4.713855   2.642833   3.091978   2.653020   4.081970
    25  O    4.872763   2.860849   2.924487   2.134336   3.756239
    26  O    5.681427   3.674618   4.201656   3.803106   5.234335
                   16         17         18         19         20
    16  H    0.000000
    17  C    3.372845   0.000000
    18  H    3.645568   1.087823   0.000000
    19  H    3.606763   1.086492   1.802844   0.000000
    20  H    4.195399   1.087211   1.782961   1.784698   0.000000
    21  C    2.692166   2.453095   3.396535   2.645754   2.653382
    22  H    3.656916   2.674207   3.648253   3.023829   2.412031
    23  H    2.436486   3.378769   4.196822   3.621630   3.638671
    24  C    3.420803   3.057957   4.065362   2.634291   3.343839
    25  O    3.495379   2.900452   3.753987   2.115176   3.442992
    26  O    4.342567   4.145079   5.195599   3.764208   4.221329
                   21         22         23         24         25
    21  C    0.000000
    22  H    1.088287   0.000000
    23  H    1.086288   1.771959   0.000000
    24  C    1.576308   2.183320   2.166797   0.000000
    25  O    2.417729   3.123330   3.090690   1.244252   0.000000
    26  O    2.305980   2.564912   2.581381   1.227637   2.262042
                   26
    26  O    0.000000
 Stoichiometry    C7H15N2O2(2)
 Framework group  C1[X(C7H15N2O2)]
 Deg. of freedom    72
 Full point group                 C1      NOp   1
 Largest Abelian subgroup         C1      NOp   1
 Largest concise Abelian subgroup C1      NOp   1
                         Standard orientation:                         
 ---------------------------------------------------------------------
 Center     Atomic      Atomic             Coordinates (Angstroms)
 Number     Number       Type             X           Y           Z
 ---------------------------------------------------------------------
      1          7           0        3.849765    1.272110    0.235625
      2          1           0        3.486809    1.598812    1.132785
      3          6           0        2.764578    0.636315   -0.452784
      4          1           0        2.000004    1.389568   -0.681528
      5          1           0        3.142757    0.255944   -1.403750
      6          6           0        2.141763   -0.514829    0.348790
      7          1           0        1.783624   -0.146046    1.310345
      8          1           0        2.930993   -1.230350    0.578038
      9          6           0        1.042229   -1.261644   -0.408101
     10          1           0        1.147249   -1.096757   -1.480140
     11          1           0        1.117022   -2.334108   -0.233490
     12          7           0       -0.378489   -0.899658   -0.067328
     13          6           0       -0.708539   -1.327383    1.325181
     14          1           0       -1.748598   -1.061708    1.496440
     15          1           0       -0.543298   -2.399472    1.406950
     16          1           0       -0.068527   -0.796978    2.023335
     17          6           0       -1.271074   -1.636738   -1.013895
     18          1           0       -1.077220   -2.702684   -0.916220
     19          1           0       -2.294875   -1.383235   -0.753068
     20          1           0       -1.045135   -1.306670   -2.024852
     21          6           0       -0.614208    0.589144   -0.219132
     22          1           0       -0.314261    0.850896   -1.231993
     23          1           0        0.040645    1.091218    0.487346
     24          6           0       -2.076602    1.123198    0.027727
     25          8           0       -2.942842    0.294301    0.360477
     26          8           0       -2.122784    2.332703   -0.177350
 ---------------------------------------------------------------------
 Rotational constants (GHZ):           1.5704495           0.6476718           0.5221351
 Standard basis: 6-311+G(2d,2p) (5D, 7F)
 There are   454 symmetry adapted cartesian basis functions of A   symmetry.
 There are   432 symmetry adapted basis functions of A   symmetry.
   432 basis functions,   627 primitive gaussians,   454 cartesian basis functions
    44 alpha electrons       43 beta electrons
       nuclear repulsion energy       669.5602994193 Hartrees.
 NAtoms=   26 NActive=   26 NUniq=   26 SFac= 1.00D+00 NAtFMM=   60 NAOKFM=F Big=F
 Integral buffers will be    131072 words long.
 Raffenetti 2 integral format.
 Two-electron integral symmetry is turned on.
 Nuclear repulsion after empirical dispersion term =      669.5393628630 Hartrees.
 One-electron integrals computed using PRISM.
 NBasis=   432 RedAO= T EigKep=  1.19D-05  NBF=   432
 NBsUse=   432 1.00D-06 EigRej= -1.00D+00 NBFU=   432
 Lowest energy guess from the checkpoint file:  "aminopropyl_betaine.chk"
 B after Tr=    -0.000000    0.000000    0.000000
         Rot=    0.999999   -0.001073   -0.000277   -0.000025 Ang=  -0.13 deg.
 B after Tr=    -0.000000   -0.000000   -0.000000
         Rot=    0.999969    0.007639    0.001980   -0.000116 Ang=   0.90 deg.
 Initial guess <Sx>= 0.0000 <Sy>= 0.0000 <Sz>= 0.5000 <S**2>= 0.7543 S= 0.5021
 Requested convergence on RMS density matrix=1.00D-08 within  32 cycles.
 Requested convergence on MAX density matrix=1.00D-06.
 Requested convergence on             energy=1.00D-06.
 No special actions if energy rises.
 SCF Done:  E(UwB97XD) =  -535.629690999     A.U. after    9 cycles
            NFock=  9  Conv=0.58D-08     -V/T= 2.0039
 <Sx>= 0.0000 <Sy>= 0.0000 <Sz>= 0.5000 <S**2>= 0.7543 S= 0.5021
 <L.S>= 0.000000000000E+00
 Annihilation of the first spin contaminant:
 S**2 before annihilation     0.7543,   after     0.7500
 QCSCF skips out because SCF is already converged.
 Calling FoFJK, ICntrl=      2127 FMM=F ISym2X=0 I1Cent= 0 IOpClX= 1 NMat=1 NMatS=1 NMatT=0.
 ***** Axes restored to original set *****
 -------------------------------------------------------------------
 Center     Atomic                   Forces (Hartrees/Bohr)
 Number     Number              X              Y              Z
 -------------------------------------------------------------------
      1        7           0.000288028   -0.000002293   -0.000197280
      2        1          -0.000020050    0.000648247    0.002154282
      3        6           0.002555614    0.000819458   -0.001477741
      4        1          -0.000546513    0.000068843   -0.000146932
      5        1          -0.001404805   -0.000551893   -0.000762152
      6        6          -0.000610863   -0.000709832    0.000005776
      7        1          -0.000193642    0.000026304    0.000092695
      8        1           0.000091471   -0.000089300    0.000221304
      9        6          -0.000198044   -0.000256491    0.000052980
     10        1           0.000033009    0.000054197    0.000098334
     11        1           0.000045574    0.000056224    0.000037041
     12        7           0.000152888   -0.000054109    0.000074326
     13        6           0.000009725    0.000117072   -0.000104815
     14        1          -0.000063904   -0.000025002   -0.000002444
     15        1          -0.000058486    0.000023548    0.000014555
     16        1          -0.000005263    0.000024914    0.000010200
     17        6          -0.000126578   -0.000184819   -0.000162416
     18        1           0.000058003   -0.000006846    0.000011134
     19        1           0.000007332    0.000002307   -0.000063210
     20        1           0.000001890    0.000018026    0.000023533
     21        6           0.000236342    0.000050983    0.000897836
     22        1          -0.000183807    0.000041723    0.000033309
     23        1           0.000199548   -0.000081763    0.000053704
     24        6          -0.000955524   -0.000052738   -0.003805528
     25        8           0.000359426    0.000105480    0.001541925
     26        8           0.000328629   -0.000042238    0.001399582
 -------------------------------------------------------------------
 Cartesian Forces:  Max     0.003805528 RMS     0.000715732

 GradGradGradGradGradGradGradGradGradGradGradGradGradGradGradGradGradGrad
 Berny optimization.
 Using GEDIIS/GDIIS optimizer.
 FormGI is forming the generalized inverse of G from B-inverse, IUseBI=4.
 Internal  Forces:  Max     0.002106864 RMS     0.000415949
 Search for a local minimum.
 Step number   6 out of a maximum of  144
 All quantities printed in internal units (Hartrees-Bohrs-Radians)
 Mixed Optimization -- En-DIIS/RFO-DIIS
 Update second derivatives using D2CorX and points    1    4    3    5    2
                                                      6
 ITU=  0  0 -1 -1  1  0
 Use linear search instead of GDIIS.
     Eigenvalues ---    0.00226   0.00237   0.00293   0.00317   0.00389
     Eigenvalues ---    0.00433   0.00456   0.00943   0.03206   0.03394
     Eigenvalues ---    0.03543   0.04429   0.04665   0.04719   0.04830
     Eigenvalues ---    0.05018   0.05192   0.05313   0.05807   0.06003
     Eigenvalues ---    0.06036   0.06175   0.06187   0.08504   0.08687
     Eigenvalues ---    0.08962   0.09849   0.11495   0.12359   0.12644
     Eigenvalues ---    0.13324   0.14007   0.14329   0.14907   0.15999
     Eigenvalues ---    0.16000   0.16000   0.16000   0.16005   0.16021
     Eigenvalues ---    0.17969   0.21576   0.21949   0.22036   0.23718
     Eigenvalues ---    0.25007   0.25359   0.26116   0.28366   0.29553
     Eigenvalues ---    0.31041   0.31778   0.32910   0.33096   0.34702
     Eigenvalues ---    0.34752   0.34806   0.34873   0.34949   0.35002
     Eigenvalues ---    0.35019   0.35072   0.35076   0.35137   0.35173
     Eigenvalues ---    0.35218   0.35271   0.35338   0.40529   0.46727
     Eigenvalues ---    0.85472   0.91964
 RFO step:  Lambda=-2.08885543D-04 EMin= 2.26197966D-03
 Quartic linear search produced a step of  0.00010.
 Iteration  1 RMS(Cart)=  0.01972114 RMS(Int)=  0.00028942
 Iteration  2 RMS(Cart)=  0.00033297 RMS(Int)=  0.00001355
 Iteration  3 RMS(Cart)=  0.00000005 RMS(Int)=  0.00001355
 Variable       Old X    -DE/DX   Delta X   Delta X   Delta X     New X
                                 (Linear)    (Quad)   (Total)
    R1        1.93027   0.00211   0.00000   0.00613   0.00613   1.93640
    R2        2.70948   0.00147   0.00000   0.00252   0.00252   2.71200
    R3        2.07379   0.00043   0.00000   0.00202   0.00202   2.07581
    R4        2.06321   0.00036   0.00000   0.00111   0.00111   2.06432
    R5        2.90031   0.00134   0.00000   0.00692   0.00692   2.90723
    R6        2.06045   0.00015   0.00000   0.00052   0.00052   2.06097
    R7        2.05920   0.00016   0.00000   0.00074   0.00074   2.05995
    R8        2.89047   0.00014   0.00000   0.00070   0.00070   2.89118
    R9        2.05927  -0.00008  -0.00000  -0.00027  -0.00027   2.05900
   R10        2.05821  -0.00005  -0.00000  -0.00019  -0.00019   2.05801
   R11        2.84440   0.00001  -0.00000  -0.00003  -0.00003   2.84437
   R12        2.82257  -0.00009   0.00000  -0.00038  -0.00038   2.82220
   R13        2.82575   0.00024   0.00000   0.00052   0.00052   2.82626
   R14        2.86288   0.00002   0.00000  -0.00039  -0.00039   2.86249
   R15        2.05419   0.00005  -0.00000   0.00016   0.00016   2.05435
   R16        2.05569  -0.00003   0.00000  -0.00008  -0.00008   2.05562
   R17        2.05134   0.00001   0.00000   0.00002   0.00002   2.05136
   R18        2.05569   0.00001  -0.00000   0.00002   0.00002   2.05571
   R19        2.05317  -0.00002   0.00000   0.00014   0.00014   2.05331
   R20        2.05453  -0.00001  -0.00000  -0.00007  -0.00007   2.05446
   R21        2.05656  -0.00008   0.00000   0.00005   0.00005   2.05661
   R22        2.05279   0.00013   0.00000   0.00017   0.00017   2.05295
   R23        2.97879   0.00011   0.00000  -0.00000  -0.00000   2.97879
   R24        2.35130  -0.00002   0.00000   0.00001   0.00001   2.35130
   R25        2.31990  -0.00017  -0.00000  -0.00013  -0.00013   2.31976
    A1        1.86983   0.00148   0.00000   0.00543   0.00543   1.87526
    A2        1.89972   0.00034   0.00000   0.00190   0.00188   1.90160
    A3        1.88654   0.00140   0.00000   0.01714   0.01714   1.90368
    A4        1.97031  -0.00066  -0.00000  -0.00207  -0.00208   1.96823
    A5        1.87434  -0.00012  -0.00000  -0.00478  -0.00485   1.86949
    A6        1.91874  -0.00021  -0.00000  -0.00687  -0.00689   1.91184
    A7        1.91151  -0.00070  -0.00000  -0.00508  -0.00511   1.90639
    A8        1.91792  -0.00007   0.00000  -0.00061  -0.00061   1.91731
    A9        1.88437  -0.00006   0.00000   0.00072   0.00072   1.88509
   A10        1.98174   0.00034   0.00000   0.00272   0.00272   1.98446
   A11        1.84882   0.00002  -0.00000  -0.00112  -0.00112   1.84770
   A12        1.94487  -0.00015  -0.00000  -0.00136  -0.00137   1.94351
   A13        1.87984  -0.00010  -0.00000  -0.00055  -0.00055   1.87929
   A14        1.92160  -0.00009  -0.00000  -0.00086  -0.00086   1.92075
   A15        1.93058  -0.00007  -0.00000  -0.00051  -0.00051   1.93007
   A16        2.03651   0.00015   0.00000   0.00039   0.00039   2.03690
   A17        1.87558   0.00005   0.00000   0.00064   0.00064   1.87622
   A18        1.85178  -0.00002   0.00000  -0.00024  -0.00024   1.85155
   A19        1.83934  -0.00002   0.00000   0.00068   0.00068   1.84002
   A20        1.92919   0.00012  -0.00000   0.00098   0.00098   1.93017
   A21        1.87712  -0.00009  -0.00000   0.00116   0.00116   1.87828
   A22        1.93961  -0.00002  -0.00000   0.00024   0.00024   1.93986
   A23        1.89347  -0.00000   0.00000  -0.00042  -0.00042   1.89305
   A24        1.91820  -0.00014   0.00000  -0.00162  -0.00162   1.91657
   A25        1.90509   0.00015   0.00000  -0.00030  -0.00031   1.90479
   A26        1.86326  -0.00000  -0.00000  -0.00003  -0.00003   1.86323
   A27        1.89519   0.00004  -0.00000   0.00035   0.00035   1.89554
   A28        1.90646  -0.00000  -0.00000  -0.00008  -0.00008   1.90638
   A29        1.95450  -0.00005   0.00000  -0.00028  -0.00028   1.95423
   A30        1.92129   0.00000  -0.00000  -0.00038  -0.00038   1.92091
   A31        1.92159   0.00000   0.00000   0.00042   0.00042   1.92201
   A32        1.89632  -0.00007  -0.00000  -0.00015  -0.00015   1.89616
   A33        1.87078   0.00009   0.00000   0.00036   0.00036   1.87114
   A34        1.89117  -0.00004  -0.00000  -0.00038  -0.00038   1.89079
   A35        1.95519   0.00002  -0.00000   0.00025   0.00025   1.95544
   A36        1.92191   0.00003  -0.00000   0.00021   0.00021   1.92212
   A37        1.92646  -0.00003   0.00000  -0.00031  -0.00031   1.92615
   A38        1.86161   0.00004  -0.00000   0.00086   0.00086   1.86248
   A39        1.87051  -0.00015  -0.00000  -0.00057  -0.00057   1.86994
   A40        2.05060   0.00013   0.00000  -0.00196  -0.00196   2.04864
   A41        1.90495   0.00004  -0.00000   0.00097   0.00097   1.90592
   A42        1.89648  -0.00010  -0.00000   0.00161   0.00161   1.89809
   A43        1.87636   0.00004  -0.00000  -0.00074  -0.00075   1.87561
   A44        2.05111  -0.00001   0.00000  -0.00081  -0.00088   2.05023
   A45        1.92041  -0.00001  -0.00000   0.00050   0.00043   1.92084
   A46        2.31152   0.00006  -0.00000   0.00065   0.00058   2.31210
    D1        1.13815  -0.00031   0.00000   0.01320   0.01318   1.15133
    D2       -3.11444   0.00048   0.00000   0.01786   0.01786  -3.09658
    D3       -0.99737   0.00015   0.00000   0.02200   0.02202  -0.97535
    D4        1.01494  -0.00027   0.00000   0.02547   0.02548   1.04042
    D5       -0.99387  -0.00023   0.00000   0.02672   0.02673  -0.96714
    D6       -3.07685  -0.00027   0.00000   0.02523   0.02524  -3.05161
    D7       -1.10989  -0.00010   0.00000   0.02941   0.02942  -1.08047
    D8       -3.11870  -0.00006   0.00000   0.03066   0.03067  -3.08803
    D9        1.08151  -0.00010   0.00000   0.02917   0.02918   1.11069
   D10        3.11780   0.00058   0.00000   0.04232   0.04230  -3.12308
   D11        1.10900   0.00062   0.00000   0.04357   0.04355   1.15255
   D12       -0.97399   0.00058   0.00000   0.04208   0.04207  -0.93192
   D13        0.36668   0.00001  -0.00000   0.00170   0.00170   0.36839
   D14        2.43707  -0.00002  -0.00000   0.00164   0.00164   2.43871
   D15       -1.74442   0.00001  -0.00000   0.00242   0.00242  -1.74199
   D16        2.54364   0.00006  -0.00000   0.00192   0.00192   2.54555
   D17       -1.66917   0.00003  -0.00000   0.00185   0.00185  -1.66731
   D18        0.43254   0.00005  -0.00000   0.00264   0.00264   0.43517
   D19       -1.71889  -0.00005  -0.00000  -0.00049  -0.00049  -1.71938
   D20        0.35150  -0.00009  -0.00000  -0.00056  -0.00056   0.35094
   D21        2.45320  -0.00006  -0.00000   0.00023   0.00023   2.45342
   D22       -1.17812   0.00002  -0.00000   0.00183   0.00183  -1.17629
   D23        3.04087   0.00002  -0.00000   0.00109   0.00109   3.04197
   D24        0.95664  -0.00009  -0.00000   0.00060   0.00060   0.95724
   D25        2.95744   0.00006  -0.00000   0.00287   0.00287   2.96031
   D26        0.89325   0.00005  -0.00000   0.00213   0.00213   0.89538
   D27       -1.19099  -0.00005  -0.00000   0.00164   0.00164  -1.18934
   D28        0.97144   0.00002  -0.00000   0.00196   0.00196   0.97340
   D29       -1.09275   0.00002  -0.00000   0.00122   0.00122  -1.09153
   D30        3.10620  -0.00009  -0.00000   0.00073   0.00073   3.10693
   D31       -3.11621   0.00002   0.00000  -0.00139  -0.00139  -3.11760
   D32       -1.00589  -0.00001   0.00000  -0.00154  -0.00154  -1.00744
   D33        1.09000   0.00002   0.00000  -0.00087  -0.00087   1.08913
   D34       -1.06203  -0.00003   0.00000   0.00033   0.00033  -1.06170
   D35        1.04829  -0.00006   0.00000   0.00017   0.00017   1.04847
   D36       -3.13900  -0.00003   0.00000   0.00084   0.00084  -3.13815
   D37        1.01972   0.00006   0.00000  -0.00125  -0.00125   1.01847
   D38        3.13004   0.00003   0.00000  -0.00140  -0.00140   3.12864
   D39       -1.05725   0.00006   0.00000  -0.00073  -0.00073  -1.05798
   D40        1.01066   0.00000  -0.00000   0.00021   0.00021   1.01087
   D41        3.12676   0.00004  -0.00000   0.00063   0.00063   3.12740
   D42       -1.07736   0.00003  -0.00000   0.00026   0.00026  -1.07710
   D43       -1.07644  -0.00008   0.00000  -0.00138  -0.00138  -1.07782
   D44        1.03966  -0.00005   0.00000  -0.00095  -0.00095   1.03871
   D45        3.11873  -0.00005   0.00000  -0.00133  -0.00133   3.11740
   D46        3.11679   0.00001  -0.00000   0.00101   0.00101   3.11780
   D47       -1.05029   0.00004  -0.00000   0.00144   0.00144  -1.04886
   D48        1.02877   0.00004  -0.00000   0.00106   0.00106   1.02983
   D49        0.95467   0.00006  -0.00000   0.02051   0.02051   0.97518
   D50       -1.08380   0.00007  -0.00000   0.01924   0.01924  -1.06456
   D51        3.08672   0.00005  -0.00000   0.02198   0.02198   3.10870
   D52        3.09578   0.00010  -0.00000   0.02079   0.02079   3.11657
   D53        1.05732   0.00011  -0.00000   0.01952   0.01952   1.07683
   D54       -1.05536   0.00009  -0.00000   0.02226   0.02226  -1.03309
   D55       -1.11278   0.00010  -0.00000   0.01913   0.01913  -1.09365
   D56        3.13193   0.00011  -0.00000   0.01786   0.01786  -3.13339
   D57        1.01926   0.00009  -0.00000   0.02060   0.02060   1.03986
   D58        0.02642   0.00105  -0.00000   0.03116   0.03116   0.05758
   D59       -3.09962  -0.00109   0.00000   0.01159   0.01160  -3.08803
   D60        2.14044   0.00112  -0.00000   0.03223   0.03222   2.17266
   D61       -0.98560  -0.00102   0.00000   0.01266   0.01266  -0.97294
   D62       -2.08321   0.00114  -0.00000   0.03383   0.03383  -2.04938
   D63        1.07393  -0.00101   0.00000   0.01426   0.01426   1.08819
         Item               Value     Threshold  Converged?
 Maximum Force            0.002107     0.000450     NO 
 RMS     Force            0.000416     0.000300     NO 
 Maximum Displacement     0.117624     0.001800     NO 
 RMS     Displacement     0.019726     0.001200     NO 
 Predicted change in Energy=-1.064326D-04
 GradGradGradGradGradGradGradGradGradGradGradGradGradGradGradGradGradGrad

                          Input orientation:                          
 ---------------------------------------------------------------------
 Center     Atomic      Atomic             Coordinates (Angstroms)
 Number     Number       Type             X           Y           Z
 ---------------------------------------------------------------------
      1          7           0        2.423178    0.994665    0.403200
      2          1           0        2.081001    1.251176    1.334396
      3          6           0        1.304179    0.495315   -0.343856
      4          1           0        0.589332    1.313558   -0.505433
      5          1           0        1.648615    0.170281   -1.328253
      6          6           0        0.595297   -0.676343    0.357220
      7          1           0        0.230438   -0.357334    1.334236
      8          1           0        1.337540   -1.449959    0.554343
      9          6           0       -0.522282   -1.306430   -0.476290
     10          1           0       -0.378280   -1.073755   -1.530945
     11          1           0       -0.510277   -2.390748   -0.375549
     12          7           0       -1.930160   -0.889200   -0.145618
     13          6           0       -2.322362   -1.389037    1.205942
     14          1           0       -3.350463   -1.075961    1.369678
     15          1           0       -2.219764   -2.471897    1.218761
     16          1           0       -1.673874   -0.943574    1.953881
     17          6           0       -2.836338   -1.509066   -1.161202
     18          1           0       -2.704136   -2.588454   -1.132440
     19          1           0       -3.851433   -1.215740   -0.907882
     20          1           0       -2.565043   -1.124883   -2.141379
     21          6           0       -2.080610    0.617112   -0.199497
     22          1           0       -1.758931    0.928473   -1.191466
     23          1           0       -1.404646    1.033110    0.542279
     24          6           0       -3.513159    1.212946    0.078948
     25          8           0       -4.416674    0.414969    0.387273
     26          8           0       -3.495757    2.432684   -0.058367
 ---------------------------------------------------------------------
                    Distance matrix (angstroms):
                    1          2          3          4          5
     1  N    0.000000
     2  H    1.024700   0.000000
     3  C    1.435131   1.997826   0.000000
     4  H    2.071304   2.369376   1.098470   0.000000
     5  H    2.068208   2.906026   1.092392   1.762440   0.000000
     6  C    2.477000   2.622503   1.538442   2.168850   2.160340
     7  H    2.739130   2.451915   2.167008   2.510989   3.062426
     8  H    2.679112   2.908152   2.142887   3.052862   2.503220
     9  C    3.839827   4.073943   2.569004   2.846203   2.760310
    10  H    3.983396   4.434360   2.588789   2.772582   2.386842
    11  H    4.546716   4.785629   3.409196   3.866250   3.482431
    12  N    4.775113   4.781325   3.523795   3.365925   3.915196
    13  C    5.370901   5.135838   4.370864   4.325596   4.962084
    14  H    6.209388   5.909113   5.202961   4.974718   5.815731
    15  H    5.851419   5.689572   4.864596   5.019316   5.332236
    16  H    4.790326   4.393152   4.027257   4.032986   4.801251
    17  C    6.031461   6.166617   4.672202   4.486920   4.791964
    18  H    6.440984   6.612532   5.118407   5.144489   5.157073
    19  H    6.780528   6.804944   5.461334   5.126373   5.687556
    20  H    5.987463   6.269960   4.563662   4.309570   4.482582
    21  C    4.559594   4.480388   3.390055   2.776188   3.921845
    22  H    4.476313   4.607515   3.207602   2.476544   3.493556
    23  H    3.830543   3.581165   2.900379   2.269868   3.683174
    24  C    5.949192   5.733432   4.888814   4.145124   5.450805
    25  O    6.864392   6.619371   5.767943   5.163766   6.307982
    26  O    6.108579   5.868219   5.184043   4.259139   5.761566
                    6          7          8          9         10
     6  C    0.000000
     7  H    1.090619   0.000000
     8  H    1.090076   1.740040   0.000000
     9  C    1.529944   2.178388   2.131136   0.000000
    10  H    2.161239   3.015471   2.726536   1.089575   0.000000
    11  H    2.167586   2.758043   2.272490   1.089054   1.756939
    12  N    2.583813   2.672272   3.388549   1.505173   2.088427
    13  C    3.121057   2.756385   3.717953   2.465160   3.371855
    14  H    4.093139   3.652470   4.773051   3.385162   4.153010
    15  H    3.448309   3.238550   3.760348   2.667013   3.592596
    16  H    2.787450   2.086635   3.359129   2.713588   3.720152
    17  C    3.843845   4.118108   4.513075   2.421781   2.523540
    18  H    4.094083   4.435551   4.525103   2.614308   2.804056
    19  H    4.654550   4.735570   5.396147   3.358235   3.531452
    20  H    4.053632   4.525898   4.754235   2.641658   2.270941
    21  C    3.023811   2.939868   4.065072   2.490987   2.744032
    22  H    3.242876   3.462667   4.277022   2.652464   2.455678
    23  H    2.637470   2.287801   3.699374   2.699907   3.128988
    24  C    4.530591   4.249241   5.553949   3.949796   4.200979
    25  O    5.129494   4.805085   6.051186   4.344565   4.712163
    26  O    5.155142   4.858815   6.229856   4.795539   4.917547
                   11         12         13         14         15
    11  H    0.000000
    12  N    2.079323   0.000000
    13  C    2.605416   1.493443   0.000000
    14  H    3.583453   2.085248   1.087114   0.000000
    15  H    2.338965   2.109580   1.087786   1.802746   0.000000
    16  H    2.979013   2.115782   1.085535   1.780384   1.781619
    17  C    2.608673   1.495594   2.425273   2.618636   2.640347
    18  H    2.329161   2.111947   2.655632   2.994322   2.403403
    19  H    3.581528   2.092597   2.614639   2.336191   2.960217
    20  H    2.990423   2.107531   3.366486   3.598166   3.636510
    21  C    3.397670   1.514765   2.461368   2.634641   3.401881
    22  H    3.638968   2.104056   3.381696   3.620799   4.193337
    23  H    3.655833   2.108232   2.673845   2.986465   3.661573
    24  C    4.712800   2.641086   3.075456   2.632784   4.068183
    25  O    4.869691   2.857898   2.882845   2.079615   3.721798
    26  O    5.681479   3.673367   4.192957   3.790913   5.226293
                   16         17         18         19         20
    16  H    0.000000
    17  C    3.372661   0.000000
    18  H    3.645881   1.087834   0.000000
    19  H    3.606317   1.086567   1.803069   0.000000
    20  H    4.195022   1.087173   1.783072   1.784536   0.000000
    21  C    2.690393   2.452882   3.396295   2.645178   2.653324
    22  H    3.661285   2.665204   3.642207   3.009424   2.401754
    23  H    2.443847   3.378498   4.196318   3.625887   3.633934
    24  C    3.398371   3.066824   4.070948   2.643251   3.360688
    25  O    3.438437   2.932089   3.776620   2.157808   3.491957
    26  O    4.332150   4.145898   5.195395   3.762868   4.226282
                   21         22         23         24         25
    21  C    0.000000
    22  H    1.088314   0.000000
    23  H    1.086376   1.772665   0.000000
    24  C    1.576308   2.184535   2.166297   0.000000
    25  O    2.417096   3.133640   3.078707   1.244255   0.000000
    26  O    2.306266   2.561861   2.586954   1.227566   2.262268
                   26
    26  O    0.000000
 Stoichiometry    C7H15N2O2(2)
 Framework group  C1[X(C7H15N2O2)]
 Deg. of freedom    72
 Full point group                 C1      NOp   1
 Largest Abelian subgroup         C1      NOp   1
 Largest concise Abelian subgroup C1      NOp   1
                         Standard orientation:                         
 ---------------------------------------------------------------------
 Center     Atomic      Atomic             Coordinates (Angstroms)
 Number     Number       Type             X           Y           Z
 ---------------------------------------------------------------------
      1          7           0        3.866474    1.259647    0.238308
      2          1           0        3.526111    1.566357    1.154872
      3          6           0        2.765268    0.643725   -0.445496
      4          1           0        2.002199    1.406337   -0.652343
      5          1           0        3.110895    0.264900   -1.410044
      6          6           0        2.136514   -0.509238    0.355844
      7          1           0        1.770720   -0.138106    1.313918
      8          1           0        2.924987   -1.223208    0.594223
      9          6           0        1.042722   -1.261775   -0.404443
     10          1           0        1.155216   -1.101826   -1.476326
     11          1           0        1.118362   -2.333021   -0.223475
     12          7           0       -0.380856   -0.899789   -0.075902
     13          6           0       -0.720791   -1.317098    1.317177
     14          1           0       -1.762160   -1.050278    1.478965
     15          1           0       -0.556300   -2.388494    1.408452
     16          1           0       -0.086167   -0.780959    2.015885
     17          6           0       -1.267308   -1.644140   -1.022975
     18          1           0       -1.073192   -2.709226   -0.916693
     19          1           0       -2.293039   -1.389486   -0.770677
     20          1           0       -1.035133   -1.320636   -2.034599
     21          6           0       -0.618002    0.587420   -0.238644
     22          1           0       -0.331573    0.840338   -1.257672
     23          1           0        0.045628    1.095289    0.455530
     24          6           0       -2.077298    1.121900    0.025044
     25          8           0       -2.928372    0.300442    0.411115
     26          8           0       -2.131942    2.326841   -0.203103
 ---------------------------------------------------------------------
 Rotational constants (GHZ):           1.5706970           0.6459823           0.5220310
 Standard basis: 6-311+G(2d,2p) (5D, 7F)
 There are   454 symmetry adapted cartesian basis functions of A   symmetry.
 There are   432 symmetry adapted basis functions of A   symmetry.
   432 basis functions,   627 primitive gaussians,   454 cartesian basis functions
    44 alpha electrons       43 beta electrons
       nuclear repulsion energy       669.4343833317 Hartrees.
 NAtoms=   26 NActive=   26 NUniq=   26 SFac= 1.00D+00 NAtFMM=   60 NAOKFM=F Big=F
 Integral buffers will be    131072 words long.
 Raffenetti 2 integral format.
 Two-electron integral symmetry is turned on.
 Nuclear repulsion after empirical dispersion term =      669.4134672154 Hartrees.
 One-electron integrals computed using PRISM.
 NBasis=   432 RedAO= T EigKep=  1.19D-05  NBF=   432
 NBsUse=   432 1.00D-06 EigRej= -1.00D+00 NBFU=   432
 Initial guess from the checkpoint file:  "aminopropyl_betaine.chk"
 B after Tr=     0.000000    0.000000   -0.000000
         Rot=    0.999999    0.001100    0.000144    0.000307 Ang=   0.13 deg.
 Initial guess <Sx>= 0.0000 <Sy>= 0.0000 <Sz>= 0.5000 <S**2>= 0.7543 S= 0.5021
 ExpMin= 4.38D-02 ExpMax= 8.59D+03 ExpMxC= 1.30D+03 IAcc=2 IRadAn=         4 AccDes= 0.00D+00
 Harris functional with IExCor= 4639 and IRadAn=       4 diagonalized for initial guess.
 HarFok:  IExCor= 4639 AccDes= 0.00D+00 IRadAn=         4 IDoV= 1 UseB2=F ITyADJ=14
 ICtDFT=  3500011 ScaDFX=  1.000000  1.000000  1.000000  1.000000
 FoFCou: FMM=F IPFlag=           0 FMFlag=      100000 FMFlg1=           0
         NFxFlg=           0 DoJE=T BraDBF=F KetDBF=T FulRan=T
         wScrn=  0.000000 ICntrl=       500 IOpCl=  0 I1Cent=   200000004 NGrid=           0
         NMat0=    1 NMatS0=      1 NMatT0=    0 NMatD0=    1 NMtDS0=    0 NMtDT0=    0
 Petite list used in FoFCou.
 Requested convergence on RMS density matrix=1.00D-08 within  32 cycles.
 Requested convergence on MAX density matrix=1.00D-06.
 Requested convergence on             energy=1.00D-06.
 No special actions if energy rises.
 SCF Done:  E(UwB97XD) =  -535.629707381     A.U. after   14 cycles
            NFock= 14  Conv=0.85D-08     -V/T= 2.0039
 <Sx>= 0.0000 <Sy>= 0.0000 <Sz>= 0.5000 <S**2>= 0.7543 S= 0.5021
 <L.S>= 0.000000000000E+00
 Annihilation of the first spin contaminant:
 S**2 before annihilation     0.7543,   after     0.7500
 QCSCF skips out because SCF is already converged.
 Calling FoFJK, ICntrl=      2127 FMM=F ISym2X=0 I1Cent= 0 IOpClX= 1 NMat=1 NMatS=1 NMatT=0.
 ***** Axes restored to original set *****
 -------------------------------------------------------------------
 Center     Atomic                   Forces (Hartrees/Bohr)
 Number     Number              X              Y              Z
 -------------------------------------------------------------------
      1        7          -0.000622758   -0.000005290   -0.000129538
      2        1           0.000186279   -0.000268349   -0.000692244
      3        6          -0.000198738   -0.000108013    0.000610064
      4        1           0.000228428    0.000014738   -0.000015584
      5        1           0.000407841    0.000243311    0.000220647
      6        6          -0.000117069   -0.000061310    0.000006603
      7        1          -0.000015572    0.000022785   -0.000057137
      8        1           0.000028899    0.000075242   -0.000076592
      9        6          -0.000062053    0.000103905   -0.000052293
     10        1           0.000013289    0.000006133   -0.000088822
     11        1          -0.000010670    0.000005319    0.000054618
     12        7          -0.000063491    0.000041942    0.000233132
     13        6           0.000412896   -0.001000951    0.000623305
     14        1           0.000174401    0.000133622   -0.000007073
     15        1           0.000316447   -0.000092344   -0.000077382
     16        1           0.000034696    0.000004134   -0.000021077
     17        6           0.000089320    0.000688682    0.000253907
     18        1          -0.000239669    0.000068943    0.000033960
     19        1          -0.000065897   -0.000195357    0.000121878
     20        1          -0.000004858   -0.000057959   -0.000047369
     21        6           0.000022994   -0.000055882    0.000167773
     22        1           0.000086813    0.000063604    0.000116715
     23        1          -0.000057516   -0.000059281    0.000022464
     24        6          -0.000130752    0.000250853   -0.001284976
     25        8          -0.000410013    0.000281589   -0.000369045
     26        8          -0.000003247   -0.000100064    0.000454065
 -------------------------------------------------------------------
 Cartesian Forces:  Max     0.001284976 RMS     0.000292147

 GradGradGradGradGradGradGradGradGradGradGradGradGradGradGradGradGradGrad
 Berny optimization.
 Using GEDIIS/GDIIS optimizer.
 FormGI is forming the generalized inverse of G from B-inverse, IUseBI=4.
 Internal  Forces:  Max     0.001360500 RMS     0.000326138
 Search for a local minimum.
 Step number   7 out of a maximum of  144
 All quantities printed in internal units (Hartrees-Bohrs-Radians)
 Mixed Optimization -- En-DIIS/RFO-DIIS
 Swapping is turned off.
 Update second derivatives using D2CorX and points    1    4    3    5    2
                                                      6    7
 DE= -1.64D-05 DEPred=-1.06D-04 R= 1.54D-01
 Trust test= 1.54D-01 RLast= 1.38D-01 DXMaxT set to 1.26D-01
 ITU=  0  0  0 -1 -1  1  0
     Eigenvalues ---    0.00204   0.00242   0.00293   0.00389   0.00433
     Eigenvalues ---    0.00455   0.00858   0.01052   0.03205   0.03380
     Eigenvalues ---    0.03699   0.04400   0.04718   0.04804   0.04833
     Eigenvalues ---    0.05046   0.05230   0.05495   0.05644   0.06013
     Eigenvalues ---    0.06068   0.06184   0.06220   0.08532   0.08830
     Eigenvalues ---    0.08963   0.09830   0.11123   0.12378   0.12648
     Eigenvalues ---    0.13581   0.13971   0.14350   0.15699   0.15997
     Eigenvalues ---    0.16000   0.16000   0.16000   0.16005   0.16312
     Eigenvalues ---    0.17920   0.21603   0.22027   0.22274   0.23960
     Eigenvalues ---    0.25004   0.25411   0.26760   0.27701   0.29575
     Eigenvalues ---    0.31290   0.31790   0.32935   0.33448   0.34574
     Eigenvalues ---    0.34744   0.34809   0.34871   0.34949   0.35002
     Eigenvalues ---    0.35023   0.35073   0.35094   0.35137   0.35194
     Eigenvalues ---    0.35219   0.35277   0.35339   0.39812   0.46209
     Eigenvalues ---    0.85468   0.91984
 En-DIIS/RFO-DIIS/Sim-DIIS IScMMF=       -3 using points:     7    6
 RFO step:  Lambda=-2.22954829D-04.
 DidBck=F Rises=F RFO-DIIS coefs:    0.93267    0.06733
 Iteration  1 RMS(Cart)=  0.02606073 RMS(Int)=  0.00038785
 Iteration  2 RMS(Cart)=  0.00051505 RMS(Int)=  0.00000206
 Iteration  3 RMS(Cart)=  0.00000017 RMS(Int)=  0.00000205
 Variable       Old X    -DE/DX   Delta X   Delta X   Delta X     New X
                                 (Linear)    (Quad)   (Total)
    R1        1.93640  -0.00076  -0.00041   0.00384   0.00343   1.93983
    R2        2.71200  -0.00086  -0.00017  -0.00213  -0.00230   2.70970
    R3        2.07581  -0.00014  -0.00014   0.00169   0.00155   2.07736
    R4        2.06432  -0.00014  -0.00007   0.00032   0.00024   2.06456
    R5        2.90723  -0.00009  -0.00047   0.00585   0.00539   2.91262
    R6        2.06097  -0.00004  -0.00003   0.00027   0.00023   2.06120
    R7        2.05995  -0.00005  -0.00005   0.00063   0.00058   2.06052
    R8        2.89118  -0.00018  -0.00005   0.00039   0.00035   2.89152
    R9        2.05900   0.00009   0.00002  -0.00009  -0.00007   2.05893
   R10        2.05801  -0.00000   0.00001  -0.00015  -0.00014   2.05788
   R11        2.84437  -0.00011   0.00000  -0.00015  -0.00015   2.84421
   R12        2.82220   0.00054   0.00003  -0.00004  -0.00002   2.82218
   R13        2.82626  -0.00032  -0.00003  -0.00012  -0.00015   2.82611
   R14        2.86249   0.00046   0.00003  -0.00044  -0.00041   2.86208
   R15        2.05435  -0.00013  -0.00001   0.00009   0.00008   2.05443
   R16        2.05562   0.00012   0.00001   0.00002   0.00003   2.05564
   R17        2.05136   0.00001  -0.00000  -0.00000  -0.00000   2.05136
   R18        2.05571  -0.00010  -0.00000  -0.00004  -0.00004   2.05567
   R19        2.05331   0.00004  -0.00001   0.00021   0.00020   2.05351
   R20        2.05446   0.00002   0.00000  -0.00007  -0.00006   2.05440
   R21        2.05661  -0.00006  -0.00000  -0.00001  -0.00002   2.05660
   R22        2.05295  -0.00004  -0.00001   0.00012   0.00011   2.05306
   R23        2.97879   0.00045   0.00000  -0.00017  -0.00017   2.97862
   R24        2.35130   0.00003  -0.00000  -0.00001  -0.00001   2.35129
   R25        2.31976  -0.00015   0.00001  -0.00011  -0.00010   2.31967
    A1        1.87526  -0.00016  -0.00037  -0.00325  -0.00361   1.87165
    A2        1.90160  -0.00014  -0.00013   0.00204   0.00191   1.90351
    A3        1.90368  -0.00051  -0.00115   0.00696   0.00580   1.90948
    A4        1.96823   0.00030   0.00014  -0.00064  -0.00050   1.96773
    A5        1.86949  -0.00002   0.00033  -0.00278  -0.00246   1.86703
    A6        1.91184   0.00008   0.00046  -0.00347  -0.00301   1.90883
    A7        1.90639   0.00027   0.00034  -0.00218  -0.00184   1.90456
    A8        1.91731   0.00003   0.00004  -0.00092  -0.00088   1.91643
    A9        1.88509  -0.00007  -0.00005   0.00047   0.00042   1.88552
   A10        1.98446  -0.00002  -0.00018   0.00220   0.00202   1.98648
   A11        1.84770   0.00003   0.00008  -0.00055  -0.00048   1.84723
   A12        1.94351   0.00000   0.00009  -0.00090  -0.00081   1.94270
   A13        1.87929   0.00004   0.00004  -0.00044  -0.00040   1.87889
   A14        1.92075  -0.00006   0.00006  -0.00041  -0.00035   1.92039
   A15        1.93007  -0.00002   0.00003  -0.00049  -0.00046   1.92962
   A16        2.03690   0.00015  -0.00003   0.00030   0.00028   2.03717
   A17        1.87622   0.00003  -0.00004   0.00047   0.00042   1.87665
   A18        1.85155  -0.00002   0.00002  -0.00040  -0.00038   1.85116
   A19        1.84002  -0.00008  -0.00005   0.00060   0.00056   1.84057
   A20        1.93017  -0.00062  -0.00007   0.00043   0.00037   1.93053
   A21        1.87828   0.00043  -0.00008   0.00160   0.00152   1.87980
   A22        1.93986  -0.00013  -0.00002   0.00039   0.00038   1.94023
   A23        1.89305   0.00003   0.00003  -0.00052  -0.00050   1.89255
   A24        1.91657   0.00086   0.00011   0.00029   0.00040   1.91697
   A25        1.90479  -0.00057   0.00002  -0.00224  -0.00222   1.90257
   A26        1.86323  -0.00001   0.00000   0.00007   0.00007   1.86330
   A27        1.89554  -0.00022  -0.00002   0.00008   0.00005   1.89559
   A28        1.90638  -0.00005   0.00001  -0.00032  -0.00031   1.90607
   A29        1.95423   0.00024   0.00002   0.00046   0.00048   1.95471
   A30        1.92091   0.00001   0.00003  -0.00055  -0.00053   1.92039
   A31        1.92201   0.00003  -0.00003   0.00024   0.00021   1.92222
   A32        1.89616   0.00015   0.00001   0.00022   0.00024   1.89640
   A33        1.87114  -0.00002  -0.00002  -0.00017  -0.00019   1.87094
   A34        1.89079   0.00011   0.00003  -0.00001   0.00002   1.89081
   A35        1.95544  -0.00020  -0.00002  -0.00029  -0.00031   1.95513
   A36        1.92212  -0.00005  -0.00001   0.00041   0.00039   1.92252
   A37        1.92615   0.00004   0.00002  -0.00016  -0.00014   1.92601
   A38        1.86248  -0.00008  -0.00006   0.00063   0.00057   1.86305
   A39        1.86994  -0.00067   0.00004   0.00005   0.00009   1.87003
   A40        2.04864   0.00136   0.00013  -0.00244  -0.00231   2.04633
   A41        1.90592   0.00013  -0.00007   0.00086   0.00080   1.90672
   A42        1.89809  -0.00099  -0.00011  -0.00062  -0.00073   1.89736
   A43        1.87561   0.00020   0.00005   0.00170   0.00175   1.87736
   A44        2.05023   0.00063   0.00006  -0.00106  -0.00101   2.04922
   A45        1.92084  -0.00020  -0.00003   0.00040   0.00036   1.92120
   A46        2.31210  -0.00043  -0.00004   0.00061   0.00056   2.31266
    D1        1.15133   0.00023  -0.00089   0.01399   0.01310   1.16444
    D2       -3.09658  -0.00015  -0.00120   0.01569   0.01449  -3.08210
    D3       -0.97535   0.00003  -0.00148   0.01740   0.01592  -0.95944
    D4        1.04042   0.00012  -0.00172   0.02654   0.02482   1.06524
    D5       -0.96714   0.00011  -0.00180   0.02742   0.02562  -0.94152
    D6       -3.05161   0.00012  -0.00170   0.02627   0.02457  -3.02703
    D7       -1.08047   0.00004  -0.00198   0.02683   0.02485  -1.05561
    D8       -3.08803   0.00003  -0.00206   0.02771   0.02565  -3.06237
    D9        1.11069   0.00005  -0.00196   0.02657   0.02461   1.13530
   D10       -3.12308  -0.00014  -0.00285   0.03343   0.03058  -3.09250
   D11        1.15255  -0.00015  -0.00293   0.03431   0.03138   1.18393
   D12       -0.93192  -0.00013  -0.00283   0.03317   0.03033  -0.90159
   D13        0.36839  -0.00003  -0.00011   0.00229   0.00217   0.37056
   D14        2.43871  -0.00004  -0.00011   0.00230   0.00219   2.44090
   D15       -1.74199  -0.00006  -0.00016   0.00293   0.00277  -1.73922
   D16        2.54555  -0.00001  -0.00013   0.00204   0.00191   2.54747
   D17       -1.66731  -0.00002  -0.00012   0.00206   0.00193  -1.66538
   D18        0.43517  -0.00004  -0.00018   0.00269   0.00251   0.43768
   D19       -1.71938   0.00005   0.00003   0.00064   0.00067  -1.71871
   D20        0.35094   0.00003   0.00004   0.00065   0.00069   0.35163
   D21        2.45342   0.00002  -0.00002   0.00128   0.00127   2.45469
   D22       -1.17629  -0.00024  -0.00012  -0.00042  -0.00054  -1.17683
   D23        3.04197  -0.00018  -0.00007  -0.00098  -0.00105   3.04091
   D24        0.95724   0.00033  -0.00004   0.00053   0.00049   0.95772
   D25        2.96031  -0.00024  -0.00019   0.00023   0.00004   2.96035
   D26        0.89538  -0.00018  -0.00014  -0.00033  -0.00047   0.89491
   D27       -1.18934   0.00033  -0.00011   0.00118   0.00106  -1.18828
   D28        0.97340  -0.00024  -0.00013  -0.00039  -0.00052   0.97288
   D29       -1.09153  -0.00017  -0.00008  -0.00095  -0.00103  -1.09256
   D30        3.10693   0.00033  -0.00005   0.00056   0.00051   3.10744
   D31       -3.11760  -0.00010   0.00009  -0.00132  -0.00123  -3.11883
   D32       -1.00744   0.00005   0.00010  -0.00069  -0.00058  -1.00802
   D33        1.08913  -0.00008   0.00006  -0.00054  -0.00048   1.08865
   D34       -1.06170   0.00007  -0.00002   0.00055   0.00053  -1.06118
   D35        1.04847   0.00023  -0.00001   0.00118   0.00117   1.04964
   D36       -3.13815   0.00010  -0.00006   0.00133   0.00128  -3.13688
   D37        1.01847  -0.00010   0.00008  -0.00231  -0.00223   1.01624
   D38        3.12864   0.00006   0.00009  -0.00168  -0.00158   3.12706
   D39       -1.05798  -0.00008   0.00005  -0.00153  -0.00148  -1.05946
   D40        1.01087  -0.00000  -0.00001   0.00132   0.00131   1.01217
   D41        3.12740  -0.00017  -0.00004   0.00100   0.00096   3.12835
   D42       -1.07710  -0.00008  -0.00002   0.00071   0.00069  -1.07641
   D43       -1.07782   0.00049   0.00009   0.00019   0.00029  -1.07753
   D44        1.03871   0.00032   0.00006  -0.00013  -0.00006   1.03865
   D45        3.11740   0.00041   0.00009  -0.00042  -0.00033   3.11708
   D46        3.11780  -0.00024  -0.00007   0.00145   0.00138   3.11918
   D47       -1.04886  -0.00041  -0.00010   0.00113   0.00103  -1.04782
   D48        1.02983  -0.00031  -0.00007   0.00084   0.00077   1.03060
   D49        0.97518  -0.00033  -0.00138  -0.03994  -0.04132   0.93386
   D50       -1.06456  -0.00011  -0.00130  -0.04128  -0.04258  -1.10713
   D51        3.10870  -0.00076  -0.00148  -0.04191  -0.04339   3.06531
   D52        3.11657  -0.00061  -0.00140  -0.03893  -0.04033   3.07625
   D53        1.07683  -0.00040  -0.00131  -0.04027  -0.04158   1.03525
   D54       -1.03309  -0.00104  -0.00150  -0.04090  -0.04240  -1.07549
   D55       -1.09365  -0.00041  -0.00129  -0.04074  -0.04203  -1.13568
   D56       -3.13339  -0.00020  -0.00120  -0.04208  -0.04328   3.10651
   D57        1.03986  -0.00084  -0.00139  -0.04271  -0.04410   0.99577
   D58        0.05758  -0.00025  -0.00210  -0.00876  -0.01086   0.04672
   D59       -3.08803  -0.00027  -0.00078  -0.01957  -0.02035  -3.10838
   D60        2.17266  -0.00019  -0.00217  -0.01015  -0.01232   2.16034
   D61       -0.97294  -0.00020  -0.00085  -0.02097  -0.02182  -0.99476
   D62       -2.04938  -0.00045  -0.00228  -0.00852  -0.01080  -2.06018
   D63        1.08819  -0.00046  -0.00096  -0.01933  -0.02029   1.06790
         Item               Value     Threshold  Converged?
 Maximum Force            0.001360     0.000450     NO 
 RMS     Force            0.000326     0.000300     NO 
 Maximum Displacement     0.176196     0.001800     NO 
 RMS     Displacement     0.026062     0.001200     NO 
 Predicted change in Energy=-1.142836D-04
 GradGradGradGradGradGradGradGradGradGradGradGradGradGradGradGradGradGrad

                          Input orientation:                          
 ---------------------------------------------------------------------
 Center     Atomic      Atomic             Coordinates (Angstroms)
 Number     Number       Type             X           Y           Z
 ---------------------------------------------------------------------
      1          7           0        2.443431    0.980316    0.383168
      2          1           0        2.124195    1.209826    1.331400
      3          6           0        1.303694    0.504604   -0.345392
      4          1           0        0.590591    1.330956   -0.476032
      5          1           0        1.616162    0.192020   -1.344519
      6          6           0        0.598249   -0.673460    0.354676
      7          1           0        0.237315   -0.358479    1.334590
      8          1           0        1.342545   -1.446941    0.546202
      9          6           0       -0.522757   -1.303416   -0.474654
     10          1           0       -0.383718   -1.068629   -1.529469
     11          1           0       -0.508745   -2.387783   -0.375482
     12          7           0       -1.929503   -0.887911   -0.137419
     13          6           0       -2.316162   -1.390162    1.214832
     14          1           0       -3.343447   -1.076953    1.383637
     15          1           0       -2.213402   -2.473045    1.225391
     16          1           0       -1.664608   -0.945682    1.960684
     17          6           0       -2.841075   -1.505168   -1.149640
     18          1           0       -2.710091   -2.584746   -1.123376
     19          1           0       -3.854705   -1.211303   -0.890688
     20          1           0       -2.574409   -1.119282   -2.130381
     21          6           0       -2.082265    0.618018   -0.189312
     22          1           0       -1.725533    0.935852   -1.167131
     23          1           0       -1.436095    1.032159    0.579642
     24          6           0       -3.527518    1.204954    0.036981
     25          8           0       -4.439513    0.398511    0.294034
     26          8           0       -3.507245    2.427651   -0.069760
 ---------------------------------------------------------------------
                    Distance matrix (angstroms):
                    1          2          3          4          5
     1  N    0.000000
     2  H    1.026513   0.000000
     3  C    1.433911   1.995543   0.000000
     4  H    2.072243   2.373484   1.099291   0.000000
     5  H    2.071397   2.907674   1.092520   1.761602   0.000000
     6  C    2.477999   2.613287   1.541292   2.169750   2.161589
     7  H    2.750368   2.453551   2.168967   2.501469   3.062988
     8  H    2.670227   2.878529   2.145922   3.054032   2.517119
     9  C    3.840516   4.072417   2.573241   2.859976   2.750995
    10  H    3.981096   4.434587   2.593156   2.795892   2.371279
    11  H    4.542574   4.773742   3.413465   3.879132   3.479892
    12  N    4.783704   4.794830   3.526458   3.374744   3.898087
    13  C    5.381872   5.146873   4.373533   4.325819   4.951439
    14  H    6.222639   5.926820   5.204496   4.973232   5.800935
    15  H    5.858424   5.691180   4.868646   5.022712   5.326591
    16  H    4.803541   4.404230   4.028912   4.025741   4.793974
    17  C    6.037643   6.179050   4.676014   4.502630   4.773405
    18  H    6.445009   6.617782   5.124433   5.162004   5.145465
    19  H    6.789139   6.822521   5.463585   5.137672   5.666186
    20  H    5.992074   6.283753   4.567589   4.331023   4.460715
    21  C    4.576124   4.511885   3.391451   2.781123   3.897992
    22  H    4.448107   4.597622   3.168192   2.449112   3.428072
    23  H    3.884844   3.643127   2.939463   2.304601   3.704660
    24  C    5.985193   5.798052   4.896663   4.151852   5.421441
    25  O    6.908064   6.694522   5.779666   5.173432   6.276838
    26  O    6.140884   5.929542   5.188373   4.261461   5.733442
                    6          7          8          9         10
     6  C    0.000000
     7  H    1.090742   0.000000
     8  H    1.090382   1.740069   0.000000
     9  C    1.530127   2.178068   2.131220   0.000000
    10  H    2.161116   3.015432   2.726080   1.089537   0.000000
    11  H    2.167365   2.756633   2.271994   1.088982   1.757124
    12  N    2.584120   2.672491   3.389121   1.505093   2.088040
    13  C    3.122070   2.756620   3.719734   2.465398   3.371781
    14  H    4.093718   3.652460   4.774589   3.385383   4.152860
    15  H    3.449932   3.238723   3.762837   2.667671   3.592963
    16  H    2.788170   2.086651   3.360802   2.713424   3.719807
    17  C    3.844952   4.118589   4.514636   2.422995   2.524567
    18  H    4.096678   4.436786   4.528349   2.616692   2.806339
    19  H    4.654998   4.735377   5.397368   3.359084   3.532159
    20  H    4.054630   4.526658   4.755416   2.642841   2.272176
    21  C    3.024730   2.942154   4.066246   2.491062   2.743330
    22  H    3.210256   3.433173   4.245740   2.634485   2.439200
    23  H    2.664264   2.303068   3.723962   2.720411   3.157396
    24  C    4.544373   4.278093   5.568606   3.947440   4.184068
    25  O    5.150907   4.850619   6.074658   4.339172   4.682641
    26  O    5.162569   4.874059   6.237975   4.794994   4.910310
                   11         12         13         14         15
    11  H    0.000000
    12  N    2.079625   0.000000
    13  C    2.605974   1.493433   0.000000
    14  H    3.584454   2.085326   1.087156   0.000000
    15  H    2.340069   2.109621   1.087799   1.803085   0.000000
    16  H    2.978817   2.115548   1.085533   1.780088   1.781760
    17  C    2.611148   1.495514   2.424765   2.617869   2.640366
    18  H    2.333252   2.112033   2.655076   2.993275   2.403307
    19  H    3.583990   2.092463   2.613870   2.334949   2.960348
    20  H    2.992612   2.107447   3.366083   3.597434   3.636510
    21  C    3.397861   1.514546   2.461526   2.633946   3.401948
    22  H    3.626821   2.104287   3.381262   3.629800   4.193180
    23  H    3.669910   2.108149   2.654359   2.955122   3.647965
    24  C    4.710719   2.638968   3.096666   2.656024   4.082511
    25  O    4.864424   2.853276   2.925036   2.136724   3.750844
    26  O    5.680922   3.672438   4.200542   3.797557   5.231469
                   16         17         18         19         20
    16  H    0.000000
    17  C    3.372124   0.000000
    18  H    3.645682   1.087813   0.000000
    19  H    3.605191   1.086673   1.802951   0.000000
    20  H    4.194603   1.087139   1.783271   1.784507   0.000000
    21  C    2.691111   2.450702   3.394752   2.641947   2.651069
    22  H    3.650632   2.683900   3.655938   3.036457   2.423224
    23  H    2.423087   3.376745   4.195872   3.611739   3.642620
    24  C    3.434575   3.037110   4.046782   2.608816   3.317823
    25  O    3.504950   2.874577   3.728240   2.082563   3.414688
    26  O    4.347113   4.132431   5.183598   3.746550   4.206790
                   21         22         23         24         25
    21  C    0.000000
    22  H    1.088305   0.000000
    23  H    1.086433   1.773207   0.000000
    24  C    1.576217   2.183908   2.167576   0.000000
    25  O    2.416283   3.128806   3.082790   1.244251   0.000000
    26  O    2.306433   2.569861   2.580462   1.227515   2.262494
                   26
    26  O    0.000000
 Stoichiometry    C7H15N2O2(2)
 Framework group  C1[X(C7H15N2O2)]
 Deg. of freedom    72
 Full point group                 C1      NOp   1
 Largest Abelian subgroup         C1      NOp   1
 Largest concise Abelian subgroup C1      NOp   1
                         Standard orientation:                         
 ---------------------------------------------------------------------
 Center     Atomic      Atomic             Coordinates (Angstroms)
 Number     Number       Type             X           Y           Z
 ---------------------------------------------------------------------
      1          7           0        3.892657    1.238618    0.221062
      2          1           0        3.583402    1.508743    1.161872
      3          6           0        2.764561    0.657334   -0.446479
      4          1           0        2.003455    1.433958   -0.607761
      5          1           0        3.070519    0.300895   -1.432857
      6          6           0        2.142776   -0.511720    0.342366
      7          1           0        1.787858   -0.156721    1.310729
      8          1           0        2.933485   -1.230183    0.560358
      9          6           0        1.039646   -1.251949   -0.416882
     10          1           0        1.140549   -1.075773   -1.487336
     11          1           0        1.116654   -2.325710   -0.252600
     12          7           0       -0.379854   -0.893525   -0.067804
     13          6           0       -0.705975   -1.331294    1.322285
     14          1           0       -1.744938   -1.064604    1.499315
     15          1           0       -0.542544   -2.404240    1.395676
     16          1           0       -0.063008   -0.806636    2.022077
     17          6           0       -1.278936   -1.621034   -1.015931
     18          1           0       -1.087150   -2.688177   -0.927828
     19          1           0       -2.301072   -1.367292   -0.748146
     20          1           0       -1.057361   -1.282738   -2.025055
     21          6           0       -0.617844    0.595740   -0.206728
     22          1           0       -0.302491    0.871300   -1.211232
     23          1           0        0.021988    1.091302    0.518097
     24          6           0       -2.087979    1.116038    0.022297
     25          8           0       -2.947124    0.278637    0.352128
     26          8           0       -2.138684    2.329056   -0.158839
 ---------------------------------------------------------------------
 Rotational constants (GHZ):           1.5854423           0.6420168           0.5196506
 Standard basis: 6-311+G(2d,2p) (5D, 7F)
 There are   454 symmetry adapted cartesian basis functions of A   symmetry.
 There are   432 symmetry adapted basis functions of A   symmetry.
   432 basis functions,   627 primitive gaussians,   454 cartesian basis functions
    44 alpha electrons       43 beta electrons
       nuclear repulsion energy       669.3021170100 Hartrees.
 NAtoms=   26 NActive=   26 NUniq=   26 SFac= 1.00D+00 NAtFMM=   60 NAOKFM=F Big=F
 Integral buffers will be    131072 words long.
 Raffenetti 2 integral format.
 Two-electron integral symmetry is turned on.
 Nuclear repulsion after empirical dispersion term =      669.2811963551 Hartrees.
 One-electron integrals computed using PRISM.
 NBasis=   432 RedAO= T EigKep=  1.21D-05  NBF=   432
 NBsUse=   432 1.00D-06 EigRej= -1.00D+00 NBFU=   432
 Initial guess from the checkpoint file:  "aminopropyl_betaine.chk"
 B after Tr=    -0.000000    0.000000   -0.000000
         Rot=    0.999988   -0.004725   -0.001127    0.000138 Ang=  -0.56 deg.
 Initial guess <Sx>= 0.0000 <Sy>= 0.0000 <Sz>= 0.5000 <S**2>= 0.7543 S= 0.5021
 ExpMin= 4.38D-02 ExpMax= 8.59D+03 ExpMxC= 1.30D+03 IAcc=2 IRadAn=         4 AccDes= 0.00D+00
 Harris functional with IExCor= 4639 and IRadAn=       4 diagonalized for initial guess.
 HarFok:  IExCor= 4639 AccDes= 0.00D+00 IRadAn=         4 IDoV= 1 UseB2=F ITyADJ=14
 ICtDFT=  3500011 ScaDFX=  1.000000  1.000000  1.000000  1.000000
 FoFCou: FMM=F IPFlag=           0 FMFlag=      100000 FMFlg1=           0
         NFxFlg=           0 DoJE=T BraDBF=F KetDBF=T FulRan=T
         wScrn=  0.000000 ICntrl=       500 IOpCl=  0 I1Cent=   200000004 NGrid=           0
         NMat0=    1 NMatS0=      1 NMatT0=    0 NMatD0=    1 NMtDS0=    0 NMtDT0=    0
 Petite list used in FoFCou.
 Requested convergence on RMS density matrix=1.00D-08 within  32 cycles.
 Requested convergence on MAX density matrix=1.00D-06.
 Requested convergence on             energy=1.00D-06.
 No special actions if energy rises.
 SCF Done:  E(UwB97XD) =  -535.629704336     A.U. after   15 cycles
            NFock= 15  Conv=0.63D-08     -V/T= 2.0039
 <Sx>= 0.0000 <Sy>= 0.0000 <Sz>= 0.5000 <S**2>= 0.7543 S= 0.5021
 <L.S>= 0.000000000000E+00
 Annihilation of the first spin contaminant:
 S**2 before annihilation     0.7543,   after     0.7500
 QCSCF skips out because SCF is already converged.
 Calling FoFJK, ICntrl=      2127 FMM=F ISym2X=0 I1Cent= 0 IOpClX= 1 NMat=1 NMatS=1 NMatT=0.
 ***** Axes restored to original set *****
 -------------------------------------------------------------------
 Center     Atomic                   Forces (Hartrees/Bohr)
 Number     Number              X              Y              Z
 -------------------------------------------------------------------
      1        7          -0.001107435    0.000449800    0.001253544
      2        1           0.000908172   -0.000391014   -0.001937083
      3        6          -0.002166193   -0.001351240    0.000637012
      4        1           0.000675030   -0.000135420    0.000173914
      5        1           0.000990609    0.000412618    0.000397860
      6        6           0.000248929    0.000592244   -0.000127503
      7        1           0.000105989    0.000084155   -0.000085698
      8        1          -0.000011853    0.000227887   -0.000303244
      9        6           0.000050456    0.000312260    0.000118252
     10        1          -0.000072183   -0.000112237   -0.000067645
     11        1          -0.000062593   -0.000040528    0.000023175
     12        7          -0.000280615    0.000043690   -0.000039018
     13        6           0.000062747    0.000294479    0.000028184
     14        1           0.000008425   -0.000225521   -0.000093780
     15        1          -0.000093553    0.000034056    0.000031900
     16        1           0.000055191   -0.000092953    0.000048245
     17        6           0.000275643   -0.000974583   -0.000656475
     18        1           0.000256097   -0.000050623   -0.000068250
     19        1           0.000330127   -0.000116155   -0.000072918
     20        1           0.000104612   -0.000015559   -0.000070798
     21        6          -0.000026596   -0.000133584   -0.000128314
     22        1           0.000037807   -0.000027251    0.000023294
     23        1           0.000075383    0.000092556   -0.000079764
     24        6           0.000583956    0.000632904    0.000891829
     25        8          -0.000686222    0.000674572    0.000387706
     26        8          -0.000261932   -0.000184554   -0.000284424
 -------------------------------------------------------------------
 Cartesian Forces:  Max     0.002166193 RMS     0.000531041

 GradGradGradGradGradGradGradGradGradGradGradGradGradGradGradGradGradGrad
 Berny optimization.
 Using GEDIIS/GDIIS optimizer.
 FormGI is forming the generalized inverse of G from B-inverse, IUseBI=4.
 Internal  Forces:  Max     0.003021058 RMS     0.000519539
 Search for a local minimum.
 Step number   8 out of a maximum of  144
 All quantities printed in internal units (Hartrees-Bohrs-Radians)
 Mixed Optimization -- En-DIIS/RFO-DIIS
 Swapping is turned off.
 Update second derivatives using D2CorX and points    1    4    3    5    2
                                                      6    7    8
 DE=  3.05D-06 DEPred=-1.14D-04 R=-2.66D-02
 Trust test=-2.66D-02 RLast= 1.59D-01 DXMaxT set to 6.31D-02
 ITU= -1  0  0  0 -1 -1  1  0
     Eigenvalues ---    0.00202   0.00249   0.00299   0.00388   0.00435
     Eigenvalues ---    0.00457   0.00879   0.01566   0.03203   0.03368
     Eigenvalues ---    0.03925   0.04587   0.04659   0.04727   0.04821
     Eigenvalues ---    0.05042   0.05252   0.05541   0.05978   0.06062
     Eigenvalues ---    0.06082   0.06224   0.06263   0.08560   0.08762
     Eigenvalues ---    0.08969   0.09814   0.10757   0.12388   0.12623
     Eigenvalues ---    0.13675   0.13933   0.14420   0.15901   0.15993
     Eigenvalues ---    0.16000   0.16000   0.16001   0.16002   0.17130
     Eigenvalues ---    0.17788   0.21576   0.22072   0.22287   0.24234
     Eigenvalues ---    0.25004   0.25449   0.26487   0.29506   0.30135
     Eigenvalues ---    0.31725   0.32836   0.33287   0.34208   0.34739
     Eigenvalues ---    0.34807   0.34829   0.34947   0.34985   0.35019
     Eigenvalues ---    0.35072   0.35086   0.35113   0.35145   0.35211
     Eigenvalues ---    0.35277   0.35337   0.37696   0.40723   0.47453
     Eigenvalues ---    0.85487   0.91997
 En-DIIS/RFO-DIIS/Sim-DIIS IScMMF=       -3 using points:     8    7    6
 RFO step:  Lambda=-1.71721699D-04.
 EnCoef did     3 forward-backward iterations
 DidBck=T Rises=T En-DIIS coefs:    0.37743    0.32069    0.30188
 Iteration  1 RMS(Cart)=  0.01393492 RMS(Int)=  0.00008896
 Iteration  2 RMS(Cart)=  0.00011671 RMS(Int)=  0.00000824
 Iteration  3 RMS(Cart)=  0.00000001 RMS(Int)=  0.00000824
 Variable       Old X    -DE/DX   Delta X   Delta X   Delta X     New X
                                 (Linear)    (Quad)   (Total)
    R1        1.93983  -0.00216  -0.00399   0.00022  -0.00377   1.93606
    R2        2.70970  -0.00049   0.00067  -0.00085  -0.00017   2.70953
    R3        2.07736  -0.00056  -0.00158   0.00016  -0.00141   2.07594
    R4        2.06456  -0.00020  -0.00049  -0.00001  -0.00050   2.06406
    R5        2.91262  -0.00134  -0.00544   0.00134  -0.00410   2.90852
    R6        2.06120  -0.00009  -0.00030   0.00006  -0.00024   2.06096
    R7        2.06052  -0.00022  -0.00058   0.00007  -0.00051   2.06001
    R8        2.89152  -0.00031  -0.00043  -0.00020  -0.00063   2.89089
    R9        2.05893   0.00003   0.00013   0.00001   0.00014   2.05906
   R10        2.05788   0.00004   0.00014  -0.00004   0.00010   2.05798
   R11        2.84421  -0.00043   0.00011  -0.00050  -0.00039   2.84382
   R12        2.82218   0.00000   0.00012   0.00022   0.00034   2.82252
   R13        2.82611   0.00048  -0.00006   0.00027   0.00021   2.82632
   R14        2.86208   0.00106   0.00038   0.00101   0.00138   2.86346
   R15        2.05443  -0.00009  -0.00010  -0.00008  -0.00017   2.05425
   R16        2.05564  -0.00004   0.00001   0.00002   0.00003   2.05567
   R17        2.05136   0.00003  -0.00000   0.00003   0.00003   2.05138
   R18        2.05567   0.00008   0.00002   0.00000   0.00002   2.05569
   R19        2.05351  -0.00035  -0.00017  -0.00018  -0.00035   2.05317
   R20        2.05440   0.00008   0.00006   0.00005   0.00011   2.05450
   R21        2.05660  -0.00002  -0.00000  -0.00004  -0.00005   2.05655
   R22        2.05306   0.00003  -0.00012   0.00006  -0.00006   2.05300
   R23        2.97862   0.00089   0.00011   0.00116   0.00127   2.97989
   R24        2.35129   0.00014   0.00000   0.00003   0.00003   2.35133
   R25        2.31967  -0.00016   0.00010  -0.00015  -0.00005   2.31962
    A1        1.87165   0.00050   0.00061   0.00154   0.00215   1.87380
    A2        1.90351  -0.00042  -0.00176  -0.00011  -0.00186   1.90165
    A3        1.90948  -0.00103  -0.00879   0.00055  -0.00824   1.90125
    A4        1.96773   0.00064   0.00094   0.00044   0.00138   1.96911
    A5        1.86703   0.00007   0.00300  -0.00082   0.00220   1.86923
    A6        1.90883   0.00017   0.00395  -0.00038   0.00358   1.91242
    A7        1.90456   0.00054   0.00269   0.00025   0.00295   1.90751
    A8        1.91643  -0.00002   0.00073  -0.00052   0.00021   1.91664
    A9        1.88552  -0.00005  -0.00048  -0.00033  -0.00081   1.88471
   A10        1.98648  -0.00020  -0.00208   0.00059  -0.00149   1.98499
   A11        1.84723   0.00005   0.00063   0.00032   0.00095   1.84818
   A12        1.94270   0.00014   0.00091  -0.00010   0.00082   1.94352
   A13        1.87889   0.00011   0.00042   0.00003   0.00044   1.87933
   A14        1.92039   0.00014   0.00048  -0.00006   0.00042   1.92081
   A15        1.92962   0.00011   0.00044   0.00003   0.00047   1.93009
   A16        2.03717  -0.00027  -0.00029  -0.00008  -0.00037   2.03680
   A17        1.87665  -0.00007  -0.00046   0.00018  -0.00028   1.87637
   A18        1.85116   0.00001   0.00031  -0.00032  -0.00001   1.85115
   A19        1.84057   0.00007  -0.00055   0.00028  -0.00027   1.84030
   A20        1.93053   0.00036  -0.00052  -0.00097  -0.00150   1.92904
   A21        1.87980  -0.00072  -0.00130  -0.00149  -0.00278   1.87702
   A22        1.94023  -0.00039  -0.00031  -0.00178  -0.00208   1.93815
   A23        1.89255   0.00004   0.00044   0.00095   0.00138   1.89393
   A24        1.91697  -0.00027   0.00024   0.00157   0.00180   1.91878
   A25        1.90257   0.00100   0.00147   0.00178   0.00324   1.90581
   A26        1.86330  -0.00000  -0.00004   0.00007   0.00004   1.86334
   A27        1.89559   0.00003  -0.00014  -0.00022  -0.00036   1.89524
   A28        1.90607   0.00011   0.00022   0.00005   0.00027   1.90634
   A29        1.95471  -0.00012  -0.00022   0.00009  -0.00013   1.95458
   A30        1.92039   0.00006   0.00044   0.00012   0.00056   1.92095
   A31        1.92222  -0.00007  -0.00026  -0.00011  -0.00037   1.92185
   A32        1.89640  -0.00019  -0.00010  -0.00025  -0.00035   1.89605
   A33        1.87094   0.00008   0.00001   0.00021   0.00022   1.87116
   A34        1.89081  -0.00006   0.00011  -0.00003   0.00008   1.89089
   A35        1.95513   0.00012   0.00012  -0.00011   0.00001   1.95514
   A36        1.92252  -0.00001  -0.00031  -0.00012  -0.00043   1.92209
   A37        1.92601   0.00005   0.00018   0.00029   0.00048   1.92649
   A38        1.86305  -0.00109  -0.00061  -0.00080  -0.00142   1.86163
   A39        1.87003  -0.00057   0.00012  -0.00113  -0.00102   1.86901
   A40        2.04633   0.00302   0.00203   0.00429   0.00632   2.05265
   A41        1.90672   0.00030  -0.00079  -0.00087  -0.00166   1.90506
   A42        1.89736  -0.00041  -0.00003  -0.00074  -0.00078   1.89659
   A43        1.87736  -0.00132  -0.00086  -0.00100  -0.00187   1.87550
   A44        2.04922   0.00138   0.00090   0.00140   0.00234   2.05156
   A45        1.92120  -0.00046  -0.00036  -0.00056  -0.00087   1.92034
   A46        2.31266  -0.00092  -0.00052  -0.00095  -0.00142   2.31124
    D1        1.16444   0.00035  -0.01214   0.00767  -0.00446   1.15997
    D2       -3.08210  -0.00039  -0.01441   0.00693  -0.00748  -3.08958
    D3       -0.95944   0.00001  -0.01656   0.00794  -0.00863  -0.96806
    D4        1.06524   0.00013  -0.02314   0.01123  -0.01192   1.05332
    D5       -0.94152   0.00011  -0.02402   0.01130  -0.01272  -0.95424
    D6       -3.02703   0.00014  -0.02292   0.01113  -0.01179  -3.03883
    D7       -1.05561   0.00012  -0.02435   0.01134  -0.01302  -1.06863
    D8       -3.06237   0.00010  -0.02523   0.01142  -0.01382  -3.07619
    D9        1.13530   0.00013  -0.02413   0.01124  -0.01289   1.12240
   D10       -3.09250  -0.00036  -0.03181   0.01240  -0.01940  -3.11190
   D11        1.18393  -0.00038  -0.03268   0.01248  -0.02020   1.16373
   D12       -0.90159  -0.00035  -0.03158   0.01230  -0.01927  -0.92086
   D13        0.37056  -0.00002  -0.00187   0.00268   0.00081   0.37137
   D14        2.44090   0.00005  -0.00186   0.00288   0.00102   2.44192
   D15       -1.73922   0.00005  -0.00246   0.00322   0.00076  -1.73846
   D16        2.54747  -0.00010  -0.00177   0.00236   0.00059   2.54805
   D17       -1.66538  -0.00003  -0.00176   0.00256   0.00080  -1.66459
   D18        0.43768  -0.00003  -0.00236   0.00290   0.00054   0.43822
   D19       -1.71871   0.00010  -0.00027   0.00270   0.00243  -1.71628
   D20        0.35163   0.00017  -0.00026   0.00290   0.00264   0.35427
   D21        2.45469   0.00016  -0.00086   0.00324   0.00238   2.45708
   D22       -1.17683   0.00003  -0.00022  -0.00479  -0.00501  -1.18184
   D23        3.04091   0.00020   0.00033  -0.00449  -0.00417   3.03675
   D24        0.95772  -0.00034  -0.00048  -0.00470  -0.00518   0.95254
   D25        2.96035   0.00002  -0.00089  -0.00440  -0.00529   2.95506
   D26        0.89491   0.00019  -0.00035  -0.00411  -0.00445   0.89046
   D27       -1.18828  -0.00035  -0.00116  -0.00431  -0.00547  -1.19375
   D28        0.97288   0.00005  -0.00027  -0.00458  -0.00485   0.96803
   D29       -1.09256   0.00023   0.00027  -0.00429  -0.00401  -1.09657
   D30        3.10744  -0.00031  -0.00054  -0.00449  -0.00503   3.10241
   D31       -3.11883   0.00016   0.00118   0.00106   0.00224  -3.11659
   D32       -1.00802   0.00003   0.00083   0.00109   0.00191  -1.00610
   D33        1.08865   0.00004   0.00056   0.00085   0.00141   1.09006
   D34       -1.06118  -0.00047  -0.00043  -0.00074  -0.00116  -1.06234
   D35        1.04964  -0.00060  -0.00078  -0.00071  -0.00149   1.04815
   D36       -3.13688  -0.00060  -0.00105  -0.00095  -0.00200  -3.13887
   D37        1.01624   0.00060   0.00176   0.00289   0.00466   1.02090
   D38        3.12706   0.00047   0.00141   0.00292   0.00433   3.13138
   D39       -1.05946   0.00047   0.00114   0.00268   0.00382  -1.05563
   D40        1.01217   0.00001  -0.00088  -0.00186  -0.00273   1.00944
   D41        3.12835   0.00009  -0.00079  -0.00201  -0.00279   3.12556
   D42       -1.07641   0.00016  -0.00051  -0.00156  -0.00207  -1.07847
   D43       -1.07753  -0.00004   0.00024  -0.00038  -0.00014  -1.07768
   D44        1.03865   0.00004   0.00033  -0.00053  -0.00020   1.03845
   D45        3.11708   0.00011   0.00060  -0.00008   0.00052   3.11760
   D46        3.11918  -0.00031  -0.00117  -0.00385  -0.00502   3.11416
   D47       -1.04782  -0.00023  -0.00108  -0.00400  -0.00508  -1.05290
   D48        1.03060  -0.00016  -0.00080  -0.00355  -0.00435   1.02625
   D49        0.93386  -0.00016   0.01954  -0.00474   0.01479   0.94865
   D50       -1.10713   0.00031   0.02070  -0.00278   0.01792  -1.08921
   D51        3.06531   0.00047   0.02038  -0.00345   0.01693   3.08224
   D52        3.07625  -0.00016   0.01883  -0.00610   0.01273   3.08898
   D53        1.03525   0.00032   0.01999  -0.00413   0.01586   1.05111
   D54       -1.07549   0.00048   0.01967  -0.00480   0.01487  -1.06062
   D55       -1.13568   0.00033   0.02039  -0.00296   0.01744  -1.11824
   D56        3.10651   0.00081   0.02155  -0.00099   0.02056   3.12708
   D57        0.99577   0.00097   0.02123  -0.00166   0.01958   1.01534
   D58        0.04672   0.00018  -0.00265   0.00825   0.00560   0.05232
   D59       -3.10838   0.00022   0.00917   0.00051   0.00968  -3.09870
   D60        2.16034   0.00053  -0.00206   0.00962   0.00756   2.16791
   D61       -0.99476   0.00056   0.00976   0.00188   0.01164  -0.98312
   D62       -2.06018  -0.00007  -0.00349   0.00763   0.00414  -2.05604
   D63        1.06790  -0.00003   0.00833  -0.00011   0.00822   1.07612
         Item               Value     Threshold  Converged?
 Maximum Force            0.003021     0.000450     NO 
 RMS     Force            0.000520     0.000300     NO 
 Maximum Displacement     0.072057     0.001800     NO 
 RMS     Displacement     0.013927     0.001200     NO 
 Predicted change in Energy=-8.599334D-05
 GradGradGradGradGradGradGradGradGradGradGradGradGradGradGradGradGradGrad

                          Input orientation:                          
 ---------------------------------------------------------------------
 Center     Atomic      Atomic             Coordinates (Angstroms)
 Number     Number       Type             X           Y           Z
 ---------------------------------------------------------------------
      1          7           0        2.427628    0.992628    0.386983
      2          1           0        2.099416    1.236821    1.326283
      3          6           0        1.297967    0.501182   -0.346630
      4          1           0        0.583437    1.322475   -0.494006
      5          1           0        1.630009    0.182731   -1.337266
      6          6           0        0.595063   -0.673922    0.356188
      7          1           0        0.233204   -0.356403    1.334800
      8          1           0        1.340752   -1.445232    0.549497
      9          6           0       -0.523866   -1.306941   -0.472998
     10          1           0       -0.383454   -1.075553   -1.528457
     11          1           0       -0.509948   -2.391063   -0.370597
     12          7           0       -1.931062   -0.890978   -0.139147
     13          6           0       -2.320006   -1.396170    1.211552
     14          1           0       -3.348189   -1.085212    1.378449
     15          1           0       -2.215426   -2.478910    1.220162
     16          1           0       -1.670641   -0.952440    1.959776
     17          6           0       -2.837113   -1.508631   -1.156237
     18          1           0       -2.702837   -2.587857   -1.131630
     19          1           0       -3.852470   -1.218506   -0.900624
     20          1           0       -2.567500   -1.120310   -2.135274
     21          6           0       -2.079501    0.616169   -0.189563
     22          1           0       -1.732868    0.931194   -1.171885
     23          1           0       -1.420315    1.027415    0.569793
     24          6           0       -3.516492    1.217543    0.055353
     25          8           0       -4.433234    0.423084    0.332165
     26          8           0       -3.487163    2.438795   -0.064707
 ---------------------------------------------------------------------
                    Distance matrix (angstroms):
                    1          2          3          4          5
     1  N    0.000000
     2  H    1.024519   0.000000
     3  C    1.433820   1.995526   0.000000
     4  H    2.070261   2.370439   1.098542   0.000000
     5  H    2.065227   2.902747   1.092256   1.762219   0.000000
     6  C    2.477222   2.618225   1.539122   2.169923   2.161656
     7  H    2.744766   2.453810   2.167113   2.507155   3.062951
     8  H    2.674111   2.893507   2.143223   3.053298   2.508746
     9  C    3.839128   4.073052   2.569894   2.853138   2.757765
    10  H    3.981012   4.434102   2.590364   2.784871   2.381988
    11  H    4.544517   4.780138   3.410896   3.873124   3.484004
    12  N    4.777338   4.787459   3.522469   3.368680   3.907630
    13  C    5.378317   5.145590   4.372368   4.327811   4.959035
    14  H    6.217755   5.922074   5.203778   4.976016   5.810787
    15  H    5.856937   5.695242   4.866181   5.022205   5.330305
    16  H    4.801331   4.405396   4.030529   4.034496   4.801395
    17  C    6.029537   6.170068   4.668373   4.489307   4.780027
    18  H    6.437991   6.612952   5.115156   5.147510   5.147038
    19  H    6.781348   6.812687   5.458135   5.128275   5.675536
    20  H    5.981437   6.270451   4.557447   4.311539   4.466970
    21  C    4.559423   4.488469   3.383073   2.771786   3.907116
    22  H    4.443373   4.584828   3.170476   2.444972   3.449129
    23  H    3.852440   3.606194   2.916472   2.287740   3.695246
    24  C    5.957610   5.757956   4.884033   4.137901   5.431086
    25  O    6.884679   6.657774   5.771787   5.163182   6.293464
    26  O    6.105749   5.881280   5.170231   4.242671   5.735388
                    6          7          8          9         10
     6  C    0.000000
     7  H    1.090616   0.000000
     8  H    1.090111   1.740378   0.000000
     9  C    1.529793   2.178259   2.131061   0.000000
    10  H    2.161177   3.015905   2.725333   1.089610   0.000000
    11  H    2.167450   2.756899   2.272940   1.089036   1.757045
    12  N    2.583365   2.672515   3.389129   1.504886   2.087904
    13  C    3.122646   2.759563   3.720467   2.464100   3.370561
    14  H    4.094315   3.655057   4.775243   3.384349   4.152090
    15  H    3.450114   3.242525   3.763600   2.664897   3.588933
    16  H    2.789710   2.090569   3.361580   2.712776   3.720185
    17  C    3.842395   4.118221   4.513104   2.420456   2.519236
    18  H    4.093030   4.436553   4.525748   2.611983   2.797155
    19  H    4.653676   4.736357   5.396648   3.357125   3.528269
    20  H    4.050734   4.524258   4.752683   2.640915   2.267220
    21  C    3.019184   2.935674   4.061246   2.489716   2.744292
    22  H    3.214135   3.436105   4.249435   2.638064   2.444401
    23  H    2.646114   2.287862   3.706465   2.709290   3.146459
    24  C    4.535749   4.263157   5.561238   3.950694   4.193169
    25  O    5.146626   4.836167   6.072623   4.350222   4.701972
    26  O    5.150798   4.859308   6.226690   4.793576   4.911844
                   11         12         13         14         15
    11  H    0.000000
    12  N    2.079277   0.000000
    13  C    2.601792   1.493614   0.000000
    14  H    3.580506   2.085443   1.087065   0.000000
    15  H    2.333857   2.109529   1.087813   1.802943   0.000000
    16  H    2.974472   2.115910   1.085546   1.780376   1.781553
    17  C    2.609908   1.495626   2.426206   2.620137   2.641063
    18  H    2.329521   2.111885   2.656536   2.995817   2.404240
    19  H    3.581658   2.092590   2.615588   2.337999   2.960788
    20  H    2.993730   2.107646   3.367284   3.599577   3.637128
    21  C    3.397016   1.515278   2.463833   2.638736   3.403721
    22  H    3.629737   2.103840   3.382622   3.630339   4.193277
    23  H    3.660477   2.108005   2.663655   2.972173   3.653696
    24  C    4.716225   2.645236   3.098365   2.661125   4.088192
    25  O    4.879085   2.865267   2.923822   2.132367   3.758827
    26  O    5.681981   3.676190   4.206905   3.810595   5.239468
                   16         17         18         19         20
    16  H    0.000000
    17  C    3.373358   0.000000
    18  H    3.646479   1.087825   0.000000
    19  H    3.607362   1.086490   1.802814   0.000000
    20  H    4.195471   1.087197   1.783062   1.784699   0.000000
    21  C    2.692092   2.454223   3.397325   2.648596   2.653167
    22  H    3.655032   2.678125   3.650504   3.031091   2.415244
    23  H    2.431983   3.379056   4.196414   3.622384   3.639525
    24  C    3.426780   3.059661   4.068418   2.638391   3.341405
    25  O    3.488998   2.914526   3.768651   2.133512   3.457063
    26  O    4.347270   4.146827   5.198146   3.769358   4.219036
                   21         22         23         24         25
    21  C    0.000000
    22  H    1.088280   0.000000
    23  H    1.086403   1.772114   0.000000
    24  C    1.576888   2.183901   2.166738   0.000000
    25  O    2.418582   3.132462   3.082103   1.244269   0.000000
    26  O    2.306310   2.564421   2.581946   1.227490   2.261780
                   26
    26  O    0.000000
 Stoichiometry    C7H15N2O2(2)
 Framework group  C1[X(C7H15N2O2)]
 Deg. of freedom    72
 Full point group                 C1      NOp   1
 Largest Abelian subgroup         C1      NOp   1
 Largest concise Abelian subgroup C1      NOp   1
                         Standard orientation:                         
 ---------------------------------------------------------------------
 Center     Atomic      Atomic             Coordinates (Angstroms)
 Number     Number       Type             X           Y           Z
 ---------------------------------------------------------------------
      1          7           0        3.872452    1.254238    0.226844
      2          1           0        3.549757    1.542001    1.155660
      3          6           0        2.758312    0.652378   -0.445686
      4          1           0        1.994992    1.420708   -0.629550
      5          1           0        3.088059    0.287420   -1.420928
      6          6           0        2.138326   -0.510533    0.349392
      7          1           0        1.778628   -0.148976    1.313413
      8          1           0        2.930804   -1.224255    0.575048
      9          6           0        1.041099   -1.259224   -0.409437
     10          1           0        1.146702   -1.091496   -1.480869
     11          1           0        1.119287   -2.331582   -0.236424
     12          7           0       -0.380641   -0.901221   -0.070067
     13          6           0       -0.712649   -1.335854    1.319807
     14          1           0       -1.753415   -1.072428    1.490462
     15          1           0       -0.545937   -2.408042    1.396999
     16          1           0       -0.074882   -0.807418    2.021532
     17          6           0       -1.270052   -1.635270   -1.022441
     18          1           0       -1.073579   -2.701225   -0.930232
     19          1           0       -2.295032   -1.385944   -0.762225
     20          1           0       -1.042956   -1.298867   -2.031033
     21          6           0       -0.616336    0.588504   -0.215786
     22          1           0       -0.308221    0.855980   -1.224683
     23          1           0        0.033323    1.085874    0.498942
     24          6           0       -2.080251    1.123591    0.023402
     25          8           0       -2.944113    0.299403    0.373633
     26          8           0       -2.123499    2.333795   -0.177265
 ---------------------------------------------------------------------
 Rotational constants (GHZ):           1.5708219           0.6456358           0.5209667
 Standard basis: 6-311+G(2d,2p) (5D, 7F)
 There are   454 symmetry adapted cartesian basis functions of A   symmetry.
 There are   432 symmetry adapted basis functions of A   symmetry.
   432 basis functions,   627 primitive gaussians,   454 cartesian basis functions
    44 alpha electrons       43 beta electrons
       nuclear repulsion energy       669.1980224487 Hartrees.
 NAtoms=   26 NActive=   26 NUniq=   26 SFac= 1.00D+00 NAtFMM=   60 NAOKFM=F Big=F
 Integral buffers will be    131072 words long.
 Raffenetti 2 integral format.
 Two-electron integral symmetry is turned on.
 Nuclear repulsion after empirical dispersion term =      669.1770832927 Hartrees.
 One-electron integrals computed using PRISM.
 NBasis=   432 RedAO= T EigKep=  1.20D-05  NBF=   432
 NBsUse=   432 1.00D-06 EigRej= -1.00D+00 NBFU=   432
 Initial guess from the checkpoint file:  "aminopropyl_betaine.chk"
 B after Tr=    -0.000000    0.000000    0.000000
         Rot=    0.999998    0.001790    0.000708    0.000048 Ang=   0.22 deg.
 Initial guess <Sx>= 0.0000 <Sy>= 0.0000 <Sz>= 0.5000 <S**2>= 0.7543 S= 0.5021
 ExpMin= 4.38D-02 ExpMax= 8.59D+03 ExpMxC= 1.30D+03 IAcc=2 IRadAn=         4 AccDes= 0.00D+00
 Harris functional with IExCor= 4639 and IRadAn=       4 diagonalized for initial guess.
 HarFok:  IExCor= 4639 AccDes= 0.00D+00 IRadAn=         4 IDoV= 1 UseB2=F ITyADJ=14
 ICtDFT=  3500011 ScaDFX=  1.000000  1.000000  1.000000  1.000000
 FoFCou: FMM=F IPFlag=           0 FMFlag=      100000 FMFlg1=           0
         NFxFlg=           0 DoJE=T BraDBF=F KetDBF=T FulRan=T
         wScrn=  0.000000 ICntrl=       500 IOpCl=  0 I1Cent=   200000004 NGrid=           0
         NMat0=    1 NMatS0=      1 NMatT0=    0 NMatD0=    1 NMtDS0=    0 NMtDT0=    0
 Petite list used in FoFCou.
 Requested convergence on RMS density matrix=1.00D-08 within  32 cycles.
 Requested convergence on MAX density matrix=1.00D-06.
 Requested convergence on             energy=1.00D-06.
 No special actions if energy rises.
 SCF Done:  E(UwB97XD) =  -535.629781105     A.U. after   14 cycles
            NFock= 14  Conv=0.72D-08     -V/T= 2.0039
 <Sx>= 0.0000 <Sy>= 0.0000 <Sz>= 0.5000 <S**2>= 0.7543 S= 0.5021
 <L.S>= 0.000000000000E+00
 Annihilation of the first spin contaminant:
 S**2 before annihilation     0.7543,   after     0.7500
 QCSCF skips out because SCF is already converged.
 Calling FoFJK, ICntrl=      2127 FMM=F ISym2X=0 I1Cent= 0 IOpClX= 1 NMat=1 NMatS=1 NMatT=0.
 ***** Axes restored to original set *****
 -------------------------------------------------------------------
 Center     Atomic                   Forces (Hartrees/Bohr)
 Number     Number              X              Y              Z
 -------------------------------------------------------------------
      1        7          -0.000351427    0.000288321    0.000479188
      2        1           0.000348874   -0.000121225   -0.000450565
      3        6          -0.000509018   -0.000573530    0.000101459
      4        1           0.000249157   -0.000019324    0.000052545
      5        1           0.000167306    0.000060775    0.000031042
      6        6           0.000066252    0.000227156   -0.000130102
      7        1           0.000032856   -0.000009506   -0.000002519
      8        1           0.000011696    0.000061801   -0.000120922
      9        6           0.000162072    0.000131045    0.000010469
     10        1           0.000054795   -0.000045673    0.000000647
     11        1           0.000006613   -0.000017405    0.000024327
     12        7           0.000013158   -0.000000477   -0.000013981
     13        6          -0.000127248    0.000127200   -0.000121336
     14        1          -0.000056639    0.000074195    0.000010812
     15        1          -0.000024666    0.000004882    0.000001171
     16        1           0.000002434    0.000004610   -0.000004499
     17        6          -0.000062689    0.000164974    0.000174532
     18        1          -0.000023522    0.000005645    0.000001408
     19        1          -0.000086698    0.000065306    0.000015143
     20        1          -0.000039229    0.000012279    0.000017217
     21        6          -0.000107342    0.000065023   -0.000020923
     22        1          -0.000013617   -0.000016399   -0.000003841
     23        1          -0.000050159   -0.000007510    0.000006551
     24        6          -0.000256631   -0.000141991    0.000074291
     25        8           0.000426912   -0.000347424   -0.000096672
     26        8           0.000166759    0.000007253   -0.000035441
 -------------------------------------------------------------------
 Cartesian Forces:  Max     0.000573530 RMS     0.000167925

 GradGradGradGradGradGradGradGradGradGradGradGradGradGradGradGradGradGrad
 Berny optimization.
 Using GEDIIS/GDIIS optimizer.
 FormGI is forming the generalized inverse of G from B-inverse, IUseBI=4.
 Internal  Forces:  Max     0.001308009 RMS     0.000196386
 Search for a local minimum.
 Step number   9 out of a maximum of  144
 All quantities printed in internal units (Hartrees-Bohrs-Radians)
 Mixed Optimization -- En-DIIS/RFO-DIIS
 Swapping is turned off.
 Update second derivatives using D2CorX and points    1    4    3    5    2
                                                      6    7    8    9
 DE= -7.68D-05 DEPred=-8.60D-05 R= 8.93D-01
 TightC=F SS=  1.41D+00  RLast= 7.67D-02 DXNew= 1.0607D-01 2.3013D-01
 Trust test= 8.93D-01 RLast= 7.67D-02 DXMaxT set to 1.06D-01
 ITU=  1 -1  0  0  0 -1 -1  1  0
     Eigenvalues ---    0.00211   0.00255   0.00300   0.00387   0.00434
     Eigenvalues ---    0.00459   0.00878   0.01585   0.03211   0.03376
     Eigenvalues ---    0.03905   0.04628   0.04722   0.04803   0.04828
     Eigenvalues ---    0.05069   0.05247   0.05793   0.05992   0.06073
     Eigenvalues ---    0.06125   0.06226   0.06483   0.08529   0.08787
     Eigenvalues ---    0.08973   0.09875   0.11643   0.12377   0.12618
     Eigenvalues ---    0.13716   0.14034   0.14454   0.15900   0.15999
     Eigenvalues ---    0.15999   0.16000   0.16001   0.16004   0.17721
     Eigenvalues ---    0.18072   0.21477   0.22076   0.22334   0.24207
     Eigenvalues ---    0.24990   0.25445   0.27537   0.29545   0.30310
     Eigenvalues ---    0.31721   0.32883   0.33301   0.34695   0.34749
     Eigenvalues ---    0.34808   0.34850   0.34948   0.34996   0.35020
     Eigenvalues ---    0.35072   0.35089   0.35124   0.35145   0.35220
     Eigenvalues ---    0.35278   0.35338   0.39296   0.46549   0.58548
     Eigenvalues ---    0.85606   0.92003
 En-DIIS/RFO-DIIS/Sim-DIIS IScMMF=       -3 using points:     9    8    7    6
 RFO step:  Lambda=-1.29272288D-05.
 DidBck=F Rises=F RFO-DIIS coefs:    0.76224    0.09320    0.05238    0.09218
 Iteration  1 RMS(Cart)=  0.00281260 RMS(Int)=  0.00000320
 Iteration  2 RMS(Cart)=  0.00000381 RMS(Int)=  0.00000182
 Iteration  3 RMS(Cart)=  0.00000000 RMS(Int)=  0.00000182
 Variable       Old X    -DE/DX   Delta X   Delta X   Delta X     New X
                                 (Linear)    (Quad)   (Total)
    R1        1.93606  -0.00055  -0.00016  -0.00114  -0.00130   1.93476
    R2        2.70953   0.00007   0.00014   0.00029   0.00043   2.70996
    R3        2.07594  -0.00018  -0.00007  -0.00050  -0.00057   2.07537
    R4        2.06406   0.00000  -0.00002   0.00002   0.00000   2.06406
    R5        2.90852  -0.00042  -0.00044  -0.00130  -0.00174   2.90678
    R6        2.06096  -0.00002  -0.00002  -0.00003  -0.00006   2.06091
    R7        2.06001  -0.00006  -0.00003  -0.00018  -0.00021   2.05980
    R8        2.89089  -0.00004   0.00004  -0.00027  -0.00023   2.89065
    R9        2.05906  -0.00000   0.00000   0.00001   0.00001   2.05908
   R10        2.05798   0.00002   0.00001   0.00004   0.00006   2.05804
   R11        2.84382   0.00023   0.00012   0.00020   0.00032   2.84414
   R12        2.82252  -0.00012  -0.00004  -0.00006  -0.00010   2.82242
   R13        2.82632  -0.00012  -0.00008  -0.00002  -0.00009   2.82623
   R14        2.86346  -0.00045  -0.00023  -0.00019  -0.00042   2.86304
   R15        2.05425   0.00008   0.00002   0.00007   0.00008   2.05434
   R16        2.05567  -0.00001  -0.00000  -0.00000  -0.00000   2.05567
   R17        2.05138  -0.00000  -0.00001   0.00002   0.00001   2.05140
   R18        2.05569  -0.00001  -0.00000  -0.00001  -0.00001   2.05568
   R19        2.05317   0.00010   0.00004   0.00003   0.00007   2.05324
   R20        2.05450  -0.00002  -0.00001   0.00001  -0.00000   2.05450
   R21        2.05655  -0.00001   0.00001  -0.00003  -0.00002   2.05653
   R22        2.05300  -0.00003  -0.00002  -0.00004  -0.00006   2.05294
   R23        2.97989  -0.00050  -0.00028  -0.00044  -0.00072   2.97917
   R24        2.35133  -0.00011  -0.00001  -0.00006  -0.00007   2.35126
   R25        2.31962   0.00001   0.00004  -0.00006  -0.00002   2.31960
    A1        1.87380   0.00034  -0.00049   0.00281   0.00232   1.87612
    A2        1.90165  -0.00018  -0.00001  -0.00135  -0.00135   1.90029
    A3        1.90125  -0.00017  -0.00046  -0.00114  -0.00160   1.89965
    A4        1.96911   0.00018  -0.00006   0.00059   0.00053   1.96964
    A5        1.86923   0.00000   0.00028   0.00024   0.00053   1.86976
    A6        1.91242   0.00009   0.00022   0.00072   0.00094   1.91336
    A7        1.90751   0.00008   0.00004   0.00090   0.00094   1.90845
    A8        1.91664  -0.00003   0.00013   0.00018   0.00032   1.91695
    A9        1.88471  -0.00010   0.00006  -0.00106  -0.00100   1.88371
   A10        1.98499   0.00013  -0.00019   0.00025   0.00006   1.98505
   A11        1.84818   0.00004  -0.00005   0.00043   0.00038   1.84856
   A12        1.94352  -0.00002   0.00005   0.00043   0.00048   1.94400
   A13        1.87933  -0.00003   0.00000  -0.00029  -0.00028   1.87905
   A14        1.92081  -0.00005   0.00003   0.00015   0.00018   1.92098
   A15        1.93009  -0.00009   0.00000  -0.00054  -0.00054   1.92955
   A16        2.03680   0.00019   0.00001   0.00054   0.00055   2.03735
   A17        1.87637   0.00002  -0.00005  -0.00017  -0.00023   1.87614
   A18        1.85115  -0.00001   0.00008   0.00043   0.00051   1.85166
   A19        1.84030  -0.00007  -0.00008  -0.00044  -0.00052   1.83978
   A20        1.92904   0.00002   0.00021   0.00020   0.00042   1.92945
   A21        1.87702   0.00010   0.00033   0.00004   0.00038   1.87740
   A22        1.93815   0.00020   0.00042   0.00057   0.00099   1.93914
   A23        1.89393  -0.00000  -0.00022  -0.00021  -0.00042   1.89350
   A24        1.91878  -0.00012  -0.00034  -0.00036  -0.00070   1.91807
   A25        1.90581  -0.00020  -0.00042  -0.00025  -0.00068   1.90514
   A26        1.86334  -0.00004  -0.00002  -0.00017  -0.00019   1.86315
   A27        1.89524   0.00003   0.00004  -0.00000   0.00004   1.89528
   A28        1.90634  -0.00001  -0.00001   0.00003   0.00001   1.90635
   A29        1.95458   0.00002  -0.00001   0.00009   0.00008   1.95466
   A30        1.92095   0.00000  -0.00002   0.00008   0.00006   1.92101
   A31        1.92185   0.00001   0.00002  -0.00003  -0.00001   1.92185
   A32        1.89605   0.00003   0.00006   0.00000   0.00006   1.89611
   A33        1.87116  -0.00004  -0.00006  -0.00002  -0.00008   1.87109
   A34        1.89089   0.00002   0.00001   0.00008   0.00009   1.89098
   A35        1.95514   0.00001   0.00002  -0.00001   0.00001   1.95515
   A36        1.92209   0.00000   0.00003  -0.00003  -0.00001   1.92208
   A37        1.92649  -0.00002  -0.00006  -0.00001  -0.00007   1.92641
   A38        1.86163   0.00037   0.00018   0.00023   0.00041   1.86204
   A39        1.86901   0.00036   0.00028   0.00014   0.00042   1.86943
   A40        2.05265  -0.00131  -0.00099  -0.00079  -0.00178   2.05088
   A41        1.90506  -0.00014   0.00019   0.00017   0.00036   1.90542
   A42        1.89659   0.00037   0.00014   0.00034   0.00048   1.89706
   A43        1.87550   0.00037   0.00026  -0.00004   0.00022   1.87572
   A44        2.05156  -0.00072  -0.00033  -0.00067  -0.00098   2.05058
   A45        1.92034   0.00017   0.00011  -0.00001   0.00012   1.92045
   A46        2.31124   0.00056   0.00020   0.00065   0.00087   2.31210
    D1        1.15997   0.00013  -0.00205   0.00349   0.00144   1.16141
    D2       -3.08958  -0.00007  -0.00196   0.00240   0.00043  -3.08914
    D3       -0.96806   0.00002  -0.00228   0.00313   0.00085  -0.96722
    D4        1.05332  -0.00003  -0.00310  -0.00117  -0.00427   1.04905
    D5       -0.95424  -0.00001  -0.00314  -0.00120  -0.00434  -0.95857
    D6       -3.03883   0.00001  -0.00308  -0.00026  -0.00333  -3.04216
    D7       -1.06863   0.00002  -0.00321  -0.00036  -0.00357  -1.07220
    D8       -3.07619   0.00004  -0.00325  -0.00038  -0.00364  -3.07983
    D9        1.12240   0.00007  -0.00318   0.00055  -0.00263   1.11977
   D10       -3.11190  -0.00008  -0.00371  -0.00159  -0.00529  -3.11719
   D11        1.16373  -0.00006  -0.00375  -0.00161  -0.00536   1.15837
   D12       -0.92086  -0.00003  -0.00368  -0.00068  -0.00435  -0.92522
   D13        0.37137   0.00001  -0.00066   0.00131   0.00064   0.37201
   D14        2.44192  -0.00005  -0.00071   0.00085   0.00014   2.44206
   D15       -1.73846  -0.00007  -0.00080   0.00022  -0.00058  -1.73904
   D16        2.54805   0.00006  -0.00059   0.00210   0.00150   2.54956
   D17       -1.66459  -0.00000  -0.00064   0.00164   0.00100  -1.66358
   D18        0.43822  -0.00002  -0.00073   0.00101   0.00028   0.43850
   D19       -1.71628   0.00008  -0.00063   0.00269   0.00205  -1.71422
   D20        0.35427   0.00002  -0.00068   0.00223   0.00155   0.35582
   D21        2.45708   0.00000  -0.00077   0.00160   0.00083   2.45791
   D22       -1.18184   0.00007   0.00110   0.00124   0.00234  -1.17950
   D23        3.03675   0.00001   0.00104   0.00135   0.00240   3.03914
   D24        0.95254   0.00007   0.00111   0.00131   0.00241   0.95496
   D25        2.95506   0.00002   0.00099   0.00035   0.00134   2.95640
   D26        0.89046  -0.00004   0.00093   0.00046   0.00139   0.89185
   D27       -1.19375   0.00002   0.00099   0.00042   0.00141  -1.19233
   D28        0.96803   0.00003   0.00105   0.00055   0.00160   0.96963
   D29       -1.09657  -0.00003   0.00099   0.00067   0.00166  -1.09492
   D30        3.10241   0.00003   0.00105   0.00062   0.00167   3.10408
   D31       -3.11659  -0.00001  -0.00023  -0.00099  -0.00121  -3.11780
   D32       -1.00610   0.00000  -0.00023  -0.00098  -0.00121  -1.00731
   D33        1.09006   0.00002  -0.00019  -0.00099  -0.00118   1.08888
   D34       -1.06234   0.00012   0.00017  -0.00094  -0.00077  -1.06311
   D35        1.04815   0.00013   0.00017  -0.00093  -0.00076   1.04738
   D36       -3.13887   0.00015   0.00021  -0.00095  -0.00074  -3.13961
   D37        1.02090  -0.00019  -0.00067  -0.00159  -0.00226   1.01864
   D38        3.13138  -0.00018  -0.00067  -0.00158  -0.00225   3.12913
   D39       -1.05563  -0.00016  -0.00063  -0.00160  -0.00223  -1.05786
   D40        1.00944  -0.00002   0.00044  -0.00092  -0.00048   1.00896
   D41        3.12556  -0.00002   0.00047  -0.00095  -0.00048   3.12508
   D42       -1.07847  -0.00005   0.00037  -0.00093  -0.00056  -1.07903
   D43       -1.07768  -0.00010   0.00012  -0.00107  -0.00095  -1.07863
   D44        1.03845  -0.00010   0.00015  -0.00110  -0.00095   1.03749
   D45        3.11760  -0.00013   0.00005  -0.00108  -0.00103   3.11657
   D46        3.11416   0.00016   0.00090  -0.00036   0.00054   3.11470
   D47       -1.05290   0.00017   0.00093  -0.00039   0.00054  -1.05236
   D48        1.02625   0.00013   0.00083  -0.00037   0.00046   1.02671
   D49        0.94865   0.00010   0.00057  -0.00029   0.00027   0.94893
   D50       -1.08921  -0.00010   0.00012  -0.00067  -0.00055  -1.08976
   D51        3.08224   0.00000   0.00022  -0.00020   0.00002   3.08226
   D52        3.08898   0.00018   0.00089   0.00010   0.00099   3.08996
   D53        1.05111  -0.00003   0.00044  -0.00028   0.00016   1.05128
   D54       -1.06062   0.00008   0.00054   0.00019   0.00073  -1.05989
   D55       -1.11824  -0.00002   0.00017  -0.00053  -0.00036  -1.11861
   D56        3.12708  -0.00022  -0.00028  -0.00090  -0.00118   3.12589
   D57        1.01534  -0.00012  -0.00018  -0.00043  -0.00061   1.01473
   D58        0.05232  -0.00002  -0.00264   0.00142  -0.00122   0.05111
   D59       -3.09870   0.00000  -0.00043  -0.00091  -0.00133  -3.10003
   D60        2.16791  -0.00015  -0.00299   0.00144  -0.00154   2.16636
   D61       -0.98312  -0.00013  -0.00078  -0.00088  -0.00166  -0.98478
   D62       -2.05604   0.00009  -0.00254   0.00180  -0.00074  -2.05678
   D63        1.07612   0.00012  -0.00034  -0.00052  -0.00086   1.07527
         Item               Value     Threshold  Converged?
 Maximum Force            0.001308     0.000450     NO 
 RMS     Force            0.000196     0.000300     YES
 Maximum Displacement     0.012372     0.001800     NO 
 RMS     Displacement     0.002812     0.001200     NO 
 Predicted change in Energy=-6.458734D-06
 GradGradGradGradGradGradGradGradGradGradGradGradGradGradGradGradGradGrad

                          Input orientation:                          
 ---------------------------------------------------------------------
 Center     Atomic      Atomic             Coordinates (Angstroms)
 Number     Number       Type             X           Y           Z
 ---------------------------------------------------------------------
      1          7           0        2.427822    0.992046    0.390034
      2          1           0        2.100095    1.236501    1.328683
      3          6           0        1.299806    0.499301   -0.345683
      4          1           0        0.586484    1.320904   -0.494923
      5          1           0        1.635668    0.181149   -1.335127
      6          6           0        0.596009   -0.675023    0.355528
      7          1           0        0.235359   -0.358723    1.334947
      8          1           0        1.341289   -1.447154    0.546511
      9          6           0       -0.523689   -1.305827   -0.474079
     10          1           0       -0.382964   -1.074147   -1.529438
     11          1           0       -0.510644   -2.390051   -0.372333
     12          7           0       -1.930847   -0.889610   -0.139626
     13          6           0       -2.319474   -1.393510    1.211588
     14          1           0       -3.347201   -1.081080    1.378828
     15          1           0       -2.216233   -2.476372    1.220810
     16          1           0       -1.669072   -0.950124    1.959125
     17          6           0       -2.837936   -1.507871   -1.155348
     18          1           0       -2.703515   -2.587065   -1.130427
     19          1           0       -3.853051   -1.217725   -0.898637
     20          1           0       -2.569627   -1.119973   -2.134909
     21          6           0       -2.080813    0.617136   -0.190810
     22          1           0       -1.735544    0.932326   -1.173546
     23          1           0       -1.422080    1.029867    0.568088
     24          6           0       -3.518903    1.214482    0.055070
     25          8           0       -4.432698    0.416537    0.331442
     26          8           0       -3.492849    2.435914   -0.063788
 ---------------------------------------------------------------------
                    Distance matrix (angstroms):
                    1          2          3          4          5
     1  N    0.000000
     2  H    1.023829   0.000000
     3  C    1.434050   1.996855   0.000000
     4  H    2.069256   2.371430   1.098240   0.000000
     5  H    2.064278   2.902645   1.092256   1.762319   0.000000
     6  C    2.477064   2.619776   1.538201   2.169580   2.161535
     7  H    2.743052   2.453980   2.166511   2.508557   3.062944
     8  H    2.674834   2.896478   2.141593   3.052287   2.505712
     9  C    3.839053   4.074018   2.569067   2.851777   2.759587
    10  H    3.981715   4.435486   2.590122   2.783222   2.385037
    11  H    4.544707   4.781348   3.409808   3.871679   3.484924
    12  N    4.776941   4.787982   3.522591   3.368911   3.910981
    13  C    5.376119   5.144245   4.371157   4.327218   4.960691
    14  H    6.215019   5.920028   5.202520   4.975374   5.812724
    15  H    5.855541   5.694537   4.865291   5.021779   5.332201
    16  H    4.797772   4.402886   4.028301   4.033293   4.801373
    17  C    6.030423   6.171397   4.669604   4.490521   4.785210
    18  H    6.438359   6.613739   5.115472   5.147833   5.151060
    19  H    6.781824   6.813525   5.459475   5.130019   5.680969
    20  H    5.984184   6.273415   4.560250   4.313754   4.474044
    21  C    4.561330   4.491377   3.386215   2.775293   3.913026
    22  H    4.447692   4.589749   3.175880   2.450171   3.457664
    23  H    3.854204   3.609282   2.919785   2.291076   3.700321
    24  C    5.960304   5.761572   4.887948   4.143431   5.437833
    25  O    6.884866   6.659145   5.772950   5.166522   6.297454
    26  O    6.111060   5.887154   5.176820   4.250892   5.744732
                    6          7          8          9         10
     6  C    0.000000
     7  H    1.090585   0.000000
     8  H    1.090001   1.740516   0.000000
     9  C    1.529669   2.178471   2.130662   0.000000
    10  H    2.161201   3.016432   2.724289   1.089616   0.000000
    11  H    2.166976   2.756378   2.272220   1.089066   1.756928
    12  N    2.583840   2.673696   3.389471   1.505055   2.088438
    13  C    3.122356   2.759198   3.721074   2.464550   3.371244
    14  H    4.094012   3.654923   4.775845   3.384671   4.152681
    15  H    3.449968   3.241569   3.764297   2.665995   3.590400
    16  H    2.788870   2.089548   3.362260   2.712730   3.720151
    17  C    3.842963   4.119133   4.512863   2.420886   2.520901
    18  H    4.092778   4.436278   4.524595   2.612280   2.798765
    19  H    4.654202   4.737286   5.396504   3.357479   3.529876
    20  H    4.052346   4.526295   4.753138   2.641734   2.269402
    21  C    3.022175   2.940219   4.063954   2.490515   2.745006
    22  H    3.218350   3.441482   4.252930   2.639540   2.445826
    23  H    2.650380   2.294201   3.711106   2.710846   3.147420
    24  C    4.537952   4.267029   5.563028   3.950097   4.193161
    25  O    5.145870   4.837231   6.071122   4.346925   4.699506
    26  O    5.154853   4.864770   6.230535   4.794254   4.913251
                   11         12         13         14         15
    11  H    0.000000
    12  N    2.079051   0.000000
    13  C    2.602646   1.493561   0.000000
    14  H    3.581344   2.085287   1.087108   0.000000
    15  H    2.335506   2.109513   1.087812   1.803025   0.000000
    16  H    2.975069   2.115878   1.085553   1.780452   1.781551
    17  C    2.609146   1.495577   2.425751   2.619838   2.640196
    18  H    2.328563   2.111885   2.656519   2.996446   2.403749
    19  H    3.580925   2.092517   2.614538   2.336965   2.958956
    20  H    2.993189   2.107668   3.366963   3.598956   3.636696
    21  C    3.397286   1.515056   2.463002   2.636558   3.403058
    22  H    3.630497   2.103945   3.382210   3.628478   4.193235
    23  H    3.662095   2.108102   2.663111   2.969761   3.653824
    24  C    4.714335   2.643299   3.094800   2.655451   4.083908
    25  O    4.873883   2.861325   2.918328   2.125600   3.751348
    26  O    5.681433   3.674875   4.203318   3.804156   5.235503
                   16         17         18         19         20
    16  H    0.000000
    17  C    3.373020   0.000000
    18  H    3.646228   1.087819   0.000000
    19  H    3.606685   1.086528   1.802845   0.000000
    20  H    4.195349   1.087195   1.783051   1.784685   0.000000
    21  C    2.692221   2.453411   3.396696   2.647369   2.652547
    22  H    3.655360   2.677715   3.650334   3.030203   2.414921
    23  H    2.432355   3.378608   4.196335   3.621128   3.639350
    24  C    3.425320   3.056147   4.064729   2.633789   3.338684
    25  O    3.486365   2.908119   3.761484   2.126005   3.451780
    26  O    4.345526   4.144135   5.195295   3.765076   4.217370
                   21         22         23         24         25
    21  C    0.000000
    22  H    1.088267   0.000000
    23  H    1.086371   1.772304   0.000000
    24  C    1.576509   2.183914   2.166549   0.000000
    25  O    2.417509   3.131400   3.081557   1.244234   0.000000
    26  O    2.306064   2.565241   2.581534   1.227478   2.262169
                   26
    26  O    0.000000
 Stoichiometry    C7H15N2O2(2)
 Framework group  C1[X(C7H15N2O2)]
 Deg. of freedom    72
 Full point group                 C1      NOp   1
 Largest Abelian subgroup         C1      NOp   1
 Largest concise Abelian subgroup C1      NOp   1
                         Standard orientation:                         
 ---------------------------------------------------------------------
 Center     Atomic      Atomic             Coordinates (Angstroms)
 Number     Number       Type             X           Y           Z
 ---------------------------------------------------------------------
      1          7           0        3.873468    1.253955    0.227906
      2          1           0        3.551534    1.542637    1.155940
      3          6           0        2.760695    0.650546   -0.445989
      4          1           0        1.998639    1.419166   -0.632062
      5          1           0        3.093927    0.285471   -1.420001
      6          6           0        2.139706   -0.511096    0.348381
      7          1           0        1.781632   -0.149924    1.313117
      8          1           0        2.931684   -1.225834    0.572039
      9          6           0        1.041217   -1.257914   -0.410217
     10          1           0        1.146870   -1.090596   -1.481713
     11          1           0        1.118345   -2.330371   -0.237148
     12          7           0       -0.380322   -0.899094   -0.070123
     13          6           0       -0.711802   -1.331408    1.320543
     14          1           0       -1.752089   -1.066135    1.491535
     15          1           0       -0.546613   -2.403735    1.399043
     16          1           0       -0.072698   -0.802979    2.021066
     17          6           0       -1.271113   -1.634149   -1.020352
     18          1           0       -1.074691   -2.700024   -0.927189
     19          1           0       -2.295709   -1.384327   -0.758940
     20          1           0       -1.045501   -1.298982   -2.029686
     21          6           0       -0.617258    0.590049   -0.217457
     22          1           0       -0.310732    0.856860   -1.227000
     23          1           0        0.032148    1.089172    0.496231
     24          6           0       -2.081843    1.121593    0.023024
     25          8           0       -2.942655    0.294479    0.373743
     26          8           0       -2.128143    2.331753   -0.177159
 ---------------------------------------------------------------------
 Rotational constants (GHZ):           1.5737811           0.6450622           0.5209010
 Standard basis: 6-311+G(2d,2p) (5D, 7F)
 There are   454 symmetry adapted cartesian basis functions of A   symmetry.
 There are   432 symmetry adapted basis functions of A   symmetry.
   432 basis functions,   627 primitive gaussians,   454 cartesian basis functions
    44 alpha electrons       43 beta electrons
       nuclear repulsion energy       669.2812931599 Hartrees.
 NAtoms=   26 NActive=   26 NUniq=   26 SFac= 1.00D+00 NAtFMM=   60 NAOKFM=F Big=F
 Integral buffers will be    131072 words long.
 Raffenetti 2 integral format.
 Two-electron integral symmetry is turned on.
 Nuclear repulsion after empirical dispersion term =      669.2603627388 Hartrees.
 One-electron integrals computed using PRISM.
 NBasis=   432 RedAO= T EigKep=  1.19D-05  NBF=   432
 NBsUse=   432 1.00D-06 EigRej= -1.00D+00 NBFU=   432
 Initial guess from the checkpoint file:  "aminopropyl_betaine.chk"
 B after Tr=     0.000000   -0.000000   -0.000000
         Rot=    1.000000    0.000194   -0.000078   -0.000133 Ang=   0.03 deg.
 Initial guess <Sx>= 0.0000 <Sy>= 0.0000 <Sz>= 0.5000 <S**2>= 0.7543 S= 0.5021
 Requested convergence on RMS density matrix=1.00D-08 within  32 cycles.
 Requested convergence on MAX density matrix=1.00D-06.
 Requested convergence on             energy=1.00D-06.
 No special actions if energy rises.
 SCF Done:  E(UwB97XD) =  -535.629787791     A.U. after   13 cycles
            NFock= 13  Conv=0.34D-08     -V/T= 2.0039
 <Sx>= 0.0000 <Sy>= 0.0000 <Sz>= 0.5000 <S**2>= 0.7543 S= 0.5021
 <L.S>= 0.000000000000E+00
 Annihilation of the first spin contaminant:
 S**2 before annihilation     0.7543,   after     0.7500
 QCSCF skips out because SCF is already converged.
 Calling FoFJK, ICntrl=      2127 FMM=F ISym2X=0 I1Cent= 0 IOpClX= 1 NMat=1 NMatS=1 NMatT=0.
 ***** Axes restored to original set *****
 -------------------------------------------------------------------
 Center     Atomic                   Forces (Hartrees/Bohr)
 Number     Number              X              Y              Z
 -------------------------------------------------------------------
      1        7          -0.000003888    0.000140419   -0.000064336
      2        1          -0.000009522   -0.000071952   -0.000025769
      3        6          -0.000041836   -0.000166552    0.000192373
      4        1           0.000042574    0.000073393   -0.000034690
      5        1           0.000008212    0.000018359    0.000004343
      6        6          -0.000021725    0.000099744   -0.000103369
      7        1          -0.000006151   -0.000005812   -0.000003588
      8        1           0.000001469   -0.000036749   -0.000011176
      9        6           0.000006609   -0.000034499    0.000058047
     10        1           0.000001166   -0.000001542    0.000004541
     11        1          -0.000003824   -0.000008959    0.000009164
     12        7           0.000011085    0.000008936   -0.000027379
     13        6          -0.000007147    0.000019469    0.000001861
     14        1          -0.000011286    0.000002588   -0.000007486
     15        1          -0.000007220    0.000000995    0.000003802
     16        1           0.000010271   -0.000003841   -0.000005785
     17        6          -0.000021041    0.000012401    0.000018250
     18        1           0.000000656   -0.000000923   -0.000002321
     19        1           0.000000491    0.000004537   -0.000009628
     20        1          -0.000006416    0.000006832    0.000005950
     21        6           0.000028509   -0.000012583   -0.000033456
     22        1           0.000012944   -0.000007030   -0.000000338
     23        1           0.000021045   -0.000006220    0.000019193
     24        6           0.000021049    0.000002853    0.000037968
     25        8           0.000001321   -0.000025325   -0.000014123
     26        8          -0.000027348   -0.000008541   -0.000012047
 -------------------------------------------------------------------
 Cartesian Forces:  Max     0.000192373 RMS     0.000042732

 GradGradGradGradGradGradGradGradGradGradGradGradGradGradGradGradGradGrad
 Berny optimization.
 Using GEDIIS/GDIIS optimizer.
 FormGI is forming the generalized inverse of G from B-inverse, IUseBI=4.
 Internal  Forces:  Max     0.000129063 RMS     0.000027419
 Search for a local minimum.
 Step number  10 out of a maximum of  144
 All quantities printed in internal units (Hartrees-Bohrs-Radians)
 Mixed Optimization -- En-DIIS/RFO-DIIS
 Swapping is turned off.
 Update second derivatives using D2CorX and points    1    4    3    5    2
                                                      6    7    8    9   10
 DE= -6.69D-06 DEPred=-6.46D-06 R= 1.04D+00
 TightC=F SS=  1.41D+00  RLast= 1.64D-02 DXNew= 1.7838D-01 4.9333D-02
 Trust test= 1.04D+00 RLast= 1.64D-02 DXMaxT set to 1.06D-01
 ITU=  1  1 -1  0  0  0 -1 -1  1  0
     Eigenvalues ---    0.00209   0.00256   0.00303   0.00369   0.00433
     Eigenvalues ---    0.00458   0.00816   0.01593   0.03247   0.03415
     Eigenvalues ---    0.03914   0.04631   0.04734   0.04794   0.04849
     Eigenvalues ---    0.05086   0.05250   0.05867   0.05991   0.06073
     Eigenvalues ---    0.06131   0.06229   0.06476   0.08581   0.08827
     Eigenvalues ---    0.08977   0.09849   0.10945   0.12393   0.12621
     Eigenvalues ---    0.13710   0.14179   0.14512   0.15904   0.15990
     Eigenvalues ---    0.15999   0.16000   0.16003   0.16009   0.17773
     Eigenvalues ---    0.18413   0.21366   0.21896   0.22386   0.24225
     Eigenvalues ---    0.25069   0.25460   0.27553   0.29494   0.30341
     Eigenvalues ---    0.31756   0.32879   0.33305   0.34730   0.34807
     Eigenvalues ---    0.34811   0.34920   0.34951   0.35018   0.35062
     Eigenvalues ---    0.35072   0.35089   0.35122   0.35144   0.35218
     Eigenvalues ---    0.35295   0.35338   0.39391   0.46161   0.55807
     Eigenvalues ---    0.85647   0.91968
 En-DIIS/RFO-DIIS/Sim-DIIS IScMMF=       -3 using points:    10    9    8    7    6
 RFO step:  Lambda=-1.65559959D-06.
 DidBck=F Rises=F RFO-DIIS coefs:    1.33469   -0.13872   -0.06733   -0.06259   -0.06605
 Iteration  1 RMS(Cart)=  0.00283472 RMS(Int)=  0.00000665
 Iteration  2 RMS(Cart)=  0.00000824 RMS(Int)=  0.00000142
 Iteration  3 RMS(Cart)=  0.00000000 RMS(Int)=  0.00000142
 Variable       Old X    -DE/DX   Delta X   Delta X   Delta X     New X
                                 (Linear)    (Quad)   (Total)
    R1        1.93476  -0.00004  -0.00033   0.00003  -0.00030   1.93446
    R2        2.70996  -0.00003  -0.00002  -0.00014  -0.00016   2.70981
    R3        2.07537   0.00003  -0.00014   0.00018   0.00004   2.07542
    R4        2.06406  -0.00001   0.00001  -0.00002  -0.00001   2.06405
    R5        2.90678  -0.00004  -0.00024  -0.00005  -0.00029   2.90649
    R6        2.06091  -0.00000  -0.00000  -0.00001  -0.00001   2.06090
    R7        2.05980   0.00003  -0.00005   0.00011   0.00007   2.05987
    R8        2.89065  -0.00003  -0.00011  -0.00009  -0.00021   2.89045
    R9        2.05908  -0.00000   0.00000  -0.00002  -0.00002   2.05906
   R10        2.05804   0.00001   0.00001   0.00003   0.00004   2.05808
   R11        2.84414  -0.00003   0.00001  -0.00014  -0.00013   2.84401
   R12        2.82242  -0.00001   0.00001  -0.00004  -0.00004   2.82239
   R13        2.82623  -0.00000   0.00002  -0.00000   0.00002   2.82625
   R14        2.86304  -0.00006   0.00005  -0.00026  -0.00021   2.86283
   R15        2.05434   0.00001   0.00001   0.00004   0.00005   2.05439
   R16        2.05567  -0.00000   0.00000  -0.00001  -0.00000   2.05566
   R17        2.05140   0.00000   0.00001   0.00000   0.00001   2.05141
   R18        2.05568   0.00000  -0.00000   0.00000   0.00000   2.05568
   R19        2.05324  -0.00000  -0.00001  -0.00001  -0.00001   2.05323
   R20        2.05450  -0.00000   0.00001  -0.00002  -0.00001   2.05449
   R21        2.05653   0.00000  -0.00002   0.00001  -0.00001   2.05652
   R22        2.05294   0.00002  -0.00001   0.00010   0.00009   2.05304
   R23        2.97917  -0.00001  -0.00001  -0.00001  -0.00002   2.97915
   R24        2.35126   0.00001  -0.00002   0.00002   0.00001   2.35127
   R25        2.31960  -0.00001  -0.00004  -0.00000  -0.00004   2.31956
    A1        1.87612  -0.00007   0.00109  -0.00087   0.00022   1.87635
    A2        1.90029  -0.00009  -0.00045  -0.00070  -0.00115   1.89915
    A3        1.89965  -0.00005  -0.00027  -0.00012  -0.00039   1.89925
    A4        1.96964   0.00012   0.00024   0.00072   0.00096   1.97060
    A5        1.86976  -0.00002  -0.00003  -0.00043  -0.00047   1.86929
    A6        1.91336   0.00004   0.00018   0.00041   0.00058   1.91394
    A7        1.90845  -0.00001   0.00032   0.00006   0.00038   1.90883
    A8        1.91695  -0.00002  -0.00001  -0.00021  -0.00021   1.91674
    A9        1.88371   0.00001  -0.00039   0.00044   0.00005   1.88376
   A10        1.98505   0.00005   0.00017   0.00029   0.00046   1.98551
   A11        1.84856   0.00001   0.00018   0.00002   0.00019   1.84875
   A12        1.94400  -0.00002   0.00013  -0.00028  -0.00015   1.94385
   A13        1.87905  -0.00004  -0.00010  -0.00026  -0.00036   1.87870
   A14        1.92098   0.00001   0.00004  -0.00026  -0.00022   1.92077
   A15        1.92955   0.00002  -0.00018   0.00043   0.00025   1.92980
   A16        2.03735  -0.00005   0.00017  -0.00038  -0.00020   2.03715
   A17        1.87614  -0.00000  -0.00003   0.00013   0.00009   1.87623
   A18        1.85166   0.00001   0.00010  -0.00029  -0.00019   1.85147
   A19        1.83978   0.00002  -0.00011   0.00041   0.00030   1.84008
   A20        1.92945   0.00001  -0.00004   0.00023   0.00019   1.92964
   A21        1.87740   0.00002  -0.00015   0.00046   0.00031   1.87771
   A22        1.93914  -0.00001  -0.00001  -0.00021  -0.00022   1.93891
   A23        1.89350  -0.00001   0.00004   0.00000   0.00004   1.89354
   A24        1.91807  -0.00001   0.00006  -0.00032  -0.00025   1.91782
   A25        1.90514  -0.00000   0.00010  -0.00016  -0.00005   1.90508
   A26        1.86315  -0.00001  -0.00005  -0.00009  -0.00013   1.86301
   A27        1.89528   0.00001  -0.00003   0.00008   0.00006   1.89534
   A28        1.90635  -0.00001   0.00001  -0.00007  -0.00006   1.90629
   A29        1.95466  -0.00000   0.00004  -0.00005  -0.00001   1.95465
   A30        1.92101   0.00001   0.00004   0.00011   0.00015   1.92115
   A31        1.92185  -0.00000  -0.00002   0.00001  -0.00001   1.92183
   A32        1.89611   0.00000  -0.00003   0.00007   0.00005   1.89616
   A33        1.87109   0.00001   0.00002   0.00005   0.00006   1.87115
   A34        1.89098  -0.00001   0.00002  -0.00008  -0.00006   1.89092
   A35        1.95515  -0.00000  -0.00002   0.00006   0.00004   1.95519
   A36        1.92208   0.00000  -0.00002   0.00004   0.00002   1.92210
   A37        1.92641  -0.00001   0.00003  -0.00015  -0.00012   1.92630
   A38        1.86204   0.00003  -0.00001   0.00013   0.00012   1.86216
   A39        1.86943   0.00002  -0.00009  -0.00005  -0.00013   1.86930
   A40        2.05088  -0.00013   0.00022  -0.00084  -0.00063   2.05025
   A41        1.90542  -0.00001  -0.00004   0.00015   0.00011   1.90553
   A42        1.89706   0.00005   0.00002   0.00036   0.00038   1.89744
   A43        1.87572   0.00005  -0.00012   0.00030   0.00018   1.87590
   A44        2.05058  -0.00005  -0.00006  -0.00023  -0.00030   2.05028
   A45        1.92045   0.00005  -0.00006   0.00030   0.00023   1.92069
   A46        2.31210  -0.00000   0.00012  -0.00005   0.00006   2.31217
    D1        1.16141   0.00009   0.00216   0.00500   0.00716   1.16858
    D2       -3.08914  -0.00001   0.00172   0.00403   0.00576  -3.08338
    D3       -0.96722   0.00003   0.00209   0.00450   0.00660  -0.96062
    D4        1.04905  -0.00000   0.00111  -0.00027   0.00084   1.04990
    D5       -0.95857  -0.00001   0.00112  -0.00042   0.00070  -0.95788
    D6       -3.04216  -0.00001   0.00140  -0.00058   0.00082  -3.04133
    D7       -1.07220   0.00001   0.00139  -0.00015   0.00125  -1.07096
    D8       -3.07983  -0.00000   0.00140  -0.00030   0.00110  -3.07873
    D9        1.11977   0.00000   0.00169  -0.00046   0.00123   1.12100
   D10       -3.11719   0.00001   0.00115   0.00010   0.00125  -3.11594
   D11        1.15837  -0.00000   0.00116  -0.00005   0.00111   1.15947
   D12       -0.92522   0.00001   0.00145  -0.00021   0.00123  -0.92398
   D13        0.37201   0.00001   0.00077   0.00307   0.00384   0.37585
   D14        2.44206   0.00002   0.00064   0.00333   0.00397   2.44603
   D15       -1.73904   0.00003   0.00047   0.00395   0.00442  -1.73463
   D16        2.54956   0.00000   0.00099   0.00280   0.00379   2.55335
   D17       -1.66358   0.00001   0.00086   0.00306   0.00392  -1.65966
   D18        0.43850   0.00002   0.00070   0.00367   0.00437   0.44287
   D19       -1.71422  -0.00001   0.00122   0.00252   0.00374  -1.71049
   D20        0.35582  -0.00000   0.00109   0.00278   0.00387   0.35969
   D21        2.45791   0.00001   0.00092   0.00339   0.00431   2.46223
   D22       -1.17950  -0.00001  -0.00015  -0.00321  -0.00335  -1.18285
   D23        3.03914  -0.00002  -0.00008  -0.00362  -0.00369   3.03545
   D24        0.95496  -0.00002  -0.00011  -0.00359  -0.00370   0.95126
   D25        2.95640   0.00001  -0.00039  -0.00239  -0.00278   2.95362
   D26        0.89185  -0.00000  -0.00033  -0.00280  -0.00312   0.88873
   D27       -1.19233  -0.00000  -0.00035  -0.00277  -0.00312  -1.19546
   D28        0.96963   0.00000  -0.00035  -0.00258  -0.00294   0.96670
   D29       -1.09492  -0.00001  -0.00028  -0.00299  -0.00328  -1.09819
   D30        3.10408  -0.00001  -0.00031  -0.00297  -0.00328   3.10081
   D31       -3.11780  -0.00002  -0.00022  -0.00095  -0.00116  -3.11897
   D32       -1.00731  -0.00002  -0.00020  -0.00101  -0.00122  -1.00853
   D33        1.08888  -0.00002  -0.00024  -0.00099  -0.00123   1.08765
   D34       -1.06311   0.00001  -0.00040  -0.00025  -0.00065  -1.06376
   D35        1.04738   0.00001  -0.00039  -0.00032  -0.00070   1.04668
   D36       -3.13961   0.00001  -0.00042  -0.00030  -0.00072  -3.14033
   D37        1.01864  -0.00000  -0.00021  -0.00063  -0.00084   1.01780
   D38        3.12913  -0.00000  -0.00020  -0.00069  -0.00089   3.12824
   D39       -1.05786  -0.00000  -0.00024  -0.00067  -0.00091  -1.05877
   D40        1.00896   0.00001  -0.00051   0.00006  -0.00045   1.00851
   D41        3.12508   0.00001  -0.00054   0.00021  -0.00033   3.12475
   D42       -1.07903   0.00001  -0.00049   0.00002  -0.00047  -1.07950
   D43       -1.07863  -0.00001  -0.00040  -0.00048  -0.00088  -1.07951
   D44        1.03749  -0.00001  -0.00043  -0.00033  -0.00076   1.03673
   D45        3.11657  -0.00002  -0.00037  -0.00052  -0.00090   3.11567
   D46        3.11470   0.00000  -0.00056  -0.00000  -0.00056   3.11414
   D47       -1.05236   0.00001  -0.00059   0.00014  -0.00045  -1.05281
   D48        1.02671  -0.00000  -0.00053  -0.00005  -0.00058   1.02613
   D49        0.94893   0.00001  -0.00097   0.00024  -0.00073   0.94820
   D50       -1.08976  -0.00000  -0.00088   0.00003  -0.00085  -1.09061
   D51        3.08226   0.00001  -0.00080   0.00024  -0.00056   3.08170
   D52        3.08996   0.00001  -0.00099   0.00018  -0.00081   3.08915
   D53        1.05128  -0.00000  -0.00090  -0.00004  -0.00093   1.05034
   D54       -1.05989   0.00001  -0.00082   0.00018  -0.00065  -1.06053
   D55       -1.11861  -0.00001  -0.00085  -0.00010  -0.00095  -1.11955
   D56        3.12589  -0.00002  -0.00075  -0.00032  -0.00107   3.12482
   D57        1.01473  -0.00001  -0.00068  -0.00010  -0.00078   1.01395
   D58        0.05111  -0.00001   0.00135  -0.00045   0.00091   0.05201
   D59       -3.10003   0.00001  -0.00040   0.00126   0.00086  -3.09917
   D60        2.16636  -0.00003   0.00151  -0.00058   0.00093   2.16729
   D61       -0.98478  -0.00000  -0.00024   0.00113   0.00088  -0.98390
   D62       -2.05678   0.00001   0.00141  -0.00005   0.00136  -2.05542
   D63        1.07527   0.00003  -0.00034   0.00166   0.00131   1.07658
         Item               Value     Threshold  Converged?
 Maximum Force            0.000129     0.000450     YES
 RMS     Force            0.000027     0.000300     YES
 Maximum Displacement     0.009692     0.001800     NO 
 RMS     Displacement     0.002835     0.001200     NO 
 Predicted change in Energy=-7.910253D-07
 GradGradGradGradGradGradGradGradGradGradGradGradGradGradGradGradGradGrad

                          Input orientation:                          
 ---------------------------------------------------------------------
 Center     Atomic      Atomic             Coordinates (Angstroms)
 Number     Number       Type             X           Y           Z
 ---------------------------------------------------------------------
      1          7           0        2.425233    0.996309    0.386526
      2          1           0        2.101092    1.233796    1.328034
      3          6           0        1.296395    0.501315   -0.346256
      4          1           0        0.581872    1.322318   -0.493198
      5          1           0        1.630539    0.185129   -1.336905
      6          6           0        0.596194   -0.674744    0.355310
      7          1           0        0.236362   -0.359489    1.335362
      8          1           0        1.343356   -1.445491    0.544732
      9          6           0       -0.523404   -1.307933   -0.472413
     10          1           0       -0.382707   -1.078850   -1.528334
     11          1           0       -0.510376   -2.391916   -0.367900
     12          7           0       -1.930387   -0.890435   -0.139130
     13          6           0       -2.320904   -1.393997    1.211644
     14          1           0       -3.348110   -1.079413    1.378226
     15          1           0       -2.219997   -2.477079    1.220591
     16          1           0       -1.669970   -0.952252    1.959697
     17          6           0       -2.837521   -1.507128   -1.155783
     18          1           0       -2.704123   -2.586467   -1.131631
     19          1           0       -3.852511   -1.216194   -0.899499
     20          1           0       -2.568326   -1.118696   -2.134882
     21          6           0       -2.078421    0.616404   -0.189877
     22          1           0       -1.731136    0.931742   -1.171850
     23          1           0       -1.420493    1.027867    0.570475
     24          6           0       -3.516503    1.214486    0.054189
     25          8           0       -4.430751    0.416757    0.329705
     26          8           0       -3.490011    2.435868   -0.064855
 ---------------------------------------------------------------------
                    Distance matrix (angstroms):
                    1          2          3          4          5
     1  N    0.000000
     2  H    1.023672   0.000000
     3  C    1.433968   1.996826   0.000000
     4  H    2.068375   2.373342   1.098263   0.000000
     5  H    2.063920   2.902245   1.092250   1.762028   0.000000
     6  C    2.477655   2.617906   1.538048   2.169891   2.161676
     7  H    2.744018   2.452719   2.166217   2.508283   3.062899
     8  H    2.675420   2.892456   2.141522   3.052527   2.506382
     9  C    3.839501   4.073079   2.569234   2.853118   2.759720
    10  H    3.982147   4.435812   2.591064   2.787028   2.384837
    11  H    4.546100   4.779304   3.411111   3.873530   3.487642
    12  N    4.775724   4.787249   3.520227   3.366465   3.907902
    13  C    5.377750   5.145181   4.370825   4.325616   4.960105
    14  H    6.214787   5.920072   5.200381   4.971448   5.810159
    15  H    5.859884   5.696836   4.867325   5.022245   5.334300
    16  H    4.800255   4.404397   4.028598   4.032512   4.801519
    17  C    6.028473   6.170244   4.666738   4.487430   4.781224
    18  H    6.438274   6.613203   5.114231   5.146256   5.149095
    19  H    6.779314   6.812470   5.455928   5.125707   5.676166
    20  H    5.980499   6.271322   4.556280   4.310153   4.468467
    21  C    4.556256   4.489272   3.380397   2.769021   3.906157
    22  H    4.439381   4.585480   3.167462   2.441951   3.447540
    23  H    3.850252   3.608028   2.915328   2.286387   3.695552
    24  C    5.955021   5.760245   4.881901   4.136174   5.430171
    25  O    6.880670   6.658016   5.767519   5.159806   6.290507
    26  O    6.104603   5.886047   5.170238   4.243076   5.736198
                    6          7          8          9         10
     6  C    0.000000
     7  H    1.090580   0.000000
     8  H    1.090038   1.740670   0.000000
     9  C    1.529560   2.178265   2.130328   0.000000
    10  H    2.160940   3.016865   2.722374   1.089607   0.000000
    11  H    2.167074   2.754900   2.272651   1.089087   1.757000
    12  N    2.583526   2.674104   3.390155   1.504986   2.088229
    13  C    3.124115   2.761362   3.724812   2.464642   3.370965
    14  H    4.094832   3.656305   4.778972   3.384678   4.152313
    15  H    3.453701   3.245158   3.770735   2.666756   3.589883
    16  H    2.790443   2.091714   3.365345   2.712246   3.720139
    17  C    3.842742   4.119664   4.513899   2.421117   2.519589
    18  H    4.093626   4.437559   4.527042   2.612423   2.796293
    19  H    4.653890   4.737872   5.397723   3.357644   3.528999
    20  H    4.051214   4.526065   4.752724   2.642219   2.268572
    21  C    3.019579   2.938868   4.061972   2.490176   2.746051
    22  H    3.213951   3.438668   4.248575   2.638934   2.447003
    23  H    2.648057   2.292374   3.709046   2.710783   3.149644
    24  C    4.535872   4.266473   5.561864   3.949499   4.193381
    25  O    5.144143   4.836925   6.070792   4.345723   4.698490
    26  O    5.152622   4.864204   6.228802   4.794048   4.914300
                   11         12         13         14         15
    11  H    0.000000
    12  N    2.079233   0.000000
    13  C    2.601694   1.493542   0.000000
    14  H    3.581110   2.085190   1.087135   0.000000
    15  H    2.335242   2.109538   1.087809   1.803041   0.000000
    16  H    2.972372   2.115824   1.085558   1.780570   1.781545
    17  C    2.611362   1.495588   2.425778   2.620084   2.639941
    18  H    2.331021   2.111930   2.657024   2.997550   2.404015
    19  H    3.582566   2.092568   2.614261   2.336913   2.957992
    20  H    2.996409   2.107628   3.366934   3.598824   3.636720
    21  C    3.397123   1.514944   2.462675   2.635688   3.402807
    22  H    3.630880   2.103935   3.382001   3.627980   4.193187
    23  H    3.661117   2.107941   2.662191   2.967962   3.653286
    24  C    4.713925   2.642693   3.094081   2.653941   4.082777
    25  O    4.872846   2.860136   2.916864   2.123684   3.749052
    26  O    5.681333   3.674539   4.202871   3.802607   5.234725
                   16         17         18         19         20
    16  H    0.000000
    17  C    3.373022   0.000000
    18  H    3.646428   1.087819   0.000000
    19  H    3.606682   1.086521   1.802866   0.000000
    20  H    4.195274   1.087190   1.783060   1.784603   0.000000
    21  C    2.692245   2.453282   3.396584   2.647522   2.652098
    22  H    3.655101   2.678140   3.650495   3.031177   2.415081
    23  H    2.431677   3.378481   4.196222   3.620960   3.639260
    24  C    3.425696   3.054869   4.063664   2.632609   3.336886
    25  O    3.486111   2.906267   3.759800   2.124108   3.449701
    26  O    4.346345   4.142835   5.194177   3.763721   4.215381
                   21         22         23         24         25
    21  C    0.000000
    22  H    1.088263   0.000000
    23  H    1.086419   1.772409   0.000000
    24  C    1.576499   2.184182   2.166711   0.000000
    25  O    2.417287   3.131740   3.081084   1.244239   0.000000
    26  O    2.306223   2.565438   2.582443   1.227456   2.262184
                   26
    26  O    0.000000
 Stoichiometry    C7H15N2O2(2)
 Framework group  C1[X(C7H15N2O2)]
 Deg. of freedom    72
 Full point group                 C1      NOp   1
 Largest Abelian subgroup         C1      NOp   1
 Largest concise Abelian subgroup C1      NOp   1
                         Standard orientation:                         
 ---------------------------------------------------------------------
 Center     Atomic      Atomic             Coordinates (Angstroms)
 Number     Number       Type             X           Y           Z
 ---------------------------------------------------------------------
      1          7           0        3.871120    1.254797    0.226179
      2          1           0        3.553299    1.536335    1.157647
      3          6           0        2.757394    0.650633   -0.445283
      4          1           0        1.994758    1.419417   -0.628420
      5          1           0        3.088649    0.287965   -1.420860
      6          6           0        2.139218   -0.512787    0.348382
      7          1           0        1.782158   -0.153169    1.314068
      8          1           0        2.932457   -1.226874    0.569823
      9          6           0        1.040594   -1.260452   -0.408966
     10          1           0        1.146600   -1.094898   -1.480693
     11          1           0        1.117005   -2.332686   -0.234077
     12          7           0       -0.380667   -0.899764   -0.069991
     13          6           0       -0.714523   -1.332859    1.319842
     14          1           0       -1.754267   -1.064906    1.490127
     15          1           0       -0.552388   -2.405731    1.397226
     16          1           0       -0.074516   -0.807041    2.021513
     17          6           0       -1.271987   -1.631894   -1.021998
     18          1           0       -1.077322   -2.698233   -0.930471
     19          1           0       -2.296375   -1.380847   -0.760976
     20          1           0       -1.045161   -1.295390   -2.030609
     21          6           0       -0.614650    0.589895   -0.215675
     22          1           0       -0.305801    0.857687   -1.224246
     23          1           0        0.034302    1.086751    0.500079
     24          6           0       -2.078978    1.122828    0.023230
     25          8           0       -2.940870    0.296121    0.372267
     26          8           0       -2.124003    2.333154   -0.176098
 ---------------------------------------------------------------------
 Rotational constants (GHZ):           1.5728287           0.6459905           0.5213521
 Standard basis: 6-311+G(2d,2p) (5D, 7F)
 There are   454 symmetry adapted cartesian basis functions of A   symmetry.
 There are   432 symmetry adapted basis functions of A   symmetry.
   432 basis functions,   627 primitive gaussians,   454 cartesian basis functions
    44 alpha electrons       43 beta electrons
       nuclear repulsion energy       669.4028478405 Hartrees.
 NAtoms=   26 NActive=   26 NUniq=   26 SFac= 1.00D+00 NAtFMM=   60 NAOKFM=F Big=F
 Integral buffers will be    131072 words long.
 Raffenetti 2 integral format.
 Two-electron integral symmetry is turned on.
 Nuclear repulsion after empirical dispersion term =      669.3819109502 Hartrees.
 One-electron integrals computed using PRISM.
 NBasis=   432 RedAO= T EigKep=  1.20D-05  NBF=   432
 NBsUse=   432 1.00D-06 EigRej= -1.00D+00 NBFU=   432
 Initial guess from the checkpoint file:  "aminopropyl_betaine.chk"
 B after Tr=    -0.000000    0.000000    0.000000
         Rot=    1.000000   -0.000263    0.000042    0.000275 Ang=  -0.04 deg.
 Initial guess <Sx>= 0.0000 <Sy>= 0.0000 <Sz>= 0.5000 <S**2>= 0.7543 S= 0.5021
 Requested convergence on RMS density matrix=1.00D-08 within  32 cycles.
 Requested convergence on MAX density matrix=1.00D-06.
 Requested convergence on             energy=1.00D-06.
 No special actions if energy rises.
 SCF Done:  E(UwB97XD) =  -535.629788616     A.U. after   13 cycles
            NFock= 13  Conv=0.35D-08     -V/T= 2.0039
 <Sx>= 0.0000 <Sy>= 0.0000 <Sz>= 0.5000 <S**2>= 0.7543 S= 0.5021
 <L.S>= 0.000000000000E+00
 Annihilation of the first spin contaminant:
 S**2 before annihilation     0.7543,   after     0.7500
 QCSCF skips out because SCF is already converged.
 Calling FoFJK, ICntrl=      2127 FMM=F ISym2X=0 I1Cent= 0 IOpClX= 1 NMat=1 NMatS=1 NMatT=0.
 ***** Axes restored to original set *****
 -------------------------------------------------------------------
 Center     Atomic                   Forces (Hartrees/Bohr)
 Number     Number              X              Y              Z
 -------------------------------------------------------------------
      1        7           0.000065273    0.000107914   -0.000129846
      2        1          -0.000050878   -0.000035432    0.000090896
      3        6           0.000048614   -0.000137944    0.000130013
      4        1           0.000044534    0.000052697   -0.000025622
      5        1          -0.000016277   -0.000001619   -0.000022532
      6        6          -0.000024360    0.000077735   -0.000072926
      7        1          -0.000003404   -0.000043206    0.000038654
      8        1          -0.000000402   -0.000020075   -0.000010980
      9        6           0.000000630   -0.000019661    0.000012126
     10        1           0.000026050   -0.000018473   -0.000007441
     11        1          -0.000011360    0.000006485    0.000014436
     12        7          -0.000029310    0.000024461   -0.000031067
     13        6           0.000016060   -0.000008602    0.000024230
     14        1           0.000008906   -0.000016919   -0.000003005
     15        1          -0.000003514    0.000001232   -0.000002437
     16        1           0.000029009   -0.000002338   -0.000001122
     17        6           0.000007106   -0.000026632   -0.000007128
     18        1           0.000016922   -0.000004602    0.000000861
     19        1           0.000026879   -0.000021574   -0.000007497
     20        1          -0.000000019    0.000003226   -0.000000404
     21        6          -0.000045292   -0.000003332    0.000011055
     22        1          -0.000020007    0.000000617    0.000000259
     23        1          -0.000033385    0.000004701   -0.000015476
     24        6           0.000079592    0.000024409    0.000006302
     25        8          -0.000095419    0.000050529    0.000015145
     26        8          -0.000035948    0.000006402   -0.000006495
 -------------------------------------------------------------------
 Cartesian Forces:  Max     0.000137944 RMS     0.000042116

 GradGradGradGradGradGradGradGradGradGradGradGradGradGradGradGradGradGrad
 Berny optimization.
 Using GEDIIS/GDIIS optimizer.
 FormGI is forming the generalized inverse of G from B-inverse, IUseBI=4.
 Internal  Forces:  Max     0.000223315 RMS     0.000045474
 Search for a local minimum.
 Step number  11 out of a maximum of  144
 All quantities printed in internal units (Hartrees-Bohrs-Radians)
 Mixed Optimization -- En-DIIS/RFO-DIIS
 Swapping is turned off.
 Update second derivatives using D2CorX and points    1    4    3    5    2
                                                      6    7    8    9   10
                                                     11
 DE= -8.25D-07 DEPred=-7.91D-07 R= 1.04D+00
 Trust test= 1.04D+00 RLast= 2.03D-02 DXMaxT set to 1.06D-01
 ITU=  0  1  1 -1  0  0  0 -1 -1  1  0
     Eigenvalues ---    0.00139   0.00243   0.00286   0.00382   0.00445
     Eigenvalues ---    0.00474   0.00620   0.01606   0.03294   0.03728
     Eigenvalues ---    0.03917   0.04656   0.04770   0.04798   0.04872
     Eigenvalues ---    0.05232   0.05563   0.05899   0.05981   0.06073
     Eigenvalues ---    0.06128   0.06215   0.06472   0.08505   0.08809
     Eigenvalues ---    0.08970   0.09689   0.09960   0.12414   0.12624
     Eigenvalues ---    0.13729   0.14113   0.15300   0.15914   0.15967
     Eigenvalues ---    0.15999   0.16004   0.16005   0.16054   0.17758
     Eigenvalues ---    0.18422   0.20365   0.21793   0.24124   0.24438
     Eigenvalues ---    0.25148   0.25637   0.28012   0.29778   0.30382
     Eigenvalues ---    0.32726   0.33159   0.33353   0.34756   0.34791
     Eigenvalues ---    0.34818   0.34924   0.34957   0.35017   0.35064
     Eigenvalues ---    0.35072   0.35091   0.35120   0.35144   0.35212
     Eigenvalues ---    0.35330   0.35530   0.39267   0.47208   0.67362
     Eigenvalues ---    0.86091   0.91960
 En-DIIS/RFO-DIIS/Sim-DIIS IScMMF=       -3 using points:    11   10    9    8    7    6
 RFO step:  Lambda=-2.89728252D-06.
 DidBck=F Rises=F RFO-DIIS coefs:    1.28973    0.44279   -0.67404    0.00965    0.01894
                  RFO-DIIS coefs:   -0.08706
 Iteration  1 RMS(Cart)=  0.00204043 RMS(Int)=  0.00000521
 Iteration  2 RMS(Cart)=  0.00000485 RMS(Int)=  0.00000163
 Iteration  3 RMS(Cart)=  0.00000000 RMS(Int)=  0.00000163
 Variable       Old X    -DE/DX   Delta X   Delta X   Delta X     New X
                                 (Linear)    (Quad)   (Total)
    R1        1.93446   0.00009  -0.00049   0.00038  -0.00011   1.93435
    R2        2.70981   0.00002   0.00033  -0.00045  -0.00012   2.70968
    R3        2.07542   0.00001  -0.00021   0.00024   0.00003   2.07544
    R4        2.06405   0.00002   0.00008  -0.00005   0.00004   2.06409
    R5        2.90649   0.00001  -0.00063   0.00043  -0.00020   2.90629
    R6        2.06090   0.00002   0.00000   0.00002   0.00002   2.06092
    R7        2.05987   0.00001  -0.00006   0.00009   0.00004   2.05991
    R8        2.89045   0.00004  -0.00018   0.00010  -0.00009   2.89036
    R9        2.05906   0.00001  -0.00002   0.00001  -0.00000   2.05906
   R10        2.05808  -0.00001   0.00003  -0.00001   0.00002   2.05810
   R11        2.84401   0.00008   0.00016  -0.00012   0.00004   2.84405
   R12        2.82239   0.00001  -0.00010   0.00009  -0.00001   2.82238
   R13        2.82625  -0.00000  -0.00002   0.00003   0.00002   2.82627
   R14        2.86283   0.00010  -0.00035   0.00036   0.00001   2.86284
   R15        2.05439  -0.00001   0.00008  -0.00006   0.00002   2.05441
   R16        2.05566  -0.00000  -0.00001   0.00000  -0.00000   2.05566
   R17        2.05141   0.00002   0.00001   0.00001   0.00002   2.05143
   R18        2.05568   0.00001  -0.00001   0.00001   0.00000   2.05568
   R19        2.05323  -0.00003   0.00006  -0.00009  -0.00004   2.05319
   R20        2.05449   0.00000  -0.00001   0.00001  -0.00000   2.05449
   R21        2.05652  -0.00001  -0.00002   0.00000  -0.00002   2.05650
   R22        2.05304  -0.00003   0.00000   0.00001   0.00001   2.05305
   R23        2.97915   0.00008  -0.00047   0.00053   0.00007   2.97922
   R24        2.35127   0.00004  -0.00004   0.00006   0.00001   2.35128
   R25        2.31956   0.00001  -0.00005   0.00001  -0.00004   2.31952
    A1        1.87635  -0.00007   0.00212  -0.00208   0.00004   1.87639
    A2        1.89915  -0.00008  -0.00114   0.00025  -0.00089   1.89825
    A3        1.89925  -0.00001   0.00012  -0.00020  -0.00009   1.89917
    A4        1.97060   0.00008   0.00053   0.00014   0.00066   1.97126
    A5        1.86929  -0.00002  -0.00021  -0.00013  -0.00035   1.86894
    A6        1.91394   0.00004   0.00026   0.00008   0.00034   1.91428
    A7        1.90883  -0.00002   0.00040  -0.00014   0.00026   1.90909
    A8        1.91674  -0.00000   0.00007   0.00003   0.00010   1.91684
    A9        1.88376  -0.00004  -0.00067   0.00037  -0.00030   1.88346
   A10        1.98551   0.00013   0.00046   0.00012   0.00058   1.98609
   A11        1.84875   0.00001   0.00026  -0.00022   0.00004   1.84880
   A12        1.94385  -0.00005   0.00018  -0.00017   0.00001   1.94386
   A13        1.87870  -0.00006  -0.00036  -0.00013  -0.00049   1.87820
   A14        1.92077  -0.00003  -0.00001   0.00004   0.00003   1.92079
   A15        1.92980  -0.00006  -0.00037   0.00012  -0.00025   1.92955
   A16        2.03715   0.00016   0.00037  -0.00012   0.00026   2.03741
   A17        1.87623   0.00002  -0.00007   0.00005  -0.00002   1.87621
   A18        1.85147  -0.00002   0.00027  -0.00011   0.00016   1.85163
   A19        1.84008  -0.00007  -0.00021   0.00002  -0.00019   1.83989
   A20        1.92964  -0.00006   0.00038  -0.00052  -0.00013   1.92951
   A21        1.87771  -0.00004   0.00041  -0.00048  -0.00007   1.87764
   A22        1.93891   0.00007   0.00058  -0.00040   0.00018   1.93910
   A23        1.89354   0.00004  -0.00029   0.00033   0.00004   1.89358
   A24        1.91782  -0.00000  -0.00060   0.00055  -0.00005   1.91777
   A25        1.90508  -0.00001  -0.00050   0.00053   0.00003   1.90511
   A26        1.86301   0.00001  -0.00017   0.00012  -0.00005   1.86296
   A27        1.89534  -0.00000   0.00006  -0.00006   0.00000   1.89534
   A28        1.90629  -0.00002  -0.00002  -0.00005  -0.00007   1.90623
   A29        1.95465  -0.00001   0.00006  -0.00006  -0.00000   1.95465
   A30        1.92115   0.00001   0.00005   0.00009   0.00014   1.92129
   A31        1.92183   0.00000   0.00002  -0.00005  -0.00003   1.92180
   A32        1.89616  -0.00002   0.00004  -0.00008  -0.00003   1.89613
   A33        1.87115   0.00002  -0.00001   0.00008   0.00008   1.87122
   A34        1.89092  -0.00000   0.00002  -0.00004  -0.00002   1.89089
   A35        1.95519   0.00000   0.00002  -0.00000   0.00002   1.95521
   A36        1.92210   0.00000   0.00002  -0.00002   0.00000   1.92210
   A37        1.92630  -0.00000  -0.00009   0.00006  -0.00004   1.92626
   A38        1.86216  -0.00006   0.00037  -0.00037  -0.00001   1.86215
   A39        1.86930  -0.00004   0.00017  -0.00025  -0.00008   1.86922
   A40        2.05025   0.00022  -0.00144   0.00148   0.00004   2.05029
   A41        1.90553   0.00003   0.00034  -0.00030   0.00003   1.90556
   A42        1.89744  -0.00007   0.00050  -0.00043   0.00008   1.89752
   A43        1.87590  -0.00008   0.00016  -0.00022  -0.00006   1.87584
   A44        2.05028   0.00013  -0.00082   0.00079  -0.00003   2.05025
   A45        1.92069  -0.00003   0.00016  -0.00009   0.00007   1.92075
   A46        2.31217  -0.00011   0.00066  -0.00068  -0.00003   2.31213
    D1        1.16858   0.00007   0.00491   0.00084   0.00574   1.17432
    D2       -3.08338   0.00000   0.00409   0.00070   0.00479  -3.07859
    D3       -0.96062   0.00002   0.00503   0.00047   0.00550  -0.95512
    D4        1.04990  -0.00003   0.00033   0.00046   0.00079   1.05068
    D5       -0.95788  -0.00001   0.00035   0.00050   0.00085  -0.95703
    D6       -3.04133   0.00001   0.00098   0.00034   0.00132  -3.04001
    D7       -1.07096  -0.00001   0.00124  -0.00001   0.00123  -1.06972
    D8       -3.07873   0.00000   0.00126   0.00003   0.00130  -3.07743
    D9        1.12100   0.00002   0.00189  -0.00012   0.00177   1.12277
   D10       -3.11594  -0.00000   0.00112   0.00019   0.00131  -3.11463
   D11        1.15947   0.00001   0.00114   0.00023   0.00137   1.16084
   D12       -0.92398   0.00003   0.00177   0.00007   0.00184  -0.92214
   D13        0.37585   0.00000   0.00193  -0.00003   0.00190   0.37775
   D14        2.44603  -0.00003   0.00161   0.00013   0.00173   2.44776
   D15       -1.73463  -0.00006   0.00130   0.00017   0.00147  -1.73316
   D16        2.55335   0.00006   0.00253  -0.00004   0.00250   2.55584
   D17       -1.65966   0.00003   0.00221   0.00012   0.00233  -1.65733
   D18        0.44287   0.00000   0.00190   0.00016   0.00207   0.44494
   D19       -1.71049   0.00002   0.00273  -0.00047   0.00226  -1.70822
   D20        0.35969  -0.00001   0.00241  -0.00031   0.00210   0.36179
   D21        2.46223  -0.00004   0.00211  -0.00027   0.00183   2.46406
   D22       -1.18285   0.00004   0.00057   0.00017   0.00074  -1.18211
   D23        3.03545   0.00005   0.00046   0.00035   0.00081   3.03626
   D24        0.95126   0.00005   0.00048   0.00024   0.00072   0.95198
   D25        2.95362  -0.00001   0.00012   0.00029   0.00040   2.95402
   D26        0.88873   0.00000   0.00001   0.00046   0.00047   0.88920
   D27       -1.19546  -0.00000   0.00003   0.00035   0.00038  -1.19508
   D28        0.96670   0.00001   0.00017   0.00027   0.00044   0.96714
   D29       -1.09819   0.00002   0.00007   0.00045   0.00051  -1.09768
   D30        3.10081   0.00001   0.00008   0.00034   0.00042   3.10122
   D31       -3.11897   0.00004  -0.00130   0.00060  -0.00070  -3.11966
   D32       -1.00853   0.00004  -0.00130   0.00057  -0.00073  -1.00925
   D33        1.08765   0.00003  -0.00125   0.00045  -0.00080   1.08685
   D34       -1.06376  -0.00002  -0.00076  -0.00008  -0.00084  -1.06460
   D35        1.04668  -0.00002  -0.00076  -0.00011  -0.00087   1.04581
   D36       -3.14033  -0.00003  -0.00071  -0.00023  -0.00094  -3.14127
   D37        1.01780  -0.00001  -0.00189   0.00108  -0.00081   1.01699
   D38        3.12824  -0.00001  -0.00189   0.00105  -0.00084   3.12740
   D39       -1.05877  -0.00002  -0.00184   0.00093  -0.00091  -1.05968
   D40        1.00851  -0.00005  -0.00053  -0.00050  -0.00104   1.00747
   D41        3.12475  -0.00005  -0.00049  -0.00050  -0.00099   3.12376
   D42       -1.07950  -0.00004  -0.00060  -0.00041  -0.00100  -1.08051
   D43       -1.07951   0.00002  -0.00106   0.00020  -0.00086  -1.08037
   D44        1.03673   0.00002  -0.00102   0.00020  -0.00081   1.03592
   D45        3.11567   0.00003  -0.00112   0.00030  -0.00083   3.11484
   D46        3.11414   0.00001   0.00012  -0.00096  -0.00084   3.11330
   D47       -1.05281   0.00001   0.00017  -0.00096  -0.00080  -1.05361
   D48        1.02613   0.00001   0.00006  -0.00087  -0.00081   1.02532
   D49        0.94820  -0.00000  -0.00017  -0.00027  -0.00045   0.94775
   D50       -1.09061   0.00001  -0.00083   0.00038  -0.00044  -1.09106
   D51        3.08170   0.00001  -0.00020  -0.00013  -0.00033   3.08137
   D52        3.08915  -0.00003   0.00029  -0.00082  -0.00052   3.08863
   D53        1.05034  -0.00001  -0.00036  -0.00016  -0.00052   1.04982
   D54       -1.06053  -0.00002   0.00027  -0.00067  -0.00040  -1.06093
   D55       -1.11955   0.00002  -0.00072   0.00023  -0.00049  -1.12004
   D56        3.12482   0.00003  -0.00137   0.00088  -0.00048   3.12434
   D57        1.01395   0.00002  -0.00074   0.00038  -0.00037   1.01358
   D58        0.05201   0.00001   0.00167  -0.00055   0.00113   0.05314
   D59       -3.09917   0.00001  -0.00054   0.00164   0.00110  -3.09807
   D60        2.16729   0.00002   0.00155  -0.00034   0.00121   2.16849
   D61       -0.98390   0.00003  -0.00067   0.00185   0.00118  -0.98272
   D62       -2.05542  -0.00003   0.00230  -0.00105   0.00125  -2.05417
   D63        1.07658  -0.00002   0.00009   0.00114   0.00123   1.07781
         Item               Value     Threshold  Converged?
 Maximum Force            0.000223     0.000450     YES
 RMS     Force            0.000045     0.000300     YES
 Maximum Displacement     0.012530     0.001800     NO 
 RMS     Displacement     0.002041     0.001200     NO 
 Predicted change in Energy=-9.365177D-07
 GradGradGradGradGradGradGradGradGradGradGradGradGradGradGradGradGradGrad

                          Input orientation:                          
 ---------------------------------------------------------------------
 Center     Atomic      Atomic             Coordinates (Angstroms)
 Number     Number       Type             X           Y           Z
 ---------------------------------------------------------------------
      1          7           0        2.425921    0.996309    0.386329
      2          1           0        2.104723    1.227165    1.330428
      3          6           0        1.295800    0.502492   -0.345140
      4          1           0        0.581635    1.324359   -0.489068
      5          1           0        1.628071    0.188721   -1.337206
      6          6           0        0.596390   -0.674796    0.354921
      7          1           0        0.237313   -0.361396    1.335855
      8          1           0        1.344067   -1.445576    0.542281
      9          6           0       -0.523463   -1.307713   -0.472581
     10          1           0       -0.382720   -1.078988   -1.528572
     11          1           0       -0.510577   -2.391677   -0.367744
     12          7           0       -1.930455   -0.890189   -0.139270
     13          6           0       -2.320431   -1.392990    1.211939
     14          1           0       -3.347418   -1.077861    1.378911
     15          1           0       -2.220018   -2.476113    1.221294
     16          1           0       -1.668776   -0.951239    1.959379
     17          6           0       -2.837649   -1.507817   -1.155313
     18          1           0       -2.703238   -2.587031   -1.131099
     19          1           0       -3.852753   -1.217781   -0.898546
     20          1           0       -2.569358   -1.119260   -2.134610
     21          6           0       -2.078973    0.616577   -0.190882
     22          1           0       -1.731568    0.931476   -1.172943
     23          1           0       -1.421320    1.028598    0.569417
     24          6           0       -3.517285    1.214397    0.052693
     25          8           0       -4.431055    0.416652    0.329775
     26          8           0       -3.491470    2.435587   -0.068266
 ---------------------------------------------------------------------
                    Distance matrix (angstroms):
                    1          2          3          4          5
     1  N    0.000000
     2  H    1.023615   0.000000
     3  C    1.433902   1.996756   0.000000
     4  H    2.067687   2.374828   1.098277   0.000000
     5  H    2.063816   2.902040   1.092269   1.761829   0.000000
     6  C    2.478056   2.616131   1.537942   2.170059   2.161786
     7  H    2.744990   2.451688   2.166204   2.508121   3.063020
     8  H    2.675356   2.888480   2.141217   3.052462   2.506802
     9  C    3.839937   4.072323   2.569592   2.854701   2.759708
    10  H    3.982734   4.436169   2.592107   2.790453   2.384740
    11  H    4.546438   4.776986   3.411704   3.875122   3.488857
    12  N    4.776310   4.788095   3.520037   3.367072   3.906686
    13  C    5.377569   5.144049   4.369722   4.324280   4.958893
    14  H    6.214407   5.919572   5.198975   4.969654   5.808357
    15  H    5.860003   5.694696   4.866907   5.021771   5.334328
    16  H    4.799373   4.402308   4.026519   4.029589   4.799602
    17  C    6.029302   6.171392   4.667240   4.489611   4.780584
    18  H    6.438259   6.612389   5.114214   5.147966   5.148544
    19  H    6.780476   6.814514   5.456482   5.127762   5.675394
    20  H    5.981938   6.273693   4.557601   4.313680   4.468229
    21  C    4.557569   4.493385   3.380222   2.769242   3.903753
    22  H    4.440749   4.590362   3.167687   2.443961   3.444682
    23  H    3.851731   3.612692   2.914781   2.284665   3.693155
    24  C    5.956558   5.765392   4.881687   4.136029   5.427570
    25  O    6.881666   6.661428   5.767127   5.159602   6.288385
    26  O    6.106856   5.893555   5.170248   4.242886   5.733089
                    6          7          8          9         10
     6  C    0.000000
     7  H    1.090591   0.000000
     8  H    1.090057   1.740721   0.000000
     9  C    1.529515   2.178242   2.129934   0.000000
    10  H    2.160919   3.017336   2.721141   1.089605   0.000000
    11  H    2.166864   2.753839   2.272214   1.089098   1.756991
    12  N    2.583711   2.674852   3.390495   1.505007   2.088370
    13  C    3.123801   2.760724   3.725554   2.464543   3.371012
    14  H    4.094465   3.655882   4.779665   3.384608   4.152456
    15  H    3.453622   3.244015   3.771707   2.666959   3.590179
    16  H    2.789567   2.090424   3.365971   2.711687   3.719686
    17  C    3.842832   4.120145   4.513585   2.421079   2.519900
    18  H    4.092974   4.436908   4.525902   2.611841   2.795886
    19  H    4.654126   4.738627   5.397667   3.357634   3.529494
    20  H    4.051823   4.527238   4.752591   2.642638   2.269425
    21  C    3.020449   2.941519   4.062905   2.490352   2.746203
    22  H    3.214633   3.441232   4.248752   2.638938   2.447004
    23  H    2.649286   2.295773   3.710747   2.711136   3.149948
    24  C    4.536818   4.269266   5.563083   3.949674   4.193509
    25  O    5.144619   4.838514   6.071663   4.345858   4.698873
    26  O    5.154044   4.868109   6.230458   4.794249   4.914169
                   11         12         13         14         15
    11  H    0.000000
    12  N    2.079115   0.000000
    13  C    2.601605   1.493538   0.000000
    14  H    3.581143   2.085157   1.087147   0.000000
    15  H    2.335458   2.109534   1.087808   1.803047   0.000000
    16  H    2.971833   2.115781   1.085571   1.780678   1.781538
    17  C    2.610889   1.495597   2.425817   2.620500   2.639570
    18  H    2.329943   2.111916   2.657462   2.998785   2.404071
    19  H    3.581888   2.092618   2.613974   2.337039   2.956847
    20  H    2.996571   2.107618   3.366940   3.598878   3.636644
    21  C    3.397166   1.514947   2.462635   2.635209   3.402773
    22  H    3.630773   2.103925   3.381947   3.627722   4.193163
    23  H    3.661422   2.107890   2.661827   2.966868   3.653199
    24  C    4.713898   2.642757   3.094314   2.653706   4.082694
    25  O    4.872719   2.860217   2.916805   2.123329   3.748544
    26  O    5.681363   3.674588   4.203363   3.802551   5.234916
                   16         17         18         19         20
    16  H    0.000000
    17  C    3.373033   0.000000
    18  H    3.646502   1.087822   0.000000
    19  H    3.606735   1.086502   1.802862   0.000000
    20  H    4.195238   1.087188   1.783062   1.784563   0.000000
    21  C    2.692570   2.453318   3.396589   2.648010   2.651733
    22  H    3.655134   2.678409   3.650450   3.032166   2.414998
    23  H    2.431663   3.378474   4.196170   3.621188   3.639100
    24  C    3.426721   3.054772   4.063852   2.633038   3.335989
    25  O    3.486678   2.906546   3.760534   2.124753   3.449368
    26  O    4.347890   4.142413   5.193998   3.763906   4.213907
                   21         22         23         24         25
    21  C    0.000000
    22  H    1.088254   0.000000
    23  H    1.086427   1.772429   0.000000
    24  C    1.576535   2.184266   2.166701   0.000000
    25  O    2.417301   3.132162   3.080651   1.244246   0.000000
    26  O    2.306291   2.565135   2.582978   1.227437   2.262157
                   26
    26  O    0.000000
 Stoichiometry    C7H15N2O2(2)
 Framework group  C1[X(C7H15N2O2)]
 Deg. of freedom    72
 Full point group                 C1      NOp   1
 Largest Abelian subgroup         C1      NOp   1
 Largest concise Abelian subgroup C1      NOp   1
                         Standard orientation:                         
 ---------------------------------------------------------------------
 Center     Atomic      Atomic             Coordinates (Angstroms)
 Number     Number       Type             X           Y           Z
 ---------------------------------------------------------------------
      1          7           0        3.872032    1.254730    0.225972
      2          1           0        3.557864    1.529332    1.160680
      3          6           0        2.756788    0.652190   -0.444292
      4          1           0        1.994442    1.422159   -0.623707
      5          1           0        3.085708    0.292425   -1.421755
      6          6           0        2.139730   -0.513085    0.347312
      7          1           0        1.783842   -0.155901    1.314345
      8          1           0        2.933533   -1.227443    0.565932
      9          6           0        1.040621   -1.259981   -0.410001
     10          1           0        1.146346   -1.094032   -1.481693
     11          1           0        1.116985   -2.332302   -0.235562
     12          7           0       -0.380551   -0.899546   -0.070294
     13          6           0       -0.713447   -1.332809    1.319714
     14          1           0       -1.752950   -1.064426    1.490865
     15          1           0       -0.551737   -2.405770    1.396717
     16          1           0       -0.072525   -0.807457    2.020919
     17          6           0       -1.272148   -1.631931   -1.021860
     18          1           0       -1.076415   -2.698144   -0.931112
     19          1           0       -2.296514   -1.381967   -0.759791
     20          1           0       -1.046567   -1.294653   -2.030489
     21          6           0       -0.615123    0.590050   -0.215706
     22          1           0       -0.306461    0.858122   -1.224250
     23          1           0        0.033733    1.086962    0.500106
     24          6           0       -2.079617    1.122466    0.023571
     25          8           0       -2.940863    0.295602    0.373854
     26          8           0       -2.125446    2.332574   -0.176776
 ---------------------------------------------------------------------
 Rotational constants (GHZ):           1.5730920           0.6457976           0.5212623
 Standard basis: 6-311+G(2d,2p) (5D, 7F)
 There are   454 symmetry adapted cartesian basis functions of A   symmetry.
 There are   432 symmetry adapted basis functions of A   symmetry.
   432 basis functions,   627 primitive gaussians,   454 cartesian basis functions
    44 alpha electrons       43 beta electrons
       nuclear repulsion energy       669.3844945194 Hartrees.
 NAtoms=   26 NActive=   26 NUniq=   26 SFac= 1.00D+00 NAtFMM=   60 NAOKFM=F Big=F
 Integral buffers will be    131072 words long.
 Raffenetti 2 integral format.
 Two-electron integral symmetry is turned on.
 Nuclear repulsion after empirical dispersion term =      669.3635585240 Hartrees.
 One-electron integrals computed using PRISM.
 NBasis=   432 RedAO= T EigKep=  1.20D-05  NBF=   432
 NBsUse=   432 1.00D-06 EigRej= -1.00D+00 NBFU=   432
 Initial guess from the checkpoint file:  "aminopropyl_betaine.chk"
 B after Tr=    -0.000000   -0.000000    0.000000
         Rot=    1.000000   -0.000155   -0.000090   -0.000073 Ang=  -0.02 deg.
 Initial guess <Sx>= 0.0000 <Sy>= 0.0000 <Sz>= 0.5000 <S**2>= 0.7543 S= 0.5021
 Requested convergence on RMS density matrix=1.00D-08 within  32 cycles.
 Requested convergence on MAX density matrix=1.00D-06.
 Requested convergence on             energy=1.00D-06.
 No special actions if energy rises.
 SCF Done:  E(UwB97XD) =  -535.629789605     A.U. after   13 cycles
            NFock= 13  Conv=0.40D-08     -V/T= 2.0039
 <Sx>= 0.0000 <Sy>= 0.0000 <Sz>= 0.5000 <S**2>= 0.7543 S= 0.5021
 <L.S>= 0.000000000000E+00
 Annihilation of the first spin contaminant:
 S**2 before annihilation     0.7543,   after     0.7500
 QCSCF skips out because SCF is already converged.
 Calling FoFJK, ICntrl=      2127 FMM=F ISym2X=0 I1Cent= 0 IOpClX= 1 NMat=1 NMatS=1 NMatT=0.
 ***** Axes restored to original set *****
 -------------------------------------------------------------------
 Center     Atomic                   Forces (Hartrees/Bohr)
 Number     Number              X              Y              Z
 -------------------------------------------------------------------
      1        7           0.000094866    0.000090786   -0.000147410
      2        1          -0.000057428   -0.000014247    0.000136667
      3        6           0.000041698   -0.000122300    0.000091247
      4        1           0.000018349    0.000053298   -0.000036334
      5        1          -0.000024443    0.000000226   -0.000022648
      6        6          -0.000012590    0.000069243   -0.000068786
      7        1          -0.000000871   -0.000036850    0.000034346
      8        1          -0.000003775   -0.000021943    0.000006756
      9        6          -0.000009660   -0.000033057    0.000008171
     10        1           0.000015215   -0.000008901   -0.000011806
     11        1          -0.000008249    0.000010436    0.000009475
     12        7          -0.000023847    0.000016264   -0.000020527
     13        6           0.000012250   -0.000005757    0.000025806
     14        1           0.000010558   -0.000021357    0.000000589
     15        1          -0.000003163   -0.000001170   -0.000001308
     16        1           0.000004690   -0.000005579   -0.000002995
     17        6           0.000018096   -0.000023317   -0.000001623
     18        1           0.000009607   -0.000002785    0.000001356
     19        1           0.000018597   -0.000008056   -0.000005841
     20        1           0.000000963    0.000002010   -0.000002349
     21        6          -0.000023732   -0.000004387    0.000021098
     22        1          -0.000016679    0.000006989   -0.000001953
     23        1          -0.000019857    0.000002004   -0.000012486
     24        6           0.000063766   -0.000004210   -0.000009716
     25        8          -0.000082489    0.000041605    0.000013145
     26        8          -0.000021872    0.000021054   -0.000002875
 -------------------------------------------------------------------
 Cartesian Forces:  Max     0.000147410 RMS     0.000040259

 GradGradGradGradGradGradGradGradGradGradGradGradGradGradGradGradGradGrad
 Berny optimization.
 Using GEDIIS/GDIIS optimizer.
 FormGI is forming the generalized inverse of G from B-inverse, IUseBI=4.
 Internal  Forces:  Max     0.000187746 RMS     0.000036328
 Search for a local minimum.
 Step number  12 out of a maximum of  144
 All quantities printed in internal units (Hartrees-Bohrs-Radians)
 Mixed Optimization -- En-DIIS/RFO-DIIS
 Swapping is turned off.
 Update second derivatives using D2CorX and points    1    4    3    5    2
                                                      6    7    8    9   10
                                                     11   12
 DE= -9.89D-07 DEPred=-9.37D-07 R= 1.06D+00
 Trust test= 1.06D+00 RLast= 1.30D-02 DXMaxT set to 1.06D-01
 ITU=  0  0  1  1 -1  0  0  0 -1 -1  1  0
     Eigenvalues ---    0.00100   0.00241   0.00285   0.00402   0.00447
     Eigenvalues ---    0.00535   0.00591   0.01608   0.03292   0.03808
     Eigenvalues ---    0.03918   0.04685   0.04749   0.04807   0.04920
     Eigenvalues ---    0.05234   0.05645   0.05900   0.06019   0.06077
     Eigenvalues ---    0.06138   0.06217   0.06476   0.08510   0.08805
     Eigenvalues ---    0.08985   0.09918   0.10313   0.12420   0.12651
     Eigenvalues ---    0.13792   0.13921   0.15515   0.15924   0.15998
     Eigenvalues ---    0.16004   0.16006   0.16043   0.16194   0.17795
     Eigenvalues ---    0.18321   0.20301   0.22010   0.24200   0.24806
     Eigenvalues ---    0.25142   0.25629   0.28321   0.29857   0.30398
     Eigenvalues ---    0.32748   0.33217   0.33492   0.34736   0.34822
     Eigenvalues ---    0.34829   0.34963   0.34971   0.35023   0.35072
     Eigenvalues ---    0.35083   0.35092   0.35122   0.35150   0.35244
     Eigenvalues ---    0.35394   0.35700   0.39274   0.48634   0.62303
     Eigenvalues ---    0.85803   0.92087
 En-DIIS/RFO-DIIS/Sim-DIIS IScMMF=       -3 using points:    12   11   10    9    8    7    6
 RFO step:  Lambda=-2.88240666D-06.
 DidBck=F Rises=F RFO-DIIS coefs:    2.34231   -0.54526   -0.20429   -0.47722   -0.03190
                  RFO-DIIS coefs:   -0.00301   -0.08065
 Iteration  1 RMS(Cart)=  0.00450563 RMS(Int)=  0.00003690
 Iteration  2 RMS(Cart)=  0.00003581 RMS(Int)=  0.00000185
 Iteration  3 RMS(Cart)=  0.00000000 RMS(Int)=  0.00000185
 Variable       Old X    -DE/DX   Delta X   Delta X   Delta X     New X
                                 (Linear)    (Quad)   (Total)
    R1        1.93435   0.00014  -0.00081   0.00078  -0.00003   1.93432
    R2        2.70968   0.00005  -0.00004  -0.00014  -0.00018   2.70950
    R3        2.07544   0.00003  -0.00014   0.00034   0.00020   2.07564
    R4        2.06409   0.00001   0.00009   0.00002   0.00011   2.06420
    R5        2.90629   0.00003  -0.00100   0.00053  -0.00047   2.90582
    R6        2.06092   0.00002   0.00002   0.00006   0.00008   2.06100
    R7        2.05991   0.00001   0.00003   0.00012   0.00015   2.06006
    R8        2.89036   0.00004  -0.00040   0.00024  -0.00016   2.89020
    R9        2.05906   0.00001  -0.00002   0.00004   0.00002   2.05907
   R10        2.05810  -0.00001   0.00008  -0.00004   0.00003   2.05813
   R11        2.84405   0.00006   0.00008   0.00007   0.00015   2.84420
   R12        2.82238   0.00003  -0.00009   0.00013   0.00004   2.82241
   R13        2.82627  -0.00001   0.00004  -0.00004  -0.00001   2.82626
   R14        2.86284   0.00007  -0.00031   0.00030  -0.00002   2.86282
   R15        2.05441  -0.00002   0.00012  -0.00008   0.00004   2.05445
   R16        2.05566   0.00000  -0.00001   0.00001  -0.00000   2.05565
   R17        2.05143  -0.00000   0.00005  -0.00003   0.00002   2.05145
   R18        2.05568   0.00000   0.00000   0.00001   0.00001   2.05570
   R19        2.05319  -0.00002  -0.00003  -0.00006  -0.00009   2.05310
   R20        2.05449   0.00000  -0.00001   0.00001  -0.00000   2.05449
   R21        2.05650  -0.00000  -0.00005   0.00001  -0.00003   2.05647
   R22        2.05305  -0.00002   0.00007  -0.00003   0.00004   2.05309
   R23        2.97922   0.00006  -0.00022   0.00037   0.00016   2.97938
   R24        2.35128   0.00004  -0.00001   0.00007   0.00006   2.35134
   R25        2.31952   0.00002  -0.00012   0.00005  -0.00007   2.31945
    A1        1.87639  -0.00005   0.00200  -0.00198   0.00002   1.87641
    A2        1.89825  -0.00006  -0.00282   0.00012  -0.00271   1.89555
    A3        1.89917  -0.00001  -0.00046   0.00034  -0.00012   1.89905
    A4        1.97126   0.00008   0.00192   0.00029   0.00221   1.97347
    A5        1.86894  -0.00002  -0.00087  -0.00044  -0.00132   1.86762
    A6        1.91428   0.00003   0.00109  -0.00004   0.00105   1.91533
    A7        1.90909  -0.00002   0.00098  -0.00030   0.00068   1.90976
    A8        1.91684   0.00001   0.00005   0.00035   0.00040   1.91724
    A9        1.88346  -0.00002  -0.00096   0.00026  -0.00070   1.88276
   A10        1.98609   0.00007   0.00139   0.00025   0.00165   1.98774
   A11        1.84880  -0.00000   0.00042  -0.00049  -0.00007   1.84873
   A12        1.94386  -0.00003   0.00010  -0.00011  -0.00001   1.94386
   A13        1.87820  -0.00004  -0.00114  -0.00033  -0.00147   1.87673
   A14        1.92079  -0.00003  -0.00008  -0.00004  -0.00013   1.92067
   A15        1.92955  -0.00003  -0.00048  -0.00004  -0.00052   1.92904
   A16        2.03741   0.00011   0.00052   0.00029   0.00081   2.03822
   A17        1.87621   0.00002  -0.00004  -0.00002  -0.00006   1.87615
   A18        1.85163  -0.00002   0.00032   0.00001   0.00033   1.85196
   A19        1.83989  -0.00005  -0.00025  -0.00022  -0.00047   1.83942
   A20        1.92951  -0.00003   0.00016  -0.00031  -0.00015   1.92937
   A21        1.87764  -0.00003   0.00028  -0.00052  -0.00025   1.87739
   A22        1.93910   0.00003   0.00046  -0.00001   0.00045   1.93955
   A23        1.89358   0.00002  -0.00009   0.00010   0.00001   1.89360
   A24        1.91777   0.00000  -0.00057   0.00045  -0.00012   1.91766
   A25        1.90511   0.00000  -0.00024   0.00028   0.00004   1.90515
   A26        1.86296   0.00002  -0.00028   0.00019  -0.00009   1.86287
   A27        1.89534  -0.00001   0.00007  -0.00007  -0.00001   1.89534
   A28        1.90623  -0.00000  -0.00013   0.00005  -0.00008   1.90615
   A29        1.95465  -0.00001   0.00004  -0.00017  -0.00013   1.95453
   A30        1.92129   0.00000   0.00033   0.00003   0.00036   1.92165
   A31        1.92180  -0.00000  -0.00004  -0.00002  -0.00006   1.92174
   A32        1.89613  -0.00001   0.00000  -0.00004  -0.00004   1.89609
   A33        1.87122   0.00001   0.00014   0.00001   0.00015   1.87138
   A34        1.89089  -0.00000  -0.00005  -0.00004  -0.00008   1.89081
   A35        1.95521   0.00000   0.00006   0.00005   0.00011   1.95531
   A36        1.92210   0.00000   0.00002   0.00001   0.00003   1.92213
   A37        1.92626  -0.00000  -0.00017  -0.00001  -0.00017   1.92609
   A38        1.86215  -0.00005   0.00028  -0.00025   0.00003   1.86218
   A39        1.86922  -0.00004  -0.00012  -0.00011  -0.00023   1.86899
   A40        2.05029   0.00019  -0.00112   0.00119   0.00007   2.05036
   A41        1.90556   0.00002   0.00030  -0.00020   0.00010   1.90566
   A42        1.89752  -0.00007   0.00067  -0.00054   0.00013   1.89765
   A43        1.87584  -0.00006   0.00006  -0.00017  -0.00010   1.87573
   A44        2.05025   0.00012  -0.00075   0.00074  -0.00002   2.05022
   A45        1.92075  -0.00004   0.00031  -0.00016   0.00014   1.92089
   A46        2.31213  -0.00008   0.00045  -0.00056  -0.00012   2.31201
    D1        1.17432   0.00006   0.01592   0.00220   0.01811   1.19243
    D2       -3.07859   0.00000   0.01307   0.00192   0.01499  -3.06360
    D3       -0.95512   0.00002   0.01525   0.00197   0.01723  -0.93789
    D4        1.05068  -0.00002   0.00195  -0.00030   0.00165   1.05233
    D5       -0.95703  -0.00001   0.00196  -0.00005   0.00190  -0.95512
    D6       -3.04001   0.00000   0.00319   0.00003   0.00322  -3.03679
    D7       -1.06972  -0.00001   0.00348  -0.00062   0.00286  -1.06686
    D8       -3.07743  -0.00001   0.00349  -0.00037   0.00312  -3.07431
    D9        1.12277   0.00001   0.00472  -0.00029   0.00443   1.12720
   D10       -3.11463   0.00001   0.00334   0.00012   0.00346  -3.11117
   D11        1.16084   0.00001   0.00335   0.00037   0.00371   1.16456
   D12       -0.92214   0.00003   0.00458   0.00045   0.00503  -0.91712
   D13        0.37775  -0.00000   0.00640  -0.00133   0.00507   0.38281
   D14        2.44776  -0.00002   0.00601  -0.00141   0.00460   2.45236
   D15       -1.73316  -0.00004   0.00566  -0.00152   0.00414  -1.72901
   D16        2.55584   0.00004   0.00764  -0.00075   0.00689   2.56274
   D17       -1.65733   0.00002   0.00725  -0.00083   0.00642  -1.65091
   D18        0.44494   0.00001   0.00691  -0.00094   0.00597   0.45091
   D19       -1.70822   0.00000   0.00753  -0.00159   0.00595  -1.70228
   D20        0.36179  -0.00002   0.00714  -0.00166   0.00548   0.36727
   D21        2.46406  -0.00003   0.00679  -0.00177   0.00502   2.46908
   D22       -1.18211   0.00001  -0.00077  -0.00062  -0.00139  -1.18350
   D23        3.03626   0.00002  -0.00092  -0.00026  -0.00117   3.03509
   D24        0.95198   0.00002  -0.00106  -0.00027  -0.00133   0.95065
   D25        2.95402  -0.00001  -0.00126  -0.00077  -0.00202   2.95200
   D26        0.88920  -0.00000  -0.00141  -0.00040  -0.00181   0.88739
   D27       -1.19508  -0.00000  -0.00156  -0.00041  -0.00197  -1.19705
   D28        0.96714  -0.00000  -0.00124  -0.00065  -0.00189   0.96525
   D29       -1.09768   0.00001  -0.00139  -0.00029  -0.00168  -1.09936
   D30        3.10122   0.00001  -0.00154  -0.00029  -0.00183   3.09939
   D31       -3.11966   0.00003  -0.00254   0.00121  -0.00133  -3.12099
   D32       -1.00925   0.00002  -0.00261   0.00108  -0.00153  -1.01079
   D33        1.08685   0.00002  -0.00270   0.00104  -0.00166   1.08519
   D34       -1.06460  -0.00001  -0.00216   0.00046  -0.00170  -1.06630
   D35        1.04581  -0.00002  -0.00224   0.00033  -0.00191   1.04390
   D36       -3.14127  -0.00002  -0.00233   0.00029  -0.00204   3.13988
   D37        1.01699   0.00000  -0.00284   0.00112  -0.00172   1.01528
   D38        3.12740  -0.00000  -0.00292   0.00099  -0.00192   3.12548
   D39       -1.05968  -0.00001  -0.00301   0.00096  -0.00205  -1.06173
   D40        1.00747  -0.00002  -0.00222   0.00006  -0.00217   1.00530
   D41        3.12376  -0.00002  -0.00207   0.00010  -0.00197   3.12178
   D42       -1.08051  -0.00002  -0.00222   0.00008  -0.00213  -1.08264
   D43       -1.08037   0.00002  -0.00252   0.00066  -0.00186  -1.08223
   D44        1.03592   0.00002  -0.00237   0.00071  -0.00166   1.03425
   D45        3.11484   0.00002  -0.00251   0.00069  -0.00183   3.11302
   D46        3.11330  -0.00000  -0.00164  -0.00011  -0.00175   3.11155
   D47       -1.05361  -0.00000  -0.00149  -0.00006  -0.00155  -1.05516
   D48        1.02532   0.00000  -0.00163  -0.00008  -0.00171   1.02360
   D49        0.94775  -0.00001  -0.00111  -0.00033  -0.00144   0.94631
   D50       -1.09106   0.00001  -0.00154   0.00008  -0.00146  -1.09252
   D51        3.08137  -0.00001  -0.00077  -0.00042  -0.00119   3.08018
   D52        3.08863  -0.00002  -0.00099  -0.00041  -0.00140   3.08723
   D53        1.04982  -0.00000  -0.00142  -0.00001  -0.00142   1.04840
   D54       -1.06093  -0.00001  -0.00065  -0.00050  -0.00115  -1.06209
   D55       -1.12004   0.00001  -0.00158   0.00015  -0.00143  -1.12147
   D56        3.12434   0.00003  -0.00201   0.00055  -0.00145   3.12289
   D57        1.01358   0.00001  -0.00124   0.00006  -0.00118   1.01240
   D58        0.05314   0.00000   0.00376  -0.00076   0.00301   0.05615
   D59       -3.09807   0.00001   0.00172   0.00119   0.00291  -3.09516
   D60        2.16849   0.00002   0.00388  -0.00067   0.00321   2.17170
   D61       -0.98272   0.00002   0.00184   0.00127   0.00311  -0.97960
   D62       -2.05417  -0.00002   0.00463  -0.00129   0.00335  -2.05082
   D63        1.07781  -0.00002   0.00259   0.00066   0.00325   1.08106
         Item               Value     Threshold  Converged?
 Maximum Force            0.000188     0.000450     YES
 RMS     Force            0.000036     0.000300     YES
 Maximum Displacement     0.029833     0.001800     NO 
 RMS     Displacement     0.004511     0.001200     NO 
 Predicted change in Energy=-1.325485D-06
 GradGradGradGradGradGradGradGradGradGradGradGradGradGradGradGradGradGrad

                          Input orientation:                          
 ---------------------------------------------------------------------
 Center     Atomic      Atomic             Coordinates (Angstroms)
 Number     Number       Type             X           Y           Z
 ---------------------------------------------------------------------
      1          7           0        2.427361    0.998669    0.382732
      2          1           0        2.114541    1.211378    1.333862
      3          6           0        1.293988    0.505644   -0.344033
      4          1           0        0.580575    1.329375   -0.481705
      5          1           0        1.621152    0.196624   -1.339350
      6          6           0        0.597008   -0.673841    0.354205
      7          1           0        0.240006   -0.363865    1.337031
      8          1           0        1.346172   -1.444283    0.537418
      9          6           0       -0.523477   -1.307929   -0.471384
     10          1           0       -0.382630   -1.081999   -1.527973
     11          1           0       -0.510747   -2.391639   -0.363758
     12          7           0       -1.930632   -0.889994   -0.138921
     13          6           0       -2.321032   -1.391927    1.212509
     14          1           0       -3.347618   -1.075410    1.379464
     15          1           0       -2.222178   -2.475189    1.222086
     16          1           0       -1.668442   -0.950996    1.959631
     17          6           0       -2.837216   -1.508609   -1.154904
     18          1           0       -2.701095   -2.587625   -1.131143
     19          1           0       -3.852675   -1.220183   -0.897931
     20          1           0       -2.569774   -1.119217   -2.134099
     21          6           0       -2.079631    0.616681   -0.191531
     22          1           0       -1.730589    0.931266   -1.173093
     23          1           0       -1.423440    1.029098    0.569845
     24          6           0       -3.518579    1.214223    0.049501
     25          8           0       -4.431858    0.416646    0.328811
     26          8           0       -3.493797    2.435013   -0.075290
 ---------------------------------------------------------------------
                    Distance matrix (angstroms):
                    1          2          3          4          5
     1  N    0.000000
     2  H    1.023596   0.000000
     3  C    1.433805   1.996672   0.000000
     4  H    2.065729   2.379760   1.098383   0.000000
     5  H    2.063690   2.901589   1.092330   1.761102   0.000000
     6  C    2.479576   2.610879   1.537694   2.170689   2.162108
     7  H    2.748037   2.448527   2.166310   2.508156   3.063450
     8  H    2.675987   2.877021   2.140535   3.052528   2.508076
     9  C    3.841530   4.070008   2.570689   2.859092   2.759797
    10  H    3.984473   4.436839   2.594874   2.799494   2.384449
    11  H    4.547957   4.770302   3.413459   3.879541   3.492260
    12  N    4.778208   4.790436   3.519666   3.368866   3.903452
    13  C    5.380587   5.144534   4.369436   4.323791   4.957448
    14  H    6.216564   5.921711   5.197565   4.967660   5.805058
    15  H    5.864334   5.693013   4.868420   5.023249   5.335796
    16  H    4.802438   4.402092   4.025501   4.027194   4.798097
    17  C    6.030468   6.173507   4.667074   4.493178   4.776912
    18  H    6.438508   6.610524   5.113564   5.151118   5.145601
    19  H    6.782496   6.819169   5.456503   5.131004   5.671417
    20  H    5.982578   6.277040   4.557759   4.318646   4.463958
    21  C    4.559459   4.502396   3.378889   2.769265   3.897400
    22  H    4.440010   4.598729   3.164896   2.444993   3.435333
    23  H    3.855464   3.624121   2.914377   2.282980   3.688845
    24  C    5.959170   5.777684   4.880344   4.135034   5.420447
    25  O    6.884078   6.670612   5.765930   5.158923   6.282523
    26  O    6.110072   5.910705   5.168904   4.241239   5.724590
                    6          7          8          9         10
     6  C    0.000000
     7  H    1.090634   0.000000
     8  H    1.090135   1.740773   0.000000
     9  C    1.529429   2.178194   2.128817   0.000000
    10  H    2.160758   3.018549   2.717691   1.089615   0.000000
    11  H    2.166430   2.751032   2.271068   1.089115   1.756976
    12  N    2.584349   2.677109   3.391478   1.505087   2.088694
    13  C    3.125267   2.762487   3.729193   2.464500   3.371009
    14  H    4.095423   3.657751   4.782968   3.384594   4.152636
    15  H    3.456281   3.245497   3.776859   2.667568   3.589949
    16  H    2.790425   2.091537   3.369559   2.710753   3.719389
    17  C    3.842934   4.121829   4.513184   2.420922   2.519160
    18  H    4.092225   4.437011   4.524566   2.610541   2.792787
    19  H    4.654677   4.741136   5.398006   3.357559   3.529484
    20  H    4.051978   4.529256   4.751558   2.643400   2.269884
    21  C    3.021204   2.945961   4.063873   2.490795   2.747982
    22  H    3.213522   3.444028   4.246827   2.638847   2.448709
    23  H    2.651172   2.301297   3.713410   2.712156   3.152913
    24  C    4.538247   4.274933   5.565206   3.950090   4.194667
    25  O    5.145803   4.842728   6.073895   4.346252   4.699981
    26  O    5.155979   4.875412   6.232948   4.794716   4.915182
                   11         12         13         14         15
    11  H    0.000000
    12  N    2.078838   0.000000
    13  C    2.600226   1.493557   0.000000
    14  H    3.580380   2.085119   1.087169   0.000000
    15  H    2.334711   2.109546   1.087805   1.802987   0.000000
    16  H    2.968812   2.115747   1.085580   1.780928   1.781505
    17  C    2.611152   1.495594   2.425841   2.621296   2.638679
    18  H    2.329145   2.111888   2.658354   3.001322   2.404099
    19  H    3.581360   2.092695   2.613309   2.337214   2.954325
    20  H    2.998793   2.107553   3.366902   3.598901   3.636408
    21  C    3.397212   1.514938   2.462542   2.634196   3.402689
    22  H    3.631080   2.103929   3.381856   3.627269   4.193147
    23  H    3.661430   2.107726   2.660837   2.964271   3.652866
    24  C    4.713818   2.642878   3.094951   2.653384   4.082569
    25  O    4.872497   2.860456   2.916752   2.122658   3.747443
    26  O    5.681405   3.674670   4.204672   3.802729   5.235483
                   16         17         18         19         20
    16  H    0.000000
    17  C    3.373025   0.000000
    18  H    3.646616   1.087828   0.000000
    19  H    3.606799   1.086454   1.802893   0.000000
    20  H    4.195155   1.087187   1.783084   1.784416   0.000000
    21  C    2.693360   2.453341   3.396567   2.648916   2.650878
    22  H    3.655234   2.679169   3.650512   3.034419   2.415004
    23  H    2.431523   3.378385   4.196004   3.621439   3.638771
    24  C    3.429253   3.054286   4.064019   2.633549   3.333659
    25  O    3.488049   2.907043   3.762001   2.125925   3.448501
    26  O    4.351767   4.141113   5.193274   3.763773   4.210114
                   21         22         23         24         25
    21  C    0.000000
    22  H    1.088236   0.000000
    23  H    1.086448   1.772497   0.000000
    24  C    1.576618   2.184424   2.166711   0.000000
    25  O    2.417383   3.133273   3.079573   1.244275   0.000000
    26  O    2.306449   2.564239   2.584409   1.227402   2.262092
                   26
    26  O    0.000000
 Stoichiometry    C7H15N2O2(2)
 Framework group  C1[X(C7H15N2O2)]
 Deg. of freedom    72
 Full point group                 C1      NOp   1
 Largest Abelian subgroup         C1      NOp   1
 Largest concise Abelian subgroup C1      NOp   1
                         Standard orientation:                         
 ---------------------------------------------------------------------
 Center     Atomic      Atomic             Coordinates (Angstroms)
 Number     Number       Type             X           Y           Z
 ---------------------------------------------------------------------
      1          7           0        3.874154    1.254890    0.224366
      2          1           0        3.569942    1.510492    1.167696
      3          6           0        2.755280    0.655019   -0.442022
      4          1           0        1.993905    1.427908   -0.613468
      5          1           0        3.078300    0.301411   -1.423757
      6          6           0        2.140625   -0.513857    0.345654
      7          1           0        1.787504   -0.161729    1.315599
      8          1           0        2.935647   -1.228774    0.558320
      9          6           0        1.040476   -1.259900   -0.410813
     10          1           0        1.146122   -1.094591   -1.482621
     11          1           0        1.116432   -2.332182   -0.235844
     12          7           0       -0.380661   -0.899349   -0.070724
     13          6           0       -0.713675   -1.334516    1.318681
     14          1           0       -1.752705   -1.064737    1.490642
     15          1           0       -0.553838   -2.407897    1.393678
     16          1           0       -0.071356   -0.811613    2.020453
     17          6           0       -1.272173   -1.630418   -1.023376
     18          1           0       -1.075077   -2.696619   -0.935408
     19          1           0       -2.296622   -1.382266   -0.760113
     20          1           0       -1.047730   -1.290339   -2.031318
     21          6           0       -0.615284    0.590441   -0.213954
     22          1           0       -0.305229    0.860302   -1.221575
     23          1           0        0.032533    1.086041    0.503738
     24          6           0       -2.080188    1.122373    0.024439
     25          8           0       -2.941056    0.295411    0.375520
     26          8           0       -2.126774    2.332208   -0.177166
 ---------------------------------------------------------------------
 Rotational constants (GHZ):           1.5732083           0.6454988           0.5210627
 Standard basis: 6-311+G(2d,2p) (5D, 7F)
 There are   454 symmetry adapted cartesian basis functions of A   symmetry.
 There are   432 symmetry adapted basis functions of A   symmetry.
   432 basis functions,   627 primitive gaussians,   454 cartesian basis functions
    44 alpha electrons       43 beta electrons
       nuclear repulsion energy       669.3365423301 Hartrees.
 NAtoms=   26 NActive=   26 NUniq=   26 SFac= 1.00D+00 NAtFMM=   60 NAOKFM=F Big=F
 Integral buffers will be    131072 words long.
 Raffenetti 2 integral format.
 Two-electron integral symmetry is turned on.
 Nuclear repulsion after empirical dispersion term =      669.3156070684 Hartrees.
 One-electron integrals computed using PRISM.
 NBasis=   432 RedAO= T EigKep=  1.20D-05  NBF=   432
 NBsUse=   432 1.00D-06 EigRej= -1.00D+00 NBFU=   432
 Initial guess from the checkpoint file:  "aminopropyl_betaine.chk"
 B after Tr=     0.000000    0.000000   -0.000000
         Rot=    1.000000   -0.000546   -0.000093   -0.000001 Ang=  -0.06 deg.
 Initial guess <Sx>= 0.0000 <Sy>= 0.0000 <Sz>= 0.5000 <S**2>= 0.7543 S= 0.5021
 ExpMin= 4.38D-02 ExpMax= 8.59D+03 ExpMxC= 1.30D+03 IAcc=2 IRadAn=         4 AccDes= 0.00D+00
 Harris functional with IExCor= 4639 and IRadAn=       4 diagonalized for initial guess.
 HarFok:  IExCor= 4639 AccDes= 0.00D+00 IRadAn=         4 IDoV= 1 UseB2=F ITyADJ=14
 ICtDFT=  3500011 ScaDFX=  1.000000  1.000000  1.000000  1.000000
 FoFCou: FMM=F IPFlag=           0 FMFlag=      100000 FMFlg1=           0
         NFxFlg=           0 DoJE=T BraDBF=F KetDBF=T FulRan=T
         wScrn=  0.000000 ICntrl=       500 IOpCl=  0 I1Cent=   200000004 NGrid=           0
         NMat0=    1 NMatS0=      1 NMatT0=    0 NMatD0=    1 NMtDS0=    0 NMtDT0=    0
 Petite list used in FoFCou.
 Requested convergence on RMS density matrix=1.00D-08 within  32 cycles.
 Requested convergence on MAX density matrix=1.00D-06.
 Requested convergence on             energy=1.00D-06.
 No special actions if energy rises.
 SCF Done:  E(UwB97XD) =  -535.629790756     A.U. after   14 cycles
            NFock= 14  Conv=0.37D-08     -V/T= 2.0039
 <Sx>= 0.0000 <Sy>= 0.0000 <Sz>= 0.5000 <S**2>= 0.7543 S= 0.5021
 <L.S>= 0.000000000000E+00
 Annihilation of the first spin contaminant:
 S**2 before annihilation     0.7543,   after     0.7500
 QCSCF skips out because SCF is already converged.
 Calling FoFJK, ICntrl=      2127 FMM=F ISym2X=0 I1Cent= 0 IOpClX= 1 NMat=1 NMatS=1 NMatT=0.
 ***** Axes restored to original set *****
 -------------------------------------------------------------------
 Center     Atomic                   Forces (Hartrees/Bohr)
 Number     Number              X              Y              Z
 -------------------------------------------------------------------
      1        7           0.000083295    0.000031640   -0.000127029
      2        1          -0.000034822    0.000023871    0.000159619
      3        6           0.000004248   -0.000067611    0.000005841
      4        1          -0.000033366    0.000032288   -0.000034141
      5        1          -0.000023150    0.000002262   -0.000015693
      6        6           0.000012153   -0.000002500   -0.000014666
      7        1          -0.000007620   -0.000013578    0.000030261
      8        1          -0.000005325   -0.000009017    0.000039760
      9        6          -0.000018916   -0.000034445   -0.000019693
     10        1          -0.000007695    0.000014441   -0.000010482
     11        1           0.000003311    0.000016303   -0.000009970
     12        7          -0.000015158    0.000009715   -0.000010282
     13        6           0.000023908   -0.000011039    0.000012170
     14        1           0.000016055   -0.000015550    0.000009426
     15        1           0.000000497   -0.000004222   -0.000001712
     16        1          -0.000006305    0.000006583   -0.000000089
     17        6           0.000031116   -0.000014435   -0.000005515
     18        1          -0.000004475    0.000000816    0.000001152
     19        1          -0.000007454    0.000006504    0.000005593
     20        1           0.000000956   -0.000004728   -0.000006314
     21        6           0.000013718   -0.000002264    0.000041076
     22        1          -0.000017132    0.000014166   -0.000006982
     23        1           0.000001459    0.000006615   -0.000015281
     24        6           0.000014021   -0.000058998   -0.000037790
     25        8          -0.000036732    0.000027503    0.000005533
     26        8           0.000013416    0.000045680    0.000005205
 -------------------------------------------------------------------
 Cartesian Forces:  Max     0.000159619 RMS     0.000032343

 GradGradGradGradGradGradGradGradGradGradGradGradGradGradGradGradGradGrad
 Berny optimization.
 Using GEDIIS/GDIIS optimizer.
 FormGI is forming the generalized inverse of G from B-inverse, IUseBI=4.
 Internal  Forces:  Max     0.000163432 RMS     0.000027683
 Search for a local minimum.
 Step number  13 out of a maximum of  144
 All quantities printed in internal units (Hartrees-Bohrs-Radians)
 Mixed Optimization -- En-DIIS/RFO-DIIS
 Swapping is turned off.
 Update second derivatives using D2CorX and points    1    4    3    5    2
                                                      6    7    8    9   10
                                                     11   12   13
 DE= -1.15D-06 DEPred=-1.33D-06 R= 8.68D-01
 TightC=F SS=  1.41D+00  RLast= 3.77D-02 DXNew= 1.7838D-01 1.1298D-01
 Trust test= 8.68D-01 RLast= 3.77D-02 DXMaxT set to 1.13D-01
 ITU=  1  0  0  1  1 -1  0  0  0 -1 -1  1  0
     Eigenvalues ---    0.00099   0.00236   0.00274   0.00422   0.00448
     Eigenvalues ---    0.00540   0.00562   0.01597   0.03317   0.03811
     Eigenvalues ---    0.03941   0.04668   0.04734   0.04848   0.04903
     Eigenvalues ---    0.05238   0.05647   0.05874   0.06025   0.06075
     Eigenvalues ---    0.06151   0.06226   0.06510   0.08525   0.08813
     Eigenvalues ---    0.08998   0.09931   0.10509   0.12440   0.12661
     Eigenvalues ---    0.13751   0.13901   0.15465   0.15926   0.15998
     Eigenvalues ---    0.16004   0.16007   0.16075   0.16132   0.17998
     Eigenvalues ---    0.18138   0.20294   0.22117   0.24227   0.25138
     Eigenvalues ---    0.25608   0.26467   0.28495   0.29859   0.30374
     Eigenvalues ---    0.32846   0.33282   0.33585   0.34748   0.34815
     Eigenvalues ---    0.34874   0.34972   0.34991   0.35032   0.35073
     Eigenvalues ---    0.35090   0.35122   0.35127   0.35160   0.35303
     Eigenvalues ---    0.35372   0.36062   0.39136   0.47815   0.59912
     Eigenvalues ---    0.85704   0.92192
 En-DIIS/RFO-DIIS/Sim-DIIS IScMMF=       -3 using points:    13   12   11   10    9    8    7    6
 RFO step:  Lambda=-4.89157562D-07.
 DidBck=F Rises=F RFO-DIIS coefs:    1.03306    0.40173   -0.37754   -0.06290   -0.09349
                  RFO-DIIS coefs:    0.04546    0.02866    0.02503
 Iteration  1 RMS(Cart)=  0.00100316 RMS(Int)=  0.00000174
 Iteration  2 RMS(Cart)=  0.00000151 RMS(Int)=  0.00000058
 Iteration  3 RMS(Cart)=  0.00000000 RMS(Int)=  0.00000058
 Variable       Old X    -DE/DX   Delta X   Delta X   Delta X     New X
                                 (Linear)    (Quad)   (Total)
    R1        1.93432   0.00016  -0.00002   0.00030   0.00028   1.93459
    R2        2.70950   0.00007   0.00001   0.00013   0.00013   2.70963
    R3        2.07564   0.00005   0.00003   0.00011   0.00014   2.07579
    R4        2.06420   0.00001   0.00003   0.00001   0.00004   2.06424
    R5        2.90582   0.00002  -0.00016   0.00009  -0.00007   2.90575
    R6        2.06100   0.00003   0.00001   0.00006   0.00007   2.06107
    R7        2.06006   0.00001   0.00003   0.00001   0.00004   2.06010
    R8        2.89020   0.00002  -0.00003   0.00005   0.00003   2.89023
    R9        2.05907   0.00001  -0.00001   0.00004   0.00003   2.05911
   R10        2.05813  -0.00002   0.00001  -0.00005  -0.00003   2.05810
   R11        2.84420  -0.00002   0.00006  -0.00007  -0.00000   2.84420
   R12        2.82241   0.00002  -0.00003   0.00006   0.00003   2.82245
   R13        2.82626  -0.00000  -0.00002  -0.00001  -0.00002   2.82624
   R14        2.86282   0.00004  -0.00011   0.00014   0.00002   2.86284
   R15        2.05445  -0.00002   0.00002  -0.00005  -0.00003   2.05442
   R16        2.05565   0.00000  -0.00000   0.00001   0.00001   2.05566
   R17        2.05145  -0.00000   0.00001  -0.00002  -0.00001   2.05144
   R18        2.05570  -0.00000   0.00000  -0.00000  -0.00000   2.05569
   R19        2.05310   0.00001   0.00000   0.00002   0.00002   2.05312
   R20        2.05449   0.00000  -0.00001   0.00002   0.00001   2.05449
   R21        2.05647   0.00000  -0.00000   0.00001   0.00001   2.05648
   R22        2.05309  -0.00001   0.00001  -0.00002  -0.00001   2.05308
   R23        2.97938   0.00001  -0.00008   0.00004  -0.00004   2.97934
   R24        2.35134   0.00001   0.00001   0.00001   0.00001   2.35135
   R25        2.31945   0.00005  -0.00001   0.00004   0.00003   2.31949
    A1        1.87641   0.00003  -0.00014   0.00024   0.00010   1.87651
    A2        1.89555  -0.00001  -0.00050   0.00003  -0.00047   1.89508
    A3        1.89905  -0.00000   0.00002   0.00007   0.00009   1.89913
    A4        1.97347   0.00005   0.00036   0.00025   0.00061   1.97408
    A5        1.86762  -0.00001  -0.00019  -0.00026  -0.00044   1.86718
    A6        1.91533  -0.00001   0.00019  -0.00011   0.00009   1.91542
    A7        1.90976  -0.00002   0.00009  -0.00002   0.00007   1.90983
    A8        1.91724   0.00003   0.00008   0.00006   0.00014   1.91738
    A9        1.88276   0.00004  -0.00011   0.00026   0.00016   1.88291
   A10        1.98774  -0.00008   0.00030  -0.00030   0.00000   1.98774
   A11        1.84873  -0.00003  -0.00002  -0.00017  -0.00019   1.84854
   A12        1.94386   0.00001  -0.00001  -0.00007  -0.00008   1.94377
   A13        1.87673   0.00003  -0.00029   0.00025  -0.00004   1.87669
   A14        1.92067   0.00003  -0.00001   0.00003   0.00002   1.92069
   A15        1.92904   0.00002  -0.00012   0.00014   0.00002   1.92906
   A16        2.03822  -0.00007   0.00014  -0.00026  -0.00013   2.03809
   A17        1.87615  -0.00001  -0.00002   0.00006   0.00005   1.87620
   A18        1.85196   0.00001   0.00010  -0.00011  -0.00001   1.85195
   A19        1.83942   0.00003  -0.00010   0.00017   0.00007   1.83949
   A20        1.92937  -0.00002   0.00005  -0.00017  -0.00012   1.92925
   A21        1.87739   0.00001   0.00014  -0.00013   0.00001   1.87741
   A22        1.93955  -0.00002   0.00026  -0.00033  -0.00008   1.93947
   A23        1.89360   0.00000  -0.00008   0.00014   0.00006   1.89366
   A24        1.91766   0.00003  -0.00019   0.00026   0.00006   1.91772
   A25        1.90515   0.00000  -0.00018   0.00024   0.00006   1.90521
   A26        1.86287   0.00002  -0.00004   0.00013   0.00009   1.86296
   A27        1.89534  -0.00001   0.00003  -0.00004  -0.00001   1.89532
   A28        1.90615  -0.00000  -0.00004   0.00004  -0.00000   1.90614
   A29        1.95453  -0.00001  -0.00001  -0.00007  -0.00008   1.95444
   A30        1.92165  -0.00001   0.00006  -0.00007  -0.00001   1.92165
   A31        1.92174   0.00000   0.00000   0.00002   0.00002   1.92176
   A32        1.89609   0.00000   0.00001   0.00002   0.00003   1.89612
   A33        1.87138  -0.00001   0.00002  -0.00008  -0.00006   1.87132
   A34        1.89081   0.00001  -0.00002   0.00005   0.00003   1.89084
   A35        1.95531   0.00000   0.00002   0.00001   0.00003   1.95534
   A36        1.92213  -0.00000   0.00002  -0.00001   0.00001   1.92215
   A37        1.92609   0.00000  -0.00006   0.00002  -0.00004   1.92605
   A38        1.86218  -0.00002   0.00009  -0.00008   0.00001   1.86219
   A39        1.86899  -0.00003   0.00006  -0.00002   0.00004   1.86903
   A40        2.05036   0.00012  -0.00046   0.00065   0.00019   2.05055
   A41        1.90566   0.00001   0.00012  -0.00015  -0.00003   1.90563
   A42        1.89765  -0.00006   0.00013  -0.00036  -0.00023   1.89742
   A43        1.87573  -0.00003   0.00009  -0.00007   0.00002   1.87575
   A44        2.05022   0.00008  -0.00018   0.00031   0.00013   2.05035
   A45        1.92089  -0.00005   0.00010  -0.00023  -0.00013   1.92077
   A46        2.31201  -0.00003   0.00008  -0.00008  -0.00000   2.31201
    D1        1.19243   0.00002   0.00291   0.00099   0.00389   1.19632
    D2       -3.06360  -0.00000   0.00242   0.00074   0.00316  -3.06044
    D3       -0.93789   0.00001   0.00278   0.00093   0.00372  -0.93417
    D4        1.05233   0.00000  -0.00032  -0.00003  -0.00035   1.05198
    D5       -0.95512  -0.00000  -0.00029   0.00000  -0.00028  -0.95541
    D6       -3.03679  -0.00002  -0.00003  -0.00031  -0.00035  -3.03714
    D7       -1.06686  -0.00001  -0.00006  -0.00017  -0.00023  -1.06709
    D8       -3.07431  -0.00001  -0.00002  -0.00014  -0.00016  -3.07448
    D9        1.12720  -0.00002   0.00023  -0.00045  -0.00022   1.12697
   D10       -3.11117   0.00002   0.00001   0.00021   0.00022  -3.11095
   D11        1.16456   0.00002   0.00004   0.00025   0.00029   1.16484
   D12       -0.91712   0.00001   0.00029  -0.00007   0.00022  -0.91689
   D13        0.38281  -0.00000   0.00097  -0.00004   0.00093   0.38374
   D14        2.45236   0.00001   0.00087   0.00014   0.00101   2.45337
   D15       -1.72901   0.00001   0.00075   0.00028   0.00102  -1.72799
   D16        2.56274  -0.00001   0.00131  -0.00026   0.00105   2.56379
   D17       -1.65091   0.00001   0.00122  -0.00008   0.00113  -1.64977
   D18        0.45091   0.00001   0.00109   0.00006   0.00115   0.45205
   D19       -1.70228  -0.00002   0.00112  -0.00036   0.00076  -1.70152
   D20        0.36727  -0.00000   0.00102  -0.00018   0.00084   0.36810
   D21        2.46908  -0.00000   0.00090  -0.00005   0.00085   2.46993
   D22       -1.18350   0.00000   0.00055  -0.00001   0.00055  -1.18295
   D23        3.03509   0.00000   0.00053  -0.00000   0.00053   3.03561
   D24        0.95065   0.00000   0.00051  -0.00003   0.00049   0.95114
   D25        2.95200   0.00001   0.00039   0.00022   0.00062   2.95261
   D26        0.88739   0.00001   0.00037   0.00023   0.00060   0.88799
   D27       -1.19705   0.00001   0.00036   0.00020   0.00056  -1.19648
   D28        0.96525  -0.00000   0.00041   0.00013   0.00054   0.96579
   D29       -1.09936   0.00000   0.00039   0.00013   0.00052  -1.09883
   D30        3.09939   0.00000   0.00038   0.00011   0.00049   3.09987
   D31       -3.12099  -0.00001  -0.00053   0.00065   0.00012  -3.12087
   D32       -1.01079  -0.00001  -0.00055   0.00062   0.00007  -1.01072
   D33        1.08519  -0.00001  -0.00056   0.00064   0.00008   1.08527
   D34       -1.06630  -0.00000  -0.00037   0.00048   0.00011  -1.06619
   D35        1.04390  -0.00000  -0.00040   0.00045   0.00005   1.04396
   D36        3.13988  -0.00000  -0.00040   0.00047   0.00007   3.13995
   D37        1.01528   0.00002  -0.00075   0.00101   0.00026   1.01553
   D38        3.12548   0.00002  -0.00077   0.00098   0.00020   3.12568
   D39       -1.06173   0.00002  -0.00078   0.00100   0.00022  -1.06151
   D40        1.00530   0.00000  -0.00035   0.00063   0.00028   1.00558
   D41        3.12178   0.00000  -0.00030   0.00060   0.00029   3.12208
   D42       -1.08264   0.00000  -0.00037   0.00060   0.00023  -1.08241
   D43       -1.08223   0.00002  -0.00045   0.00082   0.00038  -1.08185
   D44        1.03425   0.00002  -0.00040   0.00079   0.00039   1.03465
   D45        3.11302   0.00002  -0.00047   0.00079   0.00033   3.11334
   D46        3.11155  -0.00001  -0.00006   0.00029   0.00023   3.11177
   D47       -1.05516  -0.00002  -0.00001   0.00026   0.00024  -1.05491
   D48        1.02360  -0.00002  -0.00008   0.00026   0.00018   1.02378
   D49        0.94631   0.00001  -0.00005   0.00019   0.00015   0.94646
   D50       -1.09252   0.00002  -0.00026   0.00042   0.00016  -1.09236
   D51        3.08018  -0.00001  -0.00011   0.00009  -0.00002   3.08016
   D52        3.08723  -0.00002   0.00006  -0.00007  -0.00001   3.08721
   D53        1.04840  -0.00000  -0.00016   0.00016   0.00000   1.04840
   D54       -1.06209  -0.00003  -0.00001  -0.00017  -0.00018  -1.06227
   D55       -1.12147   0.00000  -0.00026   0.00040   0.00014  -1.12133
   D56        3.12289   0.00001  -0.00048   0.00063   0.00015   3.12304
   D57        1.01240  -0.00001  -0.00033   0.00030  -0.00003   1.01237
   D58        0.05615   0.00000  -0.00010  -0.00023  -0.00033   0.05582
   D59       -3.09516  -0.00001   0.00047  -0.00087  -0.00040  -3.09556
   D60        2.17170   0.00002  -0.00020  -0.00017  -0.00037   2.17133
   D61       -0.97960   0.00001   0.00038  -0.00081  -0.00044  -0.98004
   D62       -2.05082  -0.00002   0.00006  -0.00059  -0.00053  -2.05135
   D63        1.08106  -0.00003   0.00064  -0.00123  -0.00059   1.08046
         Item               Value     Threshold  Converged?
 Maximum Force            0.000163     0.000450     YES
 RMS     Force            0.000028     0.000300     YES
 Maximum Displacement     0.004776     0.001800     NO 
 RMS     Displacement     0.001003     0.001200     YES
 Predicted change in Energy=-2.325791D-07
 GradGradGradGradGradGradGradGradGradGradGradGradGradGradGradGradGradGrad

                          Input orientation:                          
 ---------------------------------------------------------------------
 Center     Atomic      Atomic             Coordinates (Angstroms)
 Number     Number       Type             X           Y           Z
 ---------------------------------------------------------------------
      1          7           0        2.426431    1.000120    0.382953
      2          1           0        2.114779    1.208851    1.335504
      3          6           0        1.293100    0.506241   -0.343437
      4          1           0        0.579164    1.329748   -0.480346
      5          1           0        1.619852    0.198403   -1.339278
      6          6           0        0.597026   -0.674194    0.354017
      7          1           0        0.240195   -0.365406    1.337320
      8          1           0        1.346570   -1.444499    0.536377
      9          6           0       -0.523475   -1.308134   -0.471690
     10          1           0       -0.382666   -1.081990   -1.528255
     11          1           0       -0.510796   -2.391844   -0.364239
     12          7           0       -1.930552   -0.890077   -0.139060
     13          6           0       -2.320488   -1.391600    1.212675
     14          1           0       -3.347063   -1.075236    1.379899
     15          1           0       -2.221505   -2.474851    1.222574
     16          1           0       -1.667729   -0.950335    1.959445
     17          6           0       -2.837373   -1.509029   -1.154608
     18          1           0       -2.701487   -2.588062   -1.130333
     19          1           0       -3.852732   -1.220217   -0.897621
     20          1           0       -2.570027   -1.120174   -2.134048
     21          6           0       -2.079431    0.616606   -0.192138
     22          1           0       -1.730707    0.930832   -1.173933
     23          1           0       -1.422938    1.029263    0.568839
     24          6           0       -3.518155    1.214616    0.048926
     25          8           0       -4.431785    0.417468    0.328339
     26          8           0       -3.492817    2.435409   -0.075900
 ---------------------------------------------------------------------
                    Distance matrix (angstroms):
                    1          2          3          4          5
     1  N    0.000000
     2  H    1.023742   0.000000
     3  C    1.433875   1.996912   0.000000
     4  H    2.065511   2.381185   1.098459   0.000000
     5  H    2.063831   2.901795   1.092351   1.760891   0.000000
     6  C    2.480099   2.610125   1.537657   2.170775   2.162140
     7  H    2.748655   2.447929   2.166407   2.508457   3.063578
     8  H    2.676902   2.875590   2.140635   3.052718   2.508365
     9  C    3.841926   4.069588   2.570671   2.859075   2.759749
    10  H    3.984838   4.436925   2.595085   2.799949   2.384366
    11  H    4.548738   4.769462   3.413703   3.879657   3.492813
    12  N    4.777934   4.790047   3.519007   3.367904   3.902651
    13  C    5.379778   5.142862   4.368215   4.322041   4.956497
    14  H    6.215645   5.920367   5.196351   4.965855   5.803992
    15  H    5.863762   5.690850   4.867417   5.021818   5.335298
    16  H    4.801224   4.399858   4.023852   4.024908   4.796807
    17  C    6.030552   6.173438   4.666917   4.492884   4.776640
    18  H    6.438993   6.610092   5.113769   5.151154   5.146068
    19  H    6.782157   6.818974   5.455947   5.130121   5.670690
    20  H    5.982937   6.277703   4.557989   4.319056   4.463787
    21  C    4.558575   4.502870   3.377726   2.767627   3.895577
    22  H    4.439650   4.600253   3.164397   2.444524   3.433662
    23  H    3.853964   3.624288   2.912500   2.280239   3.686436
    24  C    5.957826   5.777998   4.878926   4.132966   5.418387
    25  O    6.883139   6.670695   5.764848   5.157115   6.281023
    26  O    6.108036   5.911146   5.167037   4.238761   5.721863
                    6          7          8          9         10
     6  C    0.000000
     7  H    1.090671   0.000000
     8  H    1.090156   1.740694   0.000000
     9  C    1.529442   2.178174   2.128817   0.000000
    10  H    2.160797   3.018770   2.717421   1.089632   0.000000
    11  H    2.166444   2.750589   2.271206   1.089097   1.757005
    12  N    2.584257   2.677148   3.391626   1.505085   2.088695
    13  C    3.124717   2.761469   3.729275   2.464409   3.371011
    14  H    4.095010   3.657060   4.783103   3.384564   4.152716
    15  H    3.455557   3.243901   3.776724   2.667408   3.590049
    16  H    2.789761   2.090300   3.369765   2.710674   3.719243
    17  C    3.842915   4.121772   4.513200   2.420922   2.519436
    18  H    4.092233   4.436553   4.524646   2.610701   2.793478
    19  H    4.654577   4.741066   5.398091   3.357544   3.529612
    20  H    4.052109   4.529615   4.751430   2.643320   2.270020
    21  C    3.021237   2.946905   4.064033   2.490737   2.747626
    22  H    3.213889   3.445443   4.246998   2.638848   2.448307
    23  H    2.651069   2.302536   3.713586   2.712039   3.152358
    24  C    4.538216   4.275702   5.565434   3.950116   4.194424
    25  O    5.146001   4.843380   6.074503   4.346566   4.700073
    26  O    5.155704   4.876180   6.232836   4.794555   4.914721
                   11         12         13         14         15
    11  H    0.000000
    12  N    2.078874   0.000000
    13  C    2.600410   1.493574   0.000000
    14  H    3.580486   2.085191   1.087154   0.000000
    15  H    2.334822   2.109552   1.087809   1.802929   0.000000
    16  H    2.969166   2.115757   1.085576   1.780909   1.781515
    17  C    2.610940   1.495581   2.425900   2.621390   2.638769
    18  H    2.329062   2.111898   2.658264   3.001112   2.404033
    19  H    3.581305   2.092649   2.613521   2.337481   2.954697
    20  H    2.998300   2.107569   3.366971   3.599115   3.636418
    21  C    3.397205   1.514951   2.462621   2.634487   3.402749
    22  H    3.630972   2.103951   3.381927   3.627530   4.193186
    23  H    3.661503   2.107762   2.660959   2.964624   3.652930
    24  C    4.713966   2.643020   3.095333   2.654089   4.083004
    25  O    4.872992   2.860822   2.917593   2.123809   3.748400
    26  O    5.681370   3.674714   4.204852   3.803318   5.235736
                   16         17         18         19         20
    16  H    0.000000
    17  C    3.373060   0.000000
    18  H    3.646578   1.087826   0.000000
    19  H    3.606923   1.086466   1.802919   0.000000
    20  H    4.195196   1.087191   1.783093   1.784403   0.000000
    21  C    2.693346   2.453395   3.396624   2.648815   2.651056
    22  H    3.655244   2.679180   3.650606   3.034197   2.415140
    23  H    2.431566   3.378435   4.196059   3.621403   3.638885
    24  C    3.429457   3.054538   4.064229   2.633687   3.334001
    25  O    3.488753   2.907348   3.762295   2.126098   3.448744
    26  O    4.351648   4.141475   5.193582   3.764089   4.210663
                   21         22         23         24         25
    21  C    0.000000
    22  H    1.088241   0.000000
    23  H    1.086441   1.772474   0.000000
    24  C    1.576597   2.184237   2.166703   0.000000
    25  O    2.417463   3.133080   3.079821   1.244282   0.000000
    26  O    2.306343   2.564072   2.584055   1.227420   2.262114
                   26
    26  O    0.000000
 Stoichiometry    C7H15N2O2(2)
 Framework group  C1[X(C7H15N2O2)]
 Deg. of freedom    72
 Full point group                 C1      NOp   1
 Largest Abelian subgroup         C1      NOp   1
 Largest concise Abelian subgroup C1      NOp   1
                         Standard orientation:                         
 ---------------------------------------------------------------------
 Center     Atomic      Atomic             Coordinates (Angstroms)
 Number     Number       Type             X           Y           Z
 ---------------------------------------------------------------------
      1          7           0        3.873218    1.255915    0.224129
      2          1           0        3.570593    1.507626    1.169173
      3          6           0        2.754306    0.655332   -0.441706
      4          1           0        1.992441    1.428067   -0.612160
      5          1           0        3.076660    0.302930   -1.424117
      6          6           0        2.140676   -0.514544    0.345210
      7          1           0        1.787978   -0.163643    1.315795
      8          1           0        2.936056   -1.229414    0.556804
      9          6           0        1.040342   -1.260327   -0.411274
     10          1           0        1.145767   -1.094703   -1.483073
     11          1           0        1.116229   -2.332644   -0.236599
     12          7           0       -0.380649   -0.899615   -0.070756
     13          6           0       -0.713002   -1.334454    1.318928
     14          1           0       -1.751967   -1.064783    1.491368
     15          1           0       -0.553062   -2.407811    1.394110
     16          1           0       -0.070402   -0.811327    2.020269
     17          6           0       -1.272558   -1.630872   -1.022871
     18          1           0       -1.075715   -2.697086   -0.934522
     19          1           0       -2.296874   -1.382313   -0.759425
     20          1           0       -1.048340   -1.291258   -2.031024
     21          6           0       -0.615124    0.590184   -0.214268
     22          1           0       -0.305528    0.859742   -1.222116
     23          1           0        0.033113    1.085915    0.502945
     24          6           0       -2.079768    1.122634    0.024419
     25          8           0       -2.940986    0.296087    0.375647
     26          8           0       -2.125785    2.332523   -0.177105
 ---------------------------------------------------------------------
 Rotational constants (GHZ):           1.5726456           0.6457257           0.5211455
 Standard basis: 6-311+G(2d,2p) (5D, 7F)
 There are   454 symmetry adapted cartesian basis functions of A   symmetry.
 There are   432 symmetry adapted basis functions of A   symmetry.
   432 basis functions,   627 primitive gaussians,   454 cartesian basis functions
    44 alpha electrons       43 beta electrons
       nuclear repulsion energy       669.3418535948 Hartrees.
 NAtoms=   26 NActive=   26 NUniq=   26 SFac= 1.00D+00 NAtFMM=   60 NAOKFM=F Big=F
 Integral buffers will be    131072 words long.
 Raffenetti 2 integral format.
 Two-electron integral symmetry is turned on.
 Nuclear repulsion after empirical dispersion term =      669.3209168721 Hartrees.
 One-electron integrals computed using PRISM.
 NBasis=   432 RedAO= T EigKep=  1.20D-05  NBF=   432
 NBsUse=   432 1.00D-06 EigRej= -1.00D+00 NBFU=   432
 Initial guess from the checkpoint file:  "aminopropyl_betaine.chk"
 B after Tr=    -0.000000   -0.000000    0.000000
         Rot=    1.000000    0.000006   -0.000047    0.000014 Ang=   0.01 deg.
 Initial guess <Sx>= 0.0000 <Sy>= 0.0000 <Sz>= 0.5000 <S**2>= 0.7543 S= 0.5021
 Requested convergence on RMS density matrix=1.00D-08 within  32 cycles.
 Requested convergence on MAX density matrix=1.00D-06.
 Requested convergence on             energy=1.00D-06.
 No special actions if energy rises.
 SCF Done:  E(UwB97XD) =  -535.629791000     A.U. after   12 cycles
            NFock= 12  Conv=0.40D-08     -V/T= 2.0039
 <Sx>= 0.0000 <Sy>= 0.0000 <Sz>= 0.5000 <S**2>= 0.7543 S= 0.5021
 <L.S>= 0.000000000000E+00
 Annihilation of the first spin contaminant:
 S**2 before annihilation     0.7543,   after     0.7500
 QCSCF skips out because SCF is already converged.
 Calling FoFJK, ICntrl=      2127 FMM=F ISym2X=0 I1Cent= 0 IOpClX= 1 NMat=1 NMatS=1 NMatT=0.
 ***** Axes restored to original set *****
 -------------------------------------------------------------------
 Center     Atomic                   Forces (Hartrees/Bohr)
 Number     Number              X              Y              Z
 -------------------------------------------------------------------
      1        7           0.000011945    0.000018726   -0.000060567
      2        1          -0.000009889    0.000002394    0.000045380
      3        6           0.000017095   -0.000028042    0.000028111
      4        1          -0.000001844    0.000009906   -0.000015635
      5        1          -0.000001565    0.000004992   -0.000001854
      6        6           0.000008268   -0.000001015   -0.000007131
      7        1           0.000000655   -0.000000699    0.000004606
      8        1          -0.000004338   -0.000000605    0.000019785
      9        6          -0.000004773   -0.000007906   -0.000014591
     10        1          -0.000005200    0.000007889   -0.000000571
     11        1           0.000000661    0.000004946   -0.000007039
     12        7           0.000001807   -0.000002424    0.000004428
     13        6           0.000001906   -0.000002283   -0.000009173
     14        1           0.000006770   -0.000003815    0.000004916
     15        1           0.000001384   -0.000001664   -0.000000357
     16        1          -0.000017978    0.000005538    0.000000082
     17        6           0.000011551    0.000002005    0.000000924
     18        1          -0.000004628    0.000001620    0.000002394
     19        1          -0.000006497    0.000000910    0.000004101
     20        1           0.000004959   -0.000004717   -0.000002406
     21        6          -0.000000110    0.000003236    0.000024507
     22        1          -0.000007441    0.000004378   -0.000006008
     23        1          -0.000005745   -0.000003308   -0.000007289
     24        6          -0.000003847   -0.000056129   -0.000003467
     25        8           0.000000497    0.000014244   -0.000002683
     26        8           0.000006359    0.000031822   -0.000000462
 -------------------------------------------------------------------
 Cartesian Forces:  Max     0.000060567 RMS     0.000014183

 GradGradGradGradGradGradGradGradGradGradGradGradGradGradGradGradGradGrad
 Berny optimization.
 Using GEDIIS/GDIIS optimizer.
 FormGI is forming the generalized inverse of G from B-inverse, IUseBI=4.
 Internal  Forces:  Max     0.000045155 RMS     0.000009366
 Search for a local minimum.
 Step number  14 out of a maximum of  144
 All quantities printed in internal units (Hartrees-Bohrs-Radians)
 Mixed Optimization -- En-DIIS/RFO-DIIS
 Swapping is turned off.
 Update second derivatives using D2CorX and points    1    4    3    5    2
                                                      6    7    8    9   10
                                                     11   12   13   14
 DE= -2.44D-07 DEPred=-2.33D-07 R= 1.05D+00
 Trust test= 1.05D+00 RLast= 7.38D-03 DXMaxT set to 1.13D-01
 ITU=  0  1  0  0  1  1 -1  0  0  0 -1 -1  1  0
     Eigenvalues ---    0.00108   0.00223   0.00274   0.00405   0.00448
     Eigenvalues ---    0.00489   0.00676   0.01600   0.03339   0.03805
     Eigenvalues ---    0.03966   0.04660   0.04729   0.04887   0.04909
     Eigenvalues ---    0.05247   0.05565   0.05797   0.06009   0.06083
     Eigenvalues ---    0.06177   0.06234   0.06635   0.08517   0.08839
     Eigenvalues ---    0.08993   0.09914   0.10438   0.12421   0.12768
     Eigenvalues ---    0.13702   0.13912   0.15459   0.15929   0.15940
     Eigenvalues ---    0.15998   0.16008   0.16017   0.16215   0.17941
     Eigenvalues ---    0.18557   0.20122   0.21347   0.24247   0.24977
     Eigenvalues ---    0.25392   0.27236   0.28650   0.29995   0.30326
     Eigenvalues ---    0.32874   0.33319   0.33791   0.34767   0.34821
     Eigenvalues ---    0.34887   0.34942   0.35010   0.35035   0.35072
     Eigenvalues ---    0.35090   0.35101   0.35129   0.35163   0.35191
     Eigenvalues ---    0.35401   0.36731   0.39445   0.46236   0.59720
     Eigenvalues ---    0.85893   0.92019
 En-DIIS/RFO-DIIS/Sim-DIIS IScMMF=       -3 using points:    14   13   12   11   10    9    8    7    6
 RFO step:  Lambda=-2.71567378D-07.
 DidBck=F Rises=F RFO-DIIS coefs:    1.72072   -0.23077   -1.68398    0.67837    0.47342
                  RFO-DIIS coefs:    0.04552   -0.00382   -0.00408    0.00462
 Iteration  1 RMS(Cart)=  0.00079077 RMS(Int)=  0.00000063
 Iteration  2 RMS(Cart)=  0.00000050 RMS(Int)=  0.00000051
 Variable       Old X    -DE/DX   Delta X   Delta X   Delta X     New X
                                 (Linear)    (Quad)   (Total)
    R1        1.93459   0.00005   0.00048  -0.00036   0.00012   1.93471
    R2        2.70963   0.00000   0.00020  -0.00019   0.00002   2.70965
    R3        2.07579   0.00001   0.00015  -0.00010   0.00005   2.07584
    R4        2.06424   0.00000   0.00004  -0.00003   0.00001   2.06425
    R5        2.90575   0.00001   0.00013  -0.00018  -0.00005   2.90570
    R6        2.06107   0.00000   0.00007  -0.00004   0.00003   2.06109
    R7        2.06010   0.00000   0.00002  -0.00002   0.00001   2.06010
    R8        2.89023   0.00002   0.00015  -0.00009   0.00006   2.89028
    R9        2.05911   0.00000   0.00005  -0.00005   0.00000   2.05911
   R10        2.05810  -0.00001  -0.00005   0.00004  -0.00002   2.05808
   R11        2.84420   0.00001   0.00008  -0.00008  -0.00001   2.84419
   R12        2.82245  -0.00000   0.00007  -0.00010  -0.00002   2.82242
   R13        2.82624  -0.00001  -0.00005   0.00004  -0.00001   2.82623
   R14        2.86284  -0.00000   0.00013  -0.00015  -0.00002   2.86282
   R15        2.05442  -0.00001  -0.00006   0.00003  -0.00002   2.05440
   R16        2.05566   0.00000   0.00001  -0.00000   0.00001   2.05567
   R17        2.05144  -0.00001  -0.00003   0.00002  -0.00001   2.05143
   R18        2.05569  -0.00000  -0.00000  -0.00001  -0.00001   2.05568
   R19        2.05312   0.00001   0.00002   0.00002   0.00004   2.05316
   R20        2.05449   0.00000   0.00001  -0.00001   0.00001   2.05450
   R21        2.05648   0.00000   0.00001   0.00000   0.00002   2.05649
   R22        2.05308  -0.00001  -0.00005   0.00002  -0.00003   2.05305
   R23        2.97934  -0.00001   0.00001  -0.00007  -0.00006   2.97928
   R24        2.35135  -0.00001   0.00002  -0.00004  -0.00002   2.35133
   R25        2.31949   0.00003   0.00006  -0.00001   0.00005   2.31953
    A1        1.87651   0.00000  -0.00020   0.00024   0.00004   1.87655
    A2        1.89508  -0.00002   0.00004  -0.00016  -0.00012   1.89496
    A3        1.89913  -0.00002   0.00027  -0.00033  -0.00006   1.89907
    A4        1.97408   0.00004   0.00022   0.00013   0.00036   1.97443
    A5        1.86718  -0.00000  -0.00030   0.00011  -0.00019   1.86699
    A6        1.91542  -0.00000  -0.00013   0.00013  -0.00000   1.91542
    A7        1.90983  -0.00001  -0.00013   0.00012  -0.00001   1.90982
    A8        1.91738   0.00001   0.00028  -0.00022   0.00006   1.91744
    A9        1.88291   0.00001   0.00014   0.00002   0.00016   1.88307
   A10        1.98774  -0.00003  -0.00014  -0.00008  -0.00022   1.98752
   A11        1.84854  -0.00001  -0.00033   0.00022  -0.00011   1.84843
   A12        1.94377   0.00001  -0.00001  -0.00003  -0.00004   1.94373
   A13        1.87669   0.00001   0.00004   0.00013   0.00017   1.87686
   A14        1.92069  -0.00001   0.00003  -0.00002   0.00001   1.92070
   A15        1.92906   0.00000  -0.00004   0.00014   0.00009   1.92915
   A16        2.03809   0.00002   0.00007  -0.00019  -0.00012   2.03797
   A17        1.87620   0.00000  -0.00001   0.00004   0.00003   1.87623
   A18        1.85195  -0.00000   0.00003  -0.00008  -0.00004   1.85190
   A19        1.83949  -0.00001  -0.00009   0.00012   0.00003   1.83952
   A20        1.92925   0.00001  -0.00013   0.00009  -0.00003   1.92921
   A21        1.87741  -0.00000  -0.00022   0.00028   0.00006   1.87747
   A22        1.93947   0.00000   0.00001  -0.00003  -0.00002   1.93945
   A23        1.89366  -0.00000   0.00001  -0.00002  -0.00000   1.89365
   A24        1.91772  -0.00000   0.00022  -0.00026  -0.00005   1.91767
   A25        1.90521   0.00000   0.00010  -0.00005   0.00004   1.90526
   A26        1.86296   0.00001   0.00016  -0.00013   0.00003   1.86299
   A27        1.89532  -0.00000  -0.00005   0.00007   0.00002   1.89534
   A28        1.90614   0.00001   0.00007  -0.00007   0.00001   1.90615
   A29        1.95444  -0.00000  -0.00012   0.00011  -0.00000   1.95444
   A30        1.92165  -0.00001  -0.00007  -0.00004  -0.00012   1.92153
   A31        1.92176   0.00000   0.00002   0.00004   0.00006   1.92182
   A32        1.89612   0.00000   0.00001  -0.00000   0.00001   1.89613
   A33        1.87132  -0.00000  -0.00009   0.00006  -0.00003   1.87129
   A34        1.89084   0.00000   0.00004  -0.00000   0.00004   1.89088
   A35        1.95534  -0.00000   0.00003  -0.00008  -0.00005   1.95529
   A36        1.92215  -0.00000   0.00001  -0.00002  -0.00001   1.92213
   A37        1.92605   0.00000  -0.00001   0.00005   0.00005   1.92609
   A38        1.86219   0.00000  -0.00005   0.00007   0.00002   1.86221
   A39        1.86903  -0.00001   0.00006  -0.00004   0.00002   1.86904
   A40        2.05055   0.00001   0.00055  -0.00049   0.00006   2.05061
   A41        1.90563   0.00000  -0.00010   0.00010   0.00001   1.90564
   A42        1.89742  -0.00001  -0.00042   0.00029  -0.00013   1.89729
   A43        1.87575  -0.00000  -0.00007   0.00009   0.00002   1.87578
   A44        2.05035   0.00002   0.00033  -0.00023   0.00010   2.05045
   A45        1.92077  -0.00002  -0.00023   0.00014  -0.00009   1.92067
   A46        2.31201  -0.00000  -0.00010   0.00009  -0.00000   2.31201
    D1        1.19632   0.00002   0.00098   0.00033   0.00132   1.19764
    D2       -3.06044  -0.00000   0.00080   0.00019   0.00099  -3.05945
    D3       -0.93417   0.00000   0.00098   0.00020   0.00117  -0.93300
    D4        1.05198   0.00000  -0.00081   0.00026  -0.00055   1.05144
    D5       -0.95541   0.00000  -0.00064   0.00011  -0.00054  -0.95594
    D6       -3.03714  -0.00000  -0.00071  -0.00002  -0.00072  -3.03786
    D7       -1.06709  -0.00001  -0.00092   0.00029  -0.00063  -1.06772
    D8       -3.07448  -0.00001  -0.00075   0.00013  -0.00062  -3.07510
    D9        1.12697  -0.00001  -0.00082   0.00001  -0.00081   1.12617
   D10       -3.11095   0.00000  -0.00040   0.00001  -0.00039  -3.11134
   D11        1.16484   0.00001  -0.00024  -0.00014  -0.00038   1.16446
   D12       -0.91689   0.00000  -0.00030  -0.00027  -0.00057  -0.91746
   D13        0.38374  -0.00001  -0.00113  -0.00021  -0.00134   0.38241
   D14        2.45337  -0.00001  -0.00115  -0.00009  -0.00123   2.45213
   D15       -1.72799  -0.00001  -0.00125   0.00005  -0.00120  -1.72919
   D16        2.56379  -0.00000  -0.00087  -0.00060  -0.00146   2.56232
   D17       -1.64977  -0.00000  -0.00089  -0.00047  -0.00136  -1.65113
   D18        0.45205  -0.00001  -0.00099  -0.00034  -0.00133   0.45072
   D19       -1.70152  -0.00001  -0.00125  -0.00027  -0.00152  -1.70304
   D20        0.36810  -0.00001  -0.00127  -0.00015  -0.00141   0.36669
   D21        2.46993  -0.00001  -0.00137  -0.00001  -0.00139   2.46855
   D22       -1.18295  -0.00001   0.00043   0.00001   0.00044  -1.18251
   D23        3.03561  -0.00000   0.00062  -0.00020   0.00042   3.03604
   D24        0.95114  -0.00000   0.00063  -0.00029   0.00034   0.95148
   D25        2.95261  -0.00000   0.00032   0.00022   0.00054   2.95315
   D26        0.88799  -0.00000   0.00051   0.00002   0.00052   0.88851
   D27       -1.19648  -0.00000   0.00051  -0.00008   0.00044  -1.19604
   D28        0.96579  -0.00000   0.00035   0.00015   0.00050   0.96629
   D29       -1.09883   0.00000   0.00054  -0.00005   0.00049  -1.09834
   D30        3.09987   0.00000   0.00055  -0.00014   0.00041   3.10028
   D31       -3.12087   0.00000   0.00094  -0.00036   0.00058  -3.12029
   D32       -1.01072   0.00000   0.00086  -0.00026   0.00060  -1.01012
   D33        1.08527   0.00001   0.00089  -0.00020   0.00069   1.08596
   D34       -1.06619   0.00000   0.00060   0.00003   0.00063  -1.06556
   D35        1.04396   0.00000   0.00053   0.00013   0.00066   1.04461
   D36        3.13995   0.00001   0.00056   0.00018   0.00075   3.14069
   D37        1.01553   0.00000   0.00086  -0.00020   0.00066   1.01619
   D38        3.12568   0.00000   0.00078  -0.00010   0.00068   3.12636
   D39       -1.06151   0.00001   0.00082  -0.00005   0.00077  -1.06074
   D40        1.00558   0.00000   0.00062  -0.00006   0.00055   1.00613
   D41        3.12208   0.00000   0.00061  -0.00013   0.00048   3.12256
   D42       -1.08241   0.00000   0.00058  -0.00003   0.00054  -1.08187
   D43       -1.08185   0.00000   0.00088  -0.00032   0.00056  -1.08129
   D44        1.03465  -0.00000   0.00088  -0.00039   0.00049   1.03514
   D45        3.11334   0.00000   0.00084  -0.00030   0.00055   3.11389
   D46        3.11177   0.00001   0.00056   0.00004   0.00059   3.11236
   D47       -1.05491   0.00000   0.00055  -0.00003   0.00052  -1.05439
   D48        1.02378   0.00000   0.00052   0.00006   0.00058   1.02436
   D49        0.94646  -0.00000   0.00028   0.00029   0.00056   0.94702
   D50       -1.09236  -0.00000   0.00039   0.00015   0.00054  -1.09182
   D51        3.08016  -0.00001   0.00006   0.00039   0.00045   3.08061
   D52        3.08721   0.00001   0.00027   0.00020   0.00047   3.08769
   D53        1.04840   0.00000   0.00038   0.00007   0.00045   1.04885
   D54       -1.06227   0.00000   0.00005   0.00031   0.00036  -1.06191
   D55       -1.12133   0.00000   0.00048  -0.00001   0.00047  -1.12087
   D56        3.12304  -0.00000   0.00059  -0.00014   0.00044   3.12348
   D57        1.01237  -0.00000   0.00026   0.00010   0.00036   1.01273
   D58        0.05582  -0.00000  -0.00065  -0.00044  -0.00109   0.05473
   D59       -3.09556  -0.00000  -0.00057  -0.00045  -0.00102  -3.09658
   D60        2.17133   0.00000  -0.00067  -0.00046  -0.00112   2.17021
   D61       -0.98004  -0.00000  -0.00059  -0.00046  -0.00106  -0.98110
   D62       -2.05135  -0.00000  -0.00104  -0.00013  -0.00117  -2.05252
   D63        1.08046  -0.00000  -0.00097  -0.00013  -0.00110   1.07936
         Item               Value     Threshold  Converged?
 Maximum Force            0.000045     0.000450     YES
 RMS     Force            0.000009     0.000300     YES
 Maximum Displacement     0.003503     0.001800     NO 
 RMS     Displacement     0.000791     0.001200     YES
 Predicted change in Energy=-9.615014D-08
 GradGradGradGradGradGradGradGradGradGradGradGradGradGradGradGradGradGrad

                          Input orientation:                          
 ---------------------------------------------------------------------
 Center     Atomic      Atomic             Coordinates (Angstroms)
 Number     Number       Type             X           Y           Z
 ---------------------------------------------------------------------
      1          7           0        2.426413    1.000484    0.383168
      2          1           0        2.114228    1.209245    1.335604
      3          6           0        1.293729    0.505652   -0.343601
      4          1           0        0.579962    1.329072   -0.482128
      5          1           0        1.621373    0.196880   -1.338866
      6          6           0        0.596833   -0.674052    0.354216
      7          1           0        0.239440   -0.364519    1.337095
      8          1           0        1.345890   -1.444573    0.537678
      9          6           0       -0.523470   -1.307837   -0.471933
     10          1           0       -0.382625   -1.081131   -1.528375
     11          1           0       -0.510701   -2.391588   -0.365011
     12          7           0       -1.930595   -0.890026   -0.139214
     13          6           0       -2.320314   -1.391644    1.212534
     14          1           0       -3.347116   -1.076003    1.379641
     15          1           0       -2.220545   -2.474825    1.222611
     16          1           0       -1.668024   -0.949736    1.959327
     17          6           0       -2.837443   -1.509067   -1.154679
     18          1           0       -2.701832   -2.588121   -1.130064
     19          1           0       -3.852777   -1.219968   -0.897831
     20          1           0       -2.569919   -1.120590   -2.134223
     21          6           0       -2.079671    0.616632   -0.192146
     22          1           0       -1.731566    0.930957   -1.174139
     23          1           0       -1.422808    1.029343    0.568460
     24          6           0       -3.518287    1.214543    0.049624
     25          8           0       -4.432058    0.417306    0.328279
     26          8           0       -3.492726    2.435474   -0.074046
 ---------------------------------------------------------------------
                    Distance matrix (angstroms):
                    1          2          3          4          5
     1  N    0.000000
     2  H    1.023805   0.000000
     3  C    1.433885   1.996996   0.000000
     4  H    2.065452   2.381697   1.098487   0.000000
     5  H    2.063800   2.901824   1.092356   1.760794   0.000000
     6  C    2.480378   2.610061   1.537632   2.170774   2.162113
     7  H    2.748829   2.447767   2.166440   2.508740   3.063605
     8  H    2.677631   2.875723   2.140736   3.052828   2.508322
     9  C    3.842051   4.069440   2.570491   2.858488   2.759728
    10  H    3.984697   4.436493   2.594558   2.798265   2.384373
    11  H    4.548908   4.769522   3.413272   3.878991   3.492034
    12  N    4.778121   4.789846   3.519369   3.368217   3.903461
    13  C    5.379735   5.142464   4.368363   4.322705   4.956808
    14  H    6.215980   5.920353   5.196984   4.967144   5.804860
    15  H    5.863162   5.689938   4.866866   5.021813   5.334746
    16  H    4.801256   4.399507   4.024129   4.025806   4.797181
    17  C    6.030838   6.173311   4.667282   4.492885   4.777575
    18  H    6.439477   6.610140   5.114143   5.151155   5.146837
    19  H    6.782301   6.818685   5.456323   5.130263   5.671710
    20  H    5.983273   6.277665   4.558374   4.318798   4.464891
    21  C    4.558852   4.502666   3.378622   2.768630   3.897292
    22  H    4.440589   4.600694   3.165926   2.445514   3.436307
    23  H    3.853786   3.623740   2.913019   2.281372   3.687536
    24  C    5.957897   5.777456   4.879821   4.134189   5.420299
    25  O    6.883440   6.670512   5.765750   5.158335   6.282674
    26  O    6.107737   5.910049   5.167884   4.239982   5.724079
                    6          7          8          9         10
     6  C    0.000000
     7  H    1.090684   0.000000
     8  H    1.090160   1.740637   0.000000
     9  C    1.529472   2.178179   2.128971   0.000000
    10  H    2.160833   3.018512   2.718166   1.089633   0.000000
    11  H    2.166529   2.751161   2.271259   1.089087   1.757019
    12  N    2.584185   2.676696   3.391322   1.505081   2.088660
    13  C    3.124323   2.760949   3.728174   2.464367   3.370999
    14  H    4.094850   3.656694   4.782160   3.384532   4.152685
    15  H    3.454637   3.243151   3.774919   2.667097   3.590022
    16  H    2.789617   2.089993   3.368921   2.710953   3.719352
    17  C    3.842950   4.121424   4.513148   2.420972   2.519704
    18  H    4.092425   4.436481   4.524723   2.611039   2.794350
    19  H    4.654533   4.740562   5.397896   3.357588   3.529705
    20  H    4.052166   4.529260   4.751588   2.643147   2.269993
    21  C    3.021267   2.946101   4.063949   2.490708   2.747339
    22  H    3.214555   3.445202   4.247846   2.639089   2.448188
    23  H    2.650736   2.301460   3.713071   2.711760   3.151634
    24  C    4.538037   4.274520   5.565008   3.950108   4.194350
    25  O    5.146016   4.842712   6.074136   4.346668   4.700041
    26  O    5.155293   4.874458   6.232269   4.794494   4.914703
                   11         12         13         14         15
    11  H    0.000000
    12  N    2.078887   0.000000
    13  C    2.600622   1.493561   0.000000
    14  H    3.580478   2.085196   1.087142   0.000000
    15  H    2.334746   2.109556   1.087812   1.802920   0.000000
    16  H    2.969997   2.115747   1.085571   1.780823   1.781551
    17  C    2.610775   1.495578   2.425883   2.621086   2.639083
    18  H    2.329160   2.111899   2.657984   3.000252   2.404070
    19  H    3.581349   2.092641   2.613725   2.337370   2.955524
    20  H    2.997654   2.107595   3.366981   3.599065   3.636530
    21  C    3.397196   1.514940   2.462562   2.634758   3.402718
    22  H    3.631047   2.103963   3.381909   3.627628   4.193192
    23  H    3.661431   2.107755   2.661114   2.965378   3.652875
    24  C    4.713987   2.643035   3.095111   2.654213   4.083071
    25  O    4.873149   2.860941   2.917820   2.124249   3.749005
    26  O    5.681343   3.674703   4.204363   3.803272   5.235532
                   16         17         18         19         20
    16  H    0.000000
    17  C    3.373043   0.000000
    18  H    3.646560   1.087820   0.000000
    19  H    3.606872   1.086487   1.802900   0.000000
    20  H    4.195207   1.087194   1.783083   1.784451   0.000000
    21  C    2.692917   2.453423   3.396648   2.648584   2.651405
    22  H    3.655086   2.679004   3.650653   3.033540   2.415252
    23  H    2.431336   3.378451   4.196062   3.621349   3.639035
    24  C    3.428489   3.054823   4.064298   2.633705   3.334882
    25  O    3.488410   2.907383   3.762053   2.125931   3.449146
    26  O    4.350148   4.142048   5.193957   3.764375   4.212065
                   21         22         23         24         25
    21  C    0.000000
    22  H    1.088250   0.000000
    23  H    1.086427   1.772474   0.000000
    24  C    1.576567   2.184122   2.166685   0.000000
    25  O    2.417498   3.132691   3.080238   1.244272   0.000000
    26  O    2.306264   2.564266   2.583521   1.227444   2.262125
                   26
    26  O    0.000000
 Stoichiometry    C7H15N2O2(2)
 Framework group  C1[X(C7H15N2O2)]
 Deg. of freedom    72
 Full point group                 C1      NOp   1
 Largest Abelian subgroup         C1      NOp   1
 Largest concise Abelian subgroup C1      NOp   1
                         Standard orientation:                         
 ---------------------------------------------------------------------
 Center     Atomic      Atomic             Coordinates (Angstroms)
 Number     Number       Type             X           Y           Z
 ---------------------------------------------------------------------
      1          7           0        3.873209    1.256249    0.223986
      2          1           0        3.569954    1.508406    1.168777
      3          6           0        2.755040    0.654452   -0.442022
      4          1           0        1.993359    1.426952   -0.614533
      5          1           0        3.078442    0.300735   -1.423621
      6          6           0        2.140430   -0.514325    0.345713
      7          1           0        1.787028   -0.162273    1.315640
      8          1           0        2.935313   -1.229294    0.558853
      9          6           0        1.040332   -1.260290   -0.410996
     10          1           0        1.145886   -1.094602   -1.482773
     11          1           0        1.116244   -2.332597   -0.236337
     12          7           0       -0.380715   -0.899611   -0.070694
     13          6           0       -0.713011   -1.333869    1.319171
     14          1           0       -1.752174   -1.064822    1.491307
     15          1           0       -0.552333   -2.407071    1.395027
     16          1           0       -0.070973   -0.809819    2.020330
     17          6           0       -1.272567   -1.631370   -1.022473
     18          1           0       -1.076036   -2.697563   -0.933256
     19          1           0       -2.296897   -1.382373   -0.759413
     20          1           0       -1.048032   -1.292610   -2.030847
     21          6           0       -0.615317    0.590103   -0.214779
     22          1           0       -0.306230    0.859229   -1.222907
     23          1           0        0.033219    1.086198    0.501889
     24          6           0       -2.079839    1.122666    0.024209
     25          8           0       -2.941275    0.296169    0.374983
     26          8           0       -2.125554    2.332685   -0.176749
 ---------------------------------------------------------------------
 Rotational constants (GHZ):           1.5726451           0.6456820           0.5211128
 Standard basis: 6-311+G(2d,2p) (5D, 7F)
 There are   454 symmetry adapted cartesian basis functions of A   symmetry.
 There are   432 symmetry adapted basis functions of A   symmetry.
   432 basis functions,   627 primitive gaussians,   454 cartesian basis functions
    44 alpha electrons       43 beta electrons
       nuclear repulsion energy       669.3339962254 Hartrees.
 NAtoms=   26 NActive=   26 NUniq=   26 SFac= 1.00D+00 NAtFMM=   60 NAOKFM=F Big=F
 Integral buffers will be    131072 words long.
 Raffenetti 2 integral format.
 Two-electron integral symmetry is turned on.
 Nuclear repulsion after empirical dispersion term =      669.3130602804 Hartrees.
 One-electron integrals computed using PRISM.
 NBasis=   432 RedAO= T EigKep=  1.20D-05  NBF=   432
 NBsUse=   432 1.00D-06 EigRej= -1.00D+00 NBFU=   432
 Initial guess from the checkpoint file:  "aminopropyl_betaine.chk"
 B after Tr=    -0.000000   -0.000000   -0.000000
         Rot=    1.000000    0.000135    0.000021    0.000014 Ang=   0.02 deg.
 Initial guess <Sx>= 0.0000 <Sy>= 0.0000 <Sz>= 0.5000 <S**2>= 0.7543 S= 0.5021
 Requested convergence on RMS density matrix=1.00D-08 within  32 cycles.
 Requested convergence on MAX density matrix=1.00D-06.
 Requested convergence on             energy=1.00D-06.
 No special actions if energy rises.
 SCF Done:  E(UwB97XD) =  -535.629791147     A.U. after   12 cycles
            NFock= 12  Conv=0.19D-08     -V/T= 2.0039
 <Sx>= 0.0000 <Sy>= 0.0000 <Sz>= 0.5000 <S**2>= 0.7543 S= 0.5021
 <L.S>= 0.000000000000E+00
 Annihilation of the first spin contaminant:
 S**2 before annihilation     0.7543,   after     0.7500
 QCSCF skips out because SCF is already converged.
 Calling FoFJK, ICntrl=      2127 FMM=F ISym2X=0 I1Cent= 0 IOpClX= 1 NMat=1 NMatS=1 NMatT=0.
 ***** Axes restored to original set *****
 -------------------------------------------------------------------
 Center     Atomic                   Forces (Hartrees/Bohr)
 Number     Number              X              Y              Z
 -------------------------------------------------------------------
      1        7          -0.000016942    0.000017289   -0.000015134
      2        1           0.000001933   -0.000006854   -0.000001788
      3        6           0.000027746   -0.000019304    0.000019293
      4        1          -0.000005063    0.000006357   -0.000001917
      5        1           0.000000402    0.000002744   -0.000001608
      6        6           0.000006231   -0.000007407    0.000008805
      7        1           0.000006962    0.000007038   -0.000008726
      8        1          -0.000002578    0.000004935    0.000008618
      9        6          -0.000006300    0.000002703   -0.000013993
     10        1          -0.000004262    0.000003179   -0.000000610
     11        1           0.000001209    0.000000423   -0.000008092
     12        7           0.000002468   -0.000008874    0.000010900
     13        6          -0.000009631   -0.000005145   -0.000006798
     14        1           0.000000970   -0.000000699    0.000004842
     15        1           0.000002270    0.000001013    0.000001339
     16        1          -0.000014894   -0.000000282    0.000001736
     17        6           0.000002380    0.000005546    0.000000282
     18        1          -0.000000142   -0.000002170    0.000002283
     19        1           0.000003171    0.000000946    0.000001656
     20        1           0.000005148   -0.000002247    0.000000895
     21        6           0.000003676    0.000005324    0.000004936
     22        1           0.000000333   -0.000000265   -0.000002431
     23        1          -0.000003857    0.000001688   -0.000005157
     24        6          -0.000004663   -0.000017835    0.000003895
     25        8           0.000004458    0.000003695   -0.000001796
     26        8          -0.000001025    0.000008204   -0.000001430
 -------------------------------------------------------------------
 Cartesian Forces:  Max     0.000027746 RMS     0.000007638

 GradGradGradGradGradGradGradGradGradGradGradGradGradGradGradGradGradGrad
 Berny optimization.
 Using GEDIIS/GDIIS optimizer.
 FormGI is forming the generalized inverse of G from B-inverse, IUseBI=4.
 Internal  Forces:  Max     0.000026740 RMS     0.000006663
 Search for a local minimum.
 Step number  15 out of a maximum of  144
 All quantities printed in internal units (Hartrees-Bohrs-Radians)
 Mixed Optimization -- En-DIIS/RFO-DIIS
 Swapping is turned off.
 Update second derivatives using D2CorX and points    1    4    3    5    2
                                                      6    7    8    9   10
                                                     11   12   13   14   15
 DE= -1.47D-07 DEPred=-9.62D-08 R= 1.53D+00
 Trust test= 1.53D+00 RLast= 6.49D-03 DXMaxT set to 1.13D-01
 ITU=  0  0  1  0  0  1  1 -1  0  0  0 -1 -1  1  0
     Eigenvalues ---    0.00115   0.00161   0.00262   0.00304   0.00445
     Eigenvalues ---    0.00462   0.00687   0.01616   0.03339   0.03789
     Eigenvalues ---    0.03989   0.04665   0.04712   0.04861   0.05118
     Eigenvalues ---    0.05249   0.05730   0.05745   0.05997   0.06084
     Eigenvalues ---    0.06177   0.06209   0.06578   0.08691   0.08872
     Eigenvalues ---    0.08977   0.09948   0.10563   0.12468   0.12780
     Eigenvalues ---    0.13834   0.13964   0.15480   0.15845   0.15937
     Eigenvalues ---    0.16007   0.16010   0.16021   0.16258   0.17616
     Eigenvalues ---    0.18887   0.19386   0.20775   0.24259   0.25171
     Eigenvalues ---    0.25819   0.27176   0.28738   0.29968   0.30631
     Eigenvalues ---    0.32873   0.33338   0.33810   0.34797   0.34850
     Eigenvalues ---    0.34890   0.34962   0.35014   0.35020   0.35073
     Eigenvalues ---    0.35092   0.35126   0.35132   0.35184   0.35335
     Eigenvalues ---    0.35451   0.36971   0.39153   0.51013   0.63850
     Eigenvalues ---    0.85913   0.92007
 En-DIIS/RFO-DIIS/Sim-DIIS IScMMF=       -3 using points:    15   14   13   12   11   10    9    8    7    6
 RFO step:  Lambda=-1.98219431D-07.
 DIIS inversion failure, remove point  10.
 DIIS inversion failure, remove point   9.
 DIIS inversion failure, remove point   8.
 DIIS inversion failure, remove point   7.
 DIIS inversion failure, remove point   6.
 RFO-DIIS uses    5 points instead of   10
 DidBck=F Rises=F RFO-DIIS coefs:    2.31044   -1.13985   -0.02807   -0.35424    0.21171
                  RFO-DIIS coefs:    0.00000    0.00000    0.00000    0.00000    0.00000
 Iteration  1 RMS(Cart)=  0.00078167 RMS(Int)=  0.00000060
 Iteration  2 RMS(Cart)=  0.00000099 RMS(Int)=  0.00000005
 Variable       Old X    -DE/DX   Delta X   Delta X   Delta X     New X
                                 (Linear)    (Quad)   (Total)
    R1        1.93471  -0.00000   0.00022  -0.00012   0.00010   1.93481
    R2        2.70965  -0.00002   0.00005  -0.00009  -0.00005   2.70960
    R3        2.07584   0.00001   0.00012   0.00000   0.00012   2.07596
    R4        2.06425   0.00000   0.00003   0.00000   0.00003   2.06428
    R5        2.90570   0.00000  -0.00010  -0.00002  -0.00012   2.90559
    R6        2.06109  -0.00001   0.00005  -0.00005   0.00001   2.06110
    R7        2.06010  -0.00000   0.00003  -0.00002   0.00001   2.06011
    R8        2.89028   0.00002   0.00007   0.00003   0.00010   2.89039
    R9        2.05911   0.00000   0.00001  -0.00000   0.00001   2.05912
   R10        2.05808  -0.00000  -0.00003   0.00001  -0.00002   2.05805
   R11        2.84419   0.00001   0.00000   0.00002   0.00002   2.84421
   R12        2.82242   0.00001  -0.00002   0.00004   0.00002   2.82245
   R13        2.82623  -0.00001  -0.00002  -0.00003  -0.00005   2.82618
   R14        2.86282   0.00000  -0.00003   0.00005   0.00002   2.86284
   R15        2.05440  -0.00000  -0.00003   0.00001  -0.00002   2.05438
   R16        2.05567  -0.00000   0.00001  -0.00001   0.00000   2.05567
   R17        2.05143  -0.00001  -0.00002  -0.00001  -0.00002   2.05141
   R18        2.05568   0.00000  -0.00001   0.00001   0.00000   2.05568
   R19        2.05316  -0.00000   0.00005  -0.00003   0.00002   2.05318
   R20        2.05450  -0.00000   0.00001  -0.00001   0.00000   2.05450
   R21        2.05649   0.00000   0.00002  -0.00000   0.00002   2.05651
   R22        2.05305  -0.00000  -0.00004  -0.00000  -0.00004   2.05301
   R23        2.97928  -0.00000  -0.00007   0.00003  -0.00004   2.97924
   R24        2.35133  -0.00001  -0.00002  -0.00000  -0.00002   2.35131
   R25        2.31953   0.00001   0.00006  -0.00002   0.00005   2.31958
    A1        1.87655  -0.00000   0.00007  -0.00000   0.00007   1.87662
    A2        1.89496  -0.00001  -0.00044  -0.00004  -0.00048   1.89448
    A3        1.89907  -0.00001  -0.00006   0.00003  -0.00004   1.89904
    A4        1.97443   0.00003   0.00075   0.00000   0.00075   1.97518
    A5        1.86699   0.00000  -0.00044   0.00008  -0.00036   1.86663
    A6        1.91542  -0.00001   0.00009  -0.00014  -0.00005   1.91537
    A7        1.90982  -0.00000   0.00004   0.00008   0.00012   1.90993
    A8        1.91744   0.00000   0.00014  -0.00015  -0.00001   1.91743
    A9        1.88307   0.00000   0.00020   0.00001   0.00021   1.88329
   A10        1.98752  -0.00002  -0.00018  -0.00010  -0.00027   1.98724
   A11        1.84843  -0.00000  -0.00019   0.00008  -0.00011   1.84832
   A12        1.94373   0.00001  -0.00008   0.00007  -0.00001   1.94372
   A13        1.87686   0.00001   0.00011   0.00011   0.00022   1.87708
   A14        1.92070  -0.00001  -0.00001  -0.00003  -0.00004   1.92066
   A15        1.92915  -0.00000   0.00010   0.00004   0.00014   1.92929
   A16        2.03797   0.00002  -0.00012   0.00009  -0.00003   2.03794
   A17        1.87623   0.00000   0.00005  -0.00007  -0.00002   1.87621
   A18        1.85190  -0.00001  -0.00005  -0.00008  -0.00012   1.85178
   A19        1.83952  -0.00001   0.00002   0.00004   0.00006   1.83958
   A20        1.92921   0.00002  -0.00006   0.00018   0.00012   1.92933
   A21        1.87747  -0.00001   0.00006  -0.00013  -0.00007   1.87740
   A22        1.93945  -0.00000  -0.00001  -0.00000  -0.00002   1.93943
   A23        1.89365  -0.00001  -0.00000  -0.00006  -0.00006   1.89360
   A24        1.91767  -0.00000  -0.00006   0.00010   0.00005   1.91772
   A25        1.90526   0.00000   0.00007  -0.00010  -0.00003   1.90523
   A26        1.86299   0.00000   0.00006   0.00002   0.00007   1.86307
   A27        1.89534  -0.00000   0.00002  -0.00000   0.00002   1.89536
   A28        1.90615   0.00001   0.00001   0.00005   0.00006   1.90621
   A29        1.95444  -0.00000  -0.00003   0.00002  -0.00001   1.95443
   A30        1.92153  -0.00001  -0.00013  -0.00004  -0.00017   1.92136
   A31        1.92182  -0.00000   0.00008  -0.00004   0.00004   1.92186
   A32        1.89613  -0.00000   0.00002  -0.00002   0.00000   1.89613
   A33        1.87129  -0.00000  -0.00004  -0.00002  -0.00006   1.87123
   A34        1.89088  -0.00000   0.00005  -0.00004   0.00001   1.89089
   A35        1.95529   0.00000  -0.00005   0.00003  -0.00002   1.95527
   A36        1.92213   0.00000  -0.00001   0.00001   0.00000   1.92213
   A37        1.92609   0.00000   0.00004   0.00003   0.00007   1.92616
   A38        1.86221   0.00000   0.00003  -0.00005  -0.00001   1.86220
   A39        1.86904   0.00001   0.00001   0.00010   0.00011   1.86915
   A40        2.05061  -0.00001   0.00011  -0.00007   0.00004   2.05065
   A41        1.90564  -0.00000   0.00001  -0.00003  -0.00002   1.90562
   A42        1.89729   0.00000  -0.00021   0.00006  -0.00015   1.89714
   A43        1.87578  -0.00000   0.00003  -0.00001   0.00003   1.87580
   A44        2.05045   0.00000   0.00015  -0.00005   0.00010   2.05055
   A45        1.92067   0.00000  -0.00014   0.00006  -0.00008   1.92059
   A46        2.31201  -0.00000  -0.00002  -0.00000  -0.00002   2.31199
    D1        1.19764   0.00001   0.00376  -0.00005   0.00371   1.20135
    D2       -3.05945  -0.00000   0.00296   0.00004   0.00300  -3.05644
    D3       -0.93300   0.00001   0.00346   0.00016   0.00362  -0.92938
    D4        1.05144  -0.00000  -0.00071  -0.00005  -0.00076   1.05068
    D5       -0.95594  -0.00000  -0.00066  -0.00007  -0.00074  -0.95668
    D6       -3.03786  -0.00000  -0.00083  -0.00016  -0.00099  -3.03886
    D7       -1.06772  -0.00000  -0.00072   0.00010  -0.00061  -1.06833
    D8       -3.07510  -0.00000  -0.00067   0.00008  -0.00059  -3.07569
    D9        1.12617  -0.00000  -0.00084  -0.00001  -0.00085   1.12532
   D10       -3.11134   0.00000  -0.00026   0.00004  -0.00022  -3.11156
   D11        1.16446   0.00000  -0.00021   0.00002  -0.00020   1.16427
   D12       -0.91746   0.00000  -0.00038  -0.00007  -0.00045  -0.91791
   D13        0.38241  -0.00000  -0.00127  -0.00001  -0.00129   0.38112
   D14        2.45213  -0.00000  -0.00115  -0.00009  -0.00125   2.45089
   D15       -1.72919  -0.00000  -0.00112   0.00005  -0.00107  -1.73026
   D16        2.56232  -0.00001  -0.00129  -0.00024  -0.00153   2.56080
   D17       -1.65113  -0.00001  -0.00117  -0.00032  -0.00149  -1.65262
   D18        0.45072  -0.00001  -0.00113  -0.00017  -0.00131   0.44942
   D19       -1.70304  -0.00000  -0.00149  -0.00004  -0.00154  -1.70458
   D20        0.36669  -0.00000  -0.00137  -0.00012  -0.00150   0.36519
   D21        2.46855  -0.00000  -0.00134   0.00002  -0.00132   2.46723
   D22       -1.18251  -0.00001   0.00031  -0.00011   0.00020  -1.18231
   D23        3.03604  -0.00000   0.00031  -0.00006   0.00025   3.03628
   D24        0.95148  -0.00000   0.00019   0.00014   0.00033   0.95181
   D25        2.95315  -0.00001   0.00043  -0.00006   0.00037   2.95352
   D26        0.88851  -0.00000   0.00043  -0.00001   0.00042   0.88893
   D27       -1.19604  -0.00000   0.00031   0.00019   0.00050  -1.19554
   D28        0.96629  -0.00000   0.00039   0.00003   0.00042   0.96671
   D29       -1.09834   0.00000   0.00038   0.00008   0.00046  -1.09788
   D30        3.10028   0.00000   0.00027   0.00028   0.00055   3.10083
   D31       -3.12029   0.00000   0.00073   0.00013   0.00087  -3.11943
   D32       -1.01012   0.00000   0.00074   0.00016   0.00090  -1.00922
   D33        1.08596   0.00001   0.00085   0.00015   0.00100   1.08696
   D34       -1.06556  -0.00000   0.00078   0.00004   0.00082  -1.06475
   D35        1.04461  -0.00000   0.00078   0.00007   0.00085   1.04546
   D36        3.14069   0.00000   0.00090   0.00005   0.00095  -3.14154
   D37        1.01619  -0.00000   0.00083  -0.00005   0.00078   1.01696
   D38        3.12636  -0.00000   0.00083  -0.00002   0.00081   3.12717
   D39       -1.06074   0.00000   0.00095  -0.00004   0.00091  -1.05983
   D40        1.00613   0.00001   0.00068   0.00015   0.00084   1.00697
   D41        3.12256   0.00001   0.00061   0.00016   0.00077   3.12333
   D42       -1.08187   0.00001   0.00066   0.00017   0.00083  -1.08104
   D43       -1.08129  -0.00000   0.00072   0.00005   0.00076  -1.08053
   D44        1.03514  -0.00000   0.00064   0.00006   0.00070   1.03584
   D45        3.11389  -0.00000   0.00069   0.00006   0.00075   3.11465
   D46        3.11236   0.00000   0.00074   0.00001   0.00076   3.11312
   D47       -1.05439   0.00000   0.00067   0.00002   0.00069  -1.05370
   D48        1.02436   0.00000   0.00072   0.00003   0.00075   1.02511
   D49        0.94702  -0.00001   0.00065  -0.00018   0.00047   0.94749
   D50       -1.09182  -0.00001   0.00062  -0.00017   0.00044  -1.09138
   D51        3.08061  -0.00001   0.00049  -0.00019   0.00029   3.08090
   D52        3.08769   0.00001   0.00053   0.00011   0.00064   3.08833
   D53        1.04885   0.00001   0.00049   0.00012   0.00062   1.04946
   D54       -1.06191   0.00001   0.00036   0.00010   0.00047  -1.06144
   D55       -1.12087   0.00000   0.00054   0.00005   0.00058  -1.12028
   D56        3.12348   0.00000   0.00050   0.00005   0.00056   3.12404
   D57        1.01273   0.00000   0.00037   0.00004   0.00041   1.01313
   D58        0.05473   0.00000  -0.00129   0.00039  -0.00091   0.05382
   D59       -3.09658   0.00000  -0.00122   0.00041  -0.00082  -3.09740
   D60        2.17021  -0.00000  -0.00134   0.00032  -0.00101   2.16919
   D61       -0.98110  -0.00000  -0.00126   0.00034  -0.00093  -0.98202
   D62       -2.05252  -0.00000  -0.00141   0.00032  -0.00110  -2.05362
   D63        1.07936  -0.00000  -0.00134   0.00033  -0.00101   1.07835
         Item               Value     Threshold  Converged?
 Maximum Force            0.000027     0.000450     YES
 RMS     Force            0.000007     0.000300     YES
 Maximum Displacement     0.003312     0.001800     NO 
 RMS     Displacement     0.000782     0.001200     YES
 Predicted change in Energy=-9.796919D-08
 GradGradGradGradGradGradGradGradGradGradGradGradGradGradGradGradGradGrad

                          Input orientation:                          
 ---------------------------------------------------------------------
 Center     Atomic      Atomic             Coordinates (Angstroms)
 Number     Number       Type             X           Y           Z
 ---------------------------------------------------------------------
      1          7           0        2.426301    1.001548    0.382827
      2          1           0        2.114307    1.208327    1.335816
      3          6           0        1.294300    0.505109   -0.343865
      4          1           0        0.580559    1.328386   -0.483881
      5          1           0        1.622609    0.195593   -1.338696
      6          6           0        0.596795   -0.673876    0.354423
      7          1           0        0.238998   -0.363540    1.336905
      8          1           0        1.345418   -1.444576    0.538925
      9          6           0       -0.523439   -1.307518   -0.472031
     10          1           0       -0.382658   -1.080213   -1.528358
     11          1           0       -0.510564   -2.391316   -0.365731
     12          7           0       -1.930621   -0.889951   -0.139192
     13          6           0       -2.320390   -1.391775    1.212480
     14          1           0       -3.347517   -1.077049    1.379257
     15          1           0       -2.219655   -2.474865    1.222734
     16          1           0       -1.668880   -0.949156    1.959513
     17          6           0       -2.837328   -1.509031   -1.154719
     18          1           0       -2.702139   -2.588128   -1.129639
     19          1           0       -3.852637   -1.219463   -0.898253
     20          1           0       -2.569321   -1.121035   -2.134324
     21          6           0       -2.079925    0.616697   -0.192055
     22          1           0       -1.732382    0.931049   -1.174250
     23          1           0       -1.422775    1.029600    0.568170
     24          6           0       -3.518493    1.214459    0.050230
     25          8           0       -4.432366    0.417131    0.328244
     26          8           0       -3.492807    2.435503   -0.072550
 ---------------------------------------------------------------------
                    Distance matrix (angstroms):
                    1          2          3          4          5
     1  N    0.000000
     2  H    1.023859   0.000000
     3  C    1.433861   1.997062   0.000000
     4  H    2.065132   2.382875   1.098552   0.000000
     5  H    2.063765   2.901795   1.092372   1.760625   0.000000
     6  C    2.480916   2.609341   1.537571   2.170730   2.162157
     7  H    2.749186   2.446947   2.166380   2.508892   3.063634
     8  H    2.678843   2.874738   2.140842   3.052943   2.508475
     9  C    3.842334   4.068844   2.570257   2.857786   2.759705
    10  H    3.984546   4.435735   2.593927   2.796439   2.384271
    11  H    4.549400   4.768924   3.412813   3.878233   3.491301
    12  N    4.778393   4.789558   3.519688   3.368361   3.904185
    13  C    5.380279   5.142206   4.368795   4.323474   4.957366
    14  H    6.216945   5.920840   5.197965   4.968620   5.805949
    15  H    5.863087   5.688753   4.866452   5.021798   5.334347
    16  H    4.802259   4.399572   4.025030   4.027076   4.798180
    17  C    6.030990   6.172964   4.667397   4.492540   4.778141
    18  H    6.440048   6.609817   5.114399   5.150941   5.147451
    19  H    6.782265   6.818332   5.456414   5.129958   5.672274
    20  H    5.983114   6.277275   4.558252   4.318029   4.465290
    21  C    4.559021   4.502888   3.379482   2.769448   3.898830
    22  H    4.441183   4.601558   3.167297   2.446259   3.438591
    23  H    3.853638   3.623834   2.913657   2.282418   3.688641
    24  C    5.957896   5.777647   4.880724   4.135273   5.422005
    25  O    6.883737   6.670841   5.766643   5.159394   6.284146
    26  O    6.107326   5.910091   5.168793   4.241133   5.726064
                    6          7          8          9         10
     6  C    0.000000
     7  H    1.090688   0.000000
     8  H    1.090163   1.740568   0.000000
     9  C    1.529527   2.178223   2.129188   0.000000
    10  H    2.160857   3.018246   2.718945   1.089639   0.000000
    11  H    2.166672   2.751852   2.271428   1.089075   1.757001
    12  N    2.584217   2.676419   3.391147   1.505093   2.088581
    13  C    3.124358   2.761018   3.727548   2.464490   3.371063
    14  H    4.095172   3.657045   4.781722   3.384641   4.152664
    15  H    3.453971   3.242792   3.773438   2.666848   3.590002
    16  H    2.790229   2.090594   3.368902   2.711616   3.719783
    17  C    3.842941   4.121179   4.513086   2.420899   2.519701
    18  H    4.092648   4.436543   4.524879   2.611349   2.795134
    19  H    4.654494   4.740255   5.397771   3.357526   3.529472
    20  H    4.051926   4.528784   4.751433   2.642655   2.269440
    21  C    3.021432   2.945503   4.064007   2.490710   2.746985
    22  H    3.215228   3.445026   4.248696   2.639287   2.447922
    23  H    2.650694   2.300713   3.712855   2.711631   3.150965
    24  C    4.538054   4.273681   5.564792   3.950123   4.194153
    25  O    5.146206   4.842363   6.073971   4.346787   4.699908
    26  O    5.155132   4.873148   6.231960   4.794469   4.914535
                   11         12         13         14         15
    11  H    0.000000
    12  N    2.078937   0.000000
    13  C    2.601020   1.493574   0.000000
    14  H    3.580584   2.085255   1.087132   0.000000
    15  H    2.334779   2.109581   1.087812   1.802903   0.000000
    16  H    2.971243   2.115792   1.085558   1.780695   1.781568
    17  C    2.610509   1.495551   2.425820   2.620675   2.639439
    18  H    2.329225   2.111878   2.657539   2.999072   2.404013
    19  H    3.581379   2.092582   2.613937   2.337196   2.956561
    20  H    2.996668   2.107579   3.366952   3.598997   3.636614
    21  C    3.397234   1.514951   2.462621   2.635258   3.402779
    22  H    3.631068   2.103969   3.381974   3.627881   4.193235
    23  H    3.661552   2.107829   2.661561   2.966557   3.653045
    24  C    4.714051   2.643059   3.094952   2.654535   4.083241
    25  O    4.873346   2.861064   2.917954   2.124642   3.749646
    26  O    5.681365   3.674712   4.204036   3.803535   5.235493
                   16         17         18         19         20
    16  H    0.000000
    17  C    3.373006   0.000000
    18  H    3.646466   1.087821   0.000000
    19  H    3.606756   1.086498   1.802894   0.000000
    20  H    4.195216   1.087196   1.783085   1.784505   0.000000
    21  C    2.692601   2.453386   3.396633   2.648151   2.651722
    22  H    3.655089   2.678671   3.650620   3.032550   2.415214
    23  H    2.431434   3.378454   4.196103   3.621175   3.639131
    24  C    3.427486   3.055043   4.064258   2.633486   3.335826
    25  O    3.487783   2.907478   3.761740   2.125752   3.449801
    26  O    4.348782   4.142474   5.194175   3.764311   4.213395
                   21         22         23         24         25
    21  C    0.000000
    22  H    1.088260   0.000000
    23  H    1.086406   1.772455   0.000000
    24  C    1.576546   2.184002   2.166672   0.000000
    25  O    2.417543   3.132333   3.080636   1.244262   0.000000
    26  O    2.306202   2.564414   2.583044   1.227470   2.262130
                   26
    26  O    0.000000
 Stoichiometry    C7H15N2O2(2)
 Framework group  C1[X(C7H15N2O2)]
 Deg. of freedom    72
 Full point group                 C1      NOp   1
 Largest Abelian subgroup         C1      NOp   1
 Largest concise Abelian subgroup C1      NOp   1
                         Standard orientation:                         
 ---------------------------------------------------------------------
 Center     Atomic      Atomic             Coordinates (Angstroms)
 Number     Number       Type             X           Y           Z
 ---------------------------------------------------------------------
      1          7           0        3.873129    1.256969    0.223703
      2          1           0        3.570065    1.507486    1.169050
      3          6           0        2.755788    0.653518   -0.442144
      4          1           0        1.994198    1.425793   -0.616465
      5          1           0        3.080027    0.298821   -1.423132
      6          6           0        2.140325   -0.514277    0.346262
      7          1           0        1.786347   -0.161173    1.315600
      8          1           0        2.934716   -1.229385    0.560783
      9          6           0        1.040338   -1.260238   -0.410721
     10          1           0        1.145974   -1.094258   -1.482450
     11          1           0        1.116232   -2.332584   -0.236370
     12          7           0       -0.380773   -0.899589   -0.070600
     13          6           0       -0.713357   -1.333644    1.319273
     14          1           0       -1.752803   -1.065416    1.490912
     15          1           0       -0.551812   -2.406683    1.395602
     16          1           0       -0.072196   -0.808767    2.020597
     17          6           0       -1.272396   -1.631577   -1.022375
     18          1           0       -1.076373   -2.697797   -0.932352
     19          1           0       -2.296756   -1.381981   -0.759952
     20          1           0       -1.047172   -1.293574   -2.030850
     21          6           0       -0.615459    0.590085   -0.215063
     22          1           0       -0.306763    0.858888   -1.223409
     23          1           0        0.033275    1.086511    0.501166
     24          6           0       -2.079908    1.122721    0.024074
     25          8           0       -2.941573    0.296253    0.374316
     26          8           0       -2.125357    2.332864   -0.176352
 ---------------------------------------------------------------------
 Rotational constants (GHZ):           1.5725784           0.6456304           0.5210688
 Standard basis: 6-311+G(2d,2p) (5D, 7F)
 There are   454 symmetry adapted cartesian basis functions of A   symmetry.
 There are   432 symmetry adapted basis functions of A   symmetry.
   432 basis functions,   627 primitive gaussians,   454 cartesian basis functions
    44 alpha electrons       43 beta electrons
       nuclear repulsion energy       669.3212059320 Hartrees.
 NAtoms=   26 NActive=   26 NUniq=   26 SFac= 1.00D+00 NAtFMM=   60 NAOKFM=F Big=F
 Integral buffers will be    131072 words long.
 Raffenetti 2 integral format.
 Two-electron integral symmetry is turned on.
 Nuclear repulsion after empirical dispersion term =      669.3002706063 Hartrees.
 One-electron integrals computed using PRISM.
 NBasis=   432 RedAO= T EigKep=  1.20D-05  NBF=   432
 NBsUse=   432 1.00D-06 EigRej= -1.00D+00 NBFU=   432
 Initial guess from the checkpoint file:  "aminopropyl_betaine.chk"
 B after Tr=     0.000000    0.000000    0.000000
         Rot=    1.000000    0.000075    0.000034    0.000016 Ang=   0.01 deg.
 Initial guess <Sx>= 0.0000 <Sy>= 0.0000 <Sz>= 0.5000 <S**2>= 0.7543 S= 0.5021
 Requested convergence on RMS density matrix=1.00D-08 within  32 cycles.
 Requested convergence on MAX density matrix=1.00D-06.
 Requested convergence on             energy=1.00D-06.
 No special actions if energy rises.
 SCF Done:  E(UwB97XD) =  -535.629791242     A.U. after   11 cycles
            NFock= 11  Conv=0.56D-08     -V/T= 2.0039
 <Sx>= 0.0000 <Sy>= 0.0000 <Sz>= 0.5000 <S**2>= 0.7543 S= 0.5021
 <L.S>= 0.000000000000E+00
 Annihilation of the first spin contaminant:
 S**2 before annihilation     0.7543,   after     0.7500
 QCSCF skips out because SCF is already converged.
 Calling FoFJK, ICntrl=      2127 FMM=F ISym2X=0 I1Cent= 0 IOpClX= 1 NMat=1 NMatS=1 NMatT=0.
 ***** Axes restored to original set *****
 -------------------------------------------------------------------
 Center     Atomic                   Forces (Hartrees/Bohr)
 Number     Number              X              Y              Z
 -------------------------------------------------------------------
      1        7          -0.000038515    0.000004950    0.000029722
      2        1           0.000014642   -0.000009552   -0.000043112
      3        6           0.000025501    0.000007688    0.000004327
      4        1          -0.000001283   -0.000002806    0.000008355
      5        1           0.000003497    0.000000499    0.000002203
      6        6          -0.000009610   -0.000013901    0.000017123
      7        1          -0.000000085    0.000012644   -0.000010934
      8        1          -0.000003304    0.000005211   -0.000006727
      9        6           0.000003242    0.000017043   -0.000000933
     10        1           0.000000070   -0.000001598    0.000003083
     11        1           0.000000089   -0.000004721   -0.000001902
     12        7           0.000008060   -0.000012656    0.000015489
     13        6          -0.000004810   -0.000003918   -0.000008025
     14        1          -0.000002196    0.000007091   -0.000002642
     15        1           0.000005016    0.000001699   -0.000000626
     16        1           0.000002566    0.000001368    0.000002209
     17        6          -0.000014332    0.000004965   -0.000005852
     18        1           0.000000194   -0.000001601   -0.000000528
     19        1           0.000002735   -0.000004572   -0.000001594
     20        1           0.000000422   -0.000002290    0.000001554
     21        6           0.000001757    0.000002969   -0.000015293
     22        1           0.000006814   -0.000005104    0.000002064
     23        1           0.000002515   -0.000000612    0.000005050
     24        6          -0.000006904    0.000025589    0.000009449
     25        8           0.000008732   -0.000009056   -0.000001809
     26        8          -0.000004812   -0.000019329   -0.000000649
 -------------------------------------------------------------------
 Cartesian Forces:  Max     0.000043112 RMS     0.000010945

 GradGradGradGradGradGradGradGradGradGradGradGradGradGradGradGradGradGrad
 Berny optimization.
 Using GEDIIS/GDIIS optimizer.
 FormGI is forming the generalized inverse of G from B-inverse, IUseBI=4.
 Internal  Forces:  Max     0.000047079 RMS     0.000006988
 Search for a local minimum.
 Step number  16 out of a maximum of  144
 All quantities printed in internal units (Hartrees-Bohrs-Radians)
 Mixed Optimization -- En-DIIS/RFO-DIIS
 Swapping is turned off.
 Update second derivatives using D2CorX and points    1    4    3    5    2
                                                      6    7    8    9   10
                                                     11   12   13   14   15
                                                     16
 DE= -9.49D-08 DEPred=-9.80D-08 R= 9.69D-01
 Trust test= 9.69D-01 RLast= 8.92D-03 DXMaxT set to 1.13D-01
 ITU=  0  0  0  1  0  0  1  1 -1  0  0  0 -1 -1  1  0
     Eigenvalues ---    0.00112   0.00140   0.00256   0.00296   0.00446
     Eigenvalues ---    0.00465   0.00716   0.01612   0.03352   0.03855
     Eigenvalues ---    0.03973   0.04699   0.04712   0.04959   0.05217
     Eigenvalues ---    0.05313   0.05710   0.05742   0.05998   0.06081
     Eigenvalues ---    0.06179   0.06208   0.06576   0.08670   0.08839
     Eigenvalues ---    0.08978   0.10007   0.10603   0.12491   0.12804
     Eigenvalues ---    0.13840   0.13947   0.15496   0.15927   0.15991
     Eigenvalues ---    0.16007   0.16020   0.16067   0.16306   0.17732
     Eigenvalues ---    0.18682   0.19569   0.21092   0.24287   0.25185
     Eigenvalues ---    0.25970   0.27276   0.28909   0.30063   0.30663
     Eigenvalues ---    0.32888   0.33495   0.34283   0.34805   0.34852
     Eigenvalues ---    0.34895   0.34970   0.35004   0.35020   0.35074
     Eigenvalues ---    0.35092   0.35125   0.35142   0.35212   0.35430
     Eigenvalues ---    0.35473   0.37368   0.38977   0.51113   0.60006
     Eigenvalues ---    0.85693   0.92602
 En-DIIS/RFO-DIIS/Sim-DIIS IScMMF=       -3 using points:    16   15   14   13   12   11   10    9    8    7
 RFO step:  Lambda=-2.88067490D-08.
 DIIS inversion failure, remove point  10.
 DIIS inversion failure, remove point   9.
 DIIS inversion failure, remove point   8.
 DIIS inversion failure, remove point   7.
 DIIS inversion failure, remove point   6.
 DIIS inversion failure, remove point   5.
 RFO-DIIS uses    4 points instead of   10
 DidBck=F Rises=F RFO-DIIS coefs:    1.03002    0.24434   -0.31717    0.04280    0.00000
                  RFO-DIIS coefs:    0.00000    0.00000    0.00000    0.00000    0.00000
 Iteration  1 RMS(Cart)=  0.00028548 RMS(Int)=  0.00000005
 Iteration  2 RMS(Cart)=  0.00000008 RMS(Int)=  0.00000001
 Variable       Old X    -DE/DX   Delta X   Delta X   Delta X     New X
                                 (Linear)    (Quad)   (Total)
    R1        1.93481  -0.00005   0.00002  -0.00009  -0.00007   1.93475
    R2        2.70960  -0.00003  -0.00000  -0.00006  -0.00007   2.70954
    R3        2.07596  -0.00000   0.00001  -0.00000   0.00001   2.07597
    R4        2.06428  -0.00000   0.00000  -0.00000  -0.00000   2.06428
    R5        2.90559  -0.00000  -0.00001   0.00001  -0.00001   2.90558
    R6        2.06110  -0.00001   0.00000  -0.00002  -0.00001   2.06109
    R7        2.06011  -0.00001   0.00000  -0.00002  -0.00002   2.06009
    R8        2.89039  -0.00001   0.00002  -0.00002  -0.00000   2.89038
    R9        2.05912  -0.00000  -0.00000  -0.00001  -0.00001   2.05911
   R10        2.05805   0.00000  -0.00000   0.00001   0.00001   2.05806
   R11        2.84421  -0.00001  -0.00000  -0.00003  -0.00003   2.84419
   R12        2.82245  -0.00001  -0.00001  -0.00002  -0.00002   2.82242
   R13        2.82618   0.00001  -0.00000   0.00003   0.00003   2.82621
   R14        2.86284  -0.00000  -0.00001   0.00001   0.00000   2.86285
   R15        2.05438   0.00000  -0.00001   0.00001   0.00000   2.05438
   R16        2.05567  -0.00000   0.00000  -0.00000  -0.00000   2.05566
   R17        2.05141   0.00000  -0.00000   0.00001   0.00001   2.05142
   R18        2.05568   0.00000  -0.00000   0.00000   0.00000   2.05568
   R19        2.05318  -0.00000   0.00001  -0.00001  -0.00000   2.05318
   R20        2.05450  -0.00000   0.00000  -0.00001  -0.00000   2.05450
   R21        2.05651  -0.00000   0.00000  -0.00000   0.00000   2.05651
   R22        2.05301   0.00001  -0.00001   0.00001   0.00001   2.05302
   R23        2.97924   0.00000  -0.00001   0.00003   0.00001   2.97925
   R24        2.35131  -0.00000  -0.00001   0.00000  -0.00000   2.35131
   R25        2.31958  -0.00002   0.00001  -0.00002  -0.00001   2.31957
    A1        1.87662   0.00000   0.00001   0.00002   0.00003   1.87665
    A2        1.89448  -0.00000  -0.00003  -0.00003  -0.00006   1.89442
    A3        1.89904  -0.00000  -0.00002   0.00001  -0.00001   1.89903
    A4        1.97518   0.00000   0.00009   0.00000   0.00010   1.97528
    A5        1.86663   0.00000  -0.00004   0.00005   0.00000   1.86663
    A6        1.91537  -0.00001  -0.00001  -0.00007  -0.00008   1.91529
    A7        1.90993   0.00000  -0.00000   0.00005   0.00004   1.90998
    A8        1.91743  -0.00001   0.00001  -0.00009  -0.00008   1.91736
    A9        1.88329  -0.00000   0.00004  -0.00001   0.00004   1.88332
   A10        1.98724   0.00000  -0.00007  -0.00001  -0.00008   1.98717
   A11        1.84832   0.00001  -0.00002   0.00009   0.00006   1.84838
   A12        1.94372   0.00000  -0.00001   0.00001   0.00000   1.94372
   A13        1.87708  -0.00000   0.00005   0.00001   0.00007   1.87715
   A14        1.92066   0.00000   0.00000   0.00002   0.00002   1.92068
   A15        1.92929   0.00000   0.00003   0.00001   0.00004   1.92933
   A16        2.03794  -0.00001  -0.00003  -0.00004  -0.00007   2.03787
   A17        1.87621  -0.00000   0.00001  -0.00001  -0.00001   1.87621
   A18        1.85178   0.00000  -0.00001   0.00003   0.00001   1.85179
   A19        1.83958  -0.00000   0.00001  -0.00000   0.00000   1.83959
   A20        1.92933   0.00000  -0.00000  -0.00000  -0.00000   1.92933
   A21        1.87740   0.00000   0.00001   0.00003   0.00004   1.87744
   A22        1.93943  -0.00000  -0.00000  -0.00004  -0.00004   1.93939
   A23        1.89360  -0.00000  -0.00001   0.00001   0.00001   1.89360
   A24        1.91772  -0.00000  -0.00001   0.00001  -0.00001   1.91771
   A25        1.90523   0.00000   0.00001  -0.00000   0.00001   1.90524
   A26        1.86307  -0.00001   0.00001  -0.00003  -0.00002   1.86305
   A27        1.89536  -0.00000   0.00001  -0.00001  -0.00000   1.89536
   A28        1.90621   0.00000   0.00000  -0.00001  -0.00001   1.90620
   A29        1.95443   0.00001   0.00000   0.00005   0.00005   1.95448
   A30        1.92136   0.00000  -0.00004   0.00001  -0.00003   1.92133
   A31        1.92186  -0.00000   0.00002  -0.00001   0.00000   1.92187
   A32        1.89613   0.00000   0.00000  -0.00000  -0.00000   1.89613
   A33        1.87123   0.00000  -0.00001   0.00002   0.00001   1.87124
   A34        1.89089  -0.00000   0.00001  -0.00000   0.00001   1.89090
   A35        1.95527  -0.00000  -0.00002  -0.00001  -0.00003   1.95524
   A36        1.92213  -0.00000  -0.00000  -0.00001  -0.00001   1.92212
   A37        1.92616  -0.00000   0.00002   0.00001   0.00002   1.92619
   A38        1.86220   0.00000   0.00000  -0.00001  -0.00001   1.86219
   A39        1.86915   0.00001   0.00001  -0.00001  -0.00001   1.86915
   A40        2.05065  -0.00003   0.00001  -0.00005  -0.00004   2.05060
   A41        1.90562  -0.00000   0.00000  -0.00001  -0.00000   1.90562
   A42        1.89714   0.00002  -0.00003   0.00009   0.00006   1.89720
   A43        1.87580   0.00001   0.00001  -0.00001   0.00000   1.87581
   A44        2.05055  -0.00002   0.00002  -0.00006  -0.00003   2.05052
   A45        1.92059   0.00001  -0.00002   0.00005   0.00002   1.92062
   A46        2.31199   0.00001  -0.00000   0.00001   0.00001   2.31200
    D1        1.20135  -0.00000   0.00031   0.00006   0.00037   1.20172
    D2       -3.05644   0.00000   0.00023   0.00011   0.00033  -3.05611
    D3       -0.92938   0.00000   0.00027   0.00018   0.00045  -0.92893
    D4        1.05068  -0.00000  -0.00016   0.00006  -0.00010   1.05058
    D5       -0.95668  -0.00000  -0.00016   0.00000  -0.00016  -0.95684
    D6       -3.03886  -0.00000  -0.00021  -0.00000  -0.00022  -3.03907
    D7       -1.06833   0.00000  -0.00018   0.00015  -0.00003  -1.06836
    D8       -3.07569   0.00000  -0.00018   0.00009  -0.00009  -3.07577
    D9        1.12532   0.00000  -0.00024   0.00009  -0.00015   1.12517
   D10       -3.11156   0.00000  -0.00012   0.00011  -0.00002  -3.11158
   D11        1.16427  -0.00000  -0.00012   0.00005  -0.00007   1.16419
   D12       -0.91791  -0.00000  -0.00018   0.00005  -0.00013  -0.91804
   D13        0.38112  -0.00000  -0.00045  -0.00012  -0.00057   0.38055
   D14        2.45089   0.00000  -0.00042  -0.00012  -0.00054   2.45035
   D15       -1.73026  -0.00000  -0.00041  -0.00014  -0.00055  -1.73081
   D16        2.56080  -0.00001  -0.00049  -0.00023  -0.00073   2.56007
   D17       -1.65262  -0.00000  -0.00047  -0.00023  -0.00070  -1.65332
   D18        0.44942  -0.00001  -0.00045  -0.00026  -0.00071   0.44871
   D19       -1.70458   0.00000  -0.00050  -0.00012  -0.00061  -1.70519
   D20        0.36519   0.00000  -0.00047  -0.00011  -0.00058   0.36461
   D21        2.46723  -0.00000  -0.00046  -0.00014  -0.00060   2.46663
   D22       -1.18231   0.00000   0.00010   0.00007   0.00017  -1.18214
   D23        3.03628  -0.00000   0.00010   0.00004   0.00014   3.03642
   D24        0.95181  -0.00000   0.00008   0.00005   0.00013   0.95194
   D25        2.95352   0.00000   0.00013   0.00005   0.00018   2.95370
   D26        0.88893  -0.00000   0.00013   0.00001   0.00014   0.88907
   D27       -1.19554  -0.00000   0.00011   0.00002   0.00014  -1.19541
   D28        0.96671   0.00000   0.00013   0.00005   0.00018   0.96689
   D29       -1.09788  -0.00000   0.00013   0.00002   0.00015  -1.09774
   D30        3.10083  -0.00000   0.00011   0.00003   0.00014   3.10097
   D31       -3.11943  -0.00000   0.00018  -0.00014   0.00004  -3.11938
   D32       -1.00922  -0.00000   0.00019  -0.00009   0.00010  -1.00912
   D33        1.08696  -0.00000   0.00022  -0.00012   0.00009   1.08706
   D34       -1.06475   0.00000   0.00019  -0.00009   0.00010  -1.06465
   D35        1.04546   0.00000   0.00020  -0.00005   0.00015   1.04562
   D36       -3.14154   0.00000   0.00023  -0.00008   0.00015  -3.14139
   D37        1.01696  -0.00000   0.00019  -0.00009   0.00011   1.01707
   D38        3.12717   0.00000   0.00020  -0.00004   0.00016   3.12733
   D39       -1.05983   0.00000   0.00023  -0.00007   0.00016  -1.05968
   D40        1.00697   0.00000   0.00017  -0.00007   0.00010   1.00707
   D41        3.12333   0.00000   0.00014  -0.00007   0.00007   3.12340
   D42       -1.08104   0.00000   0.00016  -0.00006   0.00011  -1.08093
   D43       -1.08053  -0.00000   0.00016  -0.00009   0.00007  -1.08046
   D44        1.03584  -0.00000   0.00014  -0.00009   0.00004   1.03588
   D45        3.11465  -0.00000   0.00016  -0.00008   0.00008   3.11473
   D46        3.11312   0.00000   0.00018  -0.00010   0.00007   3.11319
   D47       -1.05370   0.00000   0.00015  -0.00011   0.00005  -1.05365
   D48        1.02511   0.00000   0.00017  -0.00009   0.00008   1.02519
   D49        0.94749   0.00000   0.00016  -0.00008   0.00009   0.94757
   D50       -1.09138  -0.00000   0.00015  -0.00006   0.00010  -1.09128
   D51        3.08090   0.00000   0.00013  -0.00001   0.00013   3.08103
   D52        3.08833   0.00000   0.00015  -0.00010   0.00005   3.08838
   D53        1.04946  -0.00000   0.00014  -0.00008   0.00006   1.04952
   D54       -1.06144   0.00000   0.00012  -0.00003   0.00009  -1.06135
   D55       -1.12028  -0.00000   0.00014  -0.00008   0.00006  -1.12023
   D56        3.12404  -0.00000   0.00013  -0.00007   0.00006   3.12410
   D57        1.01313   0.00000   0.00011  -0.00001   0.00010   1.01323
   D58        0.05382  -0.00000  -0.00031   0.00022  -0.00009   0.05373
   D59       -3.09740   0.00000  -0.00029   0.00022  -0.00007  -3.09746
   D60        2.16919  -0.00000  -0.00032   0.00024  -0.00009   2.16911
   D61       -0.98202  -0.00000  -0.00030   0.00024  -0.00006  -0.98208
   D62       -2.05362   0.00000  -0.00033   0.00027  -0.00006  -2.05368
   D63        1.07835   0.00001  -0.00031   0.00028  -0.00003   1.07832
         Item               Value     Threshold  Converged?
 Maximum Force            0.000047     0.000450     YES
 RMS     Force            0.000007     0.000300     YES
 Maximum Displacement     0.001131     0.001800     YES
 RMS     Displacement     0.000285     0.001200     YES
 Predicted change in Energy=-1.424721D-08
 Optimization completed.
    -- Stationary point found.
                           ----------------------------
                           !   Optimized Parameters   !
                           ! (Angstroms and Degrees)  !
 --------------------------                            --------------------------
 ! Name  Definition              Value          Derivative Info.                !
 --------------------------------------------------------------------------------
 ! R1    R(1,2)                  1.0239         -DE/DX =    0.0                 !
 ! R2    R(1,3)                  1.4339         -DE/DX =    0.0                 !
 ! R3    R(3,4)                  1.0986         -DE/DX =    0.0                 !
 ! R4    R(3,5)                  1.0924         -DE/DX =    0.0                 !
 ! R5    R(3,6)                  1.5376         -DE/DX =    0.0                 !
 ! R6    R(6,7)                  1.0907         -DE/DX =    0.0                 !
 ! R7    R(6,8)                  1.0902         -DE/DX =    0.0                 !
 ! R8    R(6,9)                  1.5295         -DE/DX =    0.0                 !
 ! R9    R(9,10)                 1.0896         -DE/DX =    0.0                 !
 ! R10   R(9,11)                 1.0891         -DE/DX =    0.0                 !
 ! R11   R(9,12)                 1.5051         -DE/DX =    0.0                 !
 ! R12   R(12,13)                1.4936         -DE/DX =    0.0                 !
 ! R13   R(12,17)                1.4956         -DE/DX =    0.0                 !
 ! R14   R(12,21)                1.515          -DE/DX =    0.0                 !
 ! R15   R(13,14)                1.0871         -DE/DX =    0.0                 !
 ! R16   R(13,15)                1.0878         -DE/DX =    0.0                 !
 ! R17   R(13,16)                1.0856         -DE/DX =    0.0                 !
 ! R18   R(17,18)                1.0878         -DE/DX =    0.0                 !
 ! R19   R(17,19)                1.0865         -DE/DX =    0.0                 !
 ! R20   R(17,20)                1.0872         -DE/DX =    0.0                 !
 ! R21   R(21,22)                1.0883         -DE/DX =    0.0                 !
 ! R22   R(21,23)                1.0864         -DE/DX =    0.0                 !
 ! R23   R(21,24)                1.5765         -DE/DX =    0.0                 !
 ! R24   R(24,25)                1.2443         -DE/DX =    0.0                 !
 ! R25   R(24,26)                1.2275         -DE/DX =    0.0                 !
 ! A1    A(2,1,3)              107.5224         -DE/DX =    0.0                 !
 ! A2    A(1,3,4)              108.5456         -DE/DX =    0.0                 !
 ! A3    A(1,3,5)              108.8069         -DE/DX =    0.0                 !
 ! A4    A(1,3,6)              113.1695         -DE/DX =    0.0                 !
 ! A5    A(4,3,5)              106.9501         -DE/DX =    0.0                 !
 ! A6    A(4,3,6)              109.7424         -DE/DX =    0.0                 !
 ! A7    A(5,3,6)              109.4312         -DE/DX =    0.0                 !
 ! A8    A(3,6,7)              109.8607         -DE/DX =    0.0                 !
 ! A9    A(3,6,8)              107.9043         -DE/DX =    0.0                 !
 ! A10   A(3,6,9)              113.8607         -DE/DX =    0.0                 !
 ! A11   A(7,6,8)              105.9008         -DE/DX =    0.0                 !
 ! A12   A(7,6,9)              111.3668         -DE/DX =    0.0                 !
 ! A13   A(8,6,9)              107.549          -DE/DX =    0.0                 !
 ! A14   A(6,9,10)             110.0456         -DE/DX =    0.0                 !
 ! A15   A(6,9,11)             110.5404         -DE/DX =    0.0                 !
 ! A16   A(6,9,12)             116.7653         -DE/DX =    0.0                 !
 ! A17   A(10,9,11)            107.499          -DE/DX =    0.0                 !
 ! A18   A(10,9,12)            106.0992         -DE/DX =    0.0                 !
 ! A19   A(11,9,12)            105.4002         -DE/DX =    0.0                 !
 ! A20   A(9,12,13)            110.5426         -DE/DX =    0.0                 !
 ! A21   A(9,12,17)            107.5671         -DE/DX =    0.0                 !
 ! A22   A(9,12,21)            111.1212         -DE/DX =    0.0                 !
 ! A23   A(13,12,17)           108.495          -DE/DX =    0.0                 !
 ! A24   A(13,12,21)           109.8773         -DE/DX =    0.0                 !
 ! A25   A(17,12,21)           109.1617         -DE/DX =    0.0                 !
 ! A26   A(12,13,14)           106.7458         -DE/DX =    0.0                 !
 ! A27   A(12,13,15)           108.5961         -DE/DX =    0.0                 !
 ! A28   A(12,13,16)           109.2178         -DE/DX =    0.0                 !
 ! A29   A(14,13,15)           111.9805         -DE/DX =    0.0                 !
 ! A30   A(14,13,16)           110.0857         -DE/DX =    0.0                 !
 ! A31   A(15,13,16)           110.1147         -DE/DX =    0.0                 !
 ! A32   A(12,17,18)           108.6405         -DE/DX =    0.0                 !
 ! A33   A(12,17,19)           107.2138         -DE/DX =    0.0                 !
 ! A34   A(12,17,20)           108.3399         -DE/DX =    0.0                 !
 ! A35   A(18,17,19)           112.0285         -DE/DX =    0.0                 !
 ! A36   A(18,17,20)           110.1302         -DE/DX =    0.0                 !
 ! A37   A(19,17,20)           110.3611         -DE/DX =    0.0                 !
 ! A38   A(12,21,22)           106.696          -DE/DX =    0.0                 !
 ! A39   A(12,21,23)           107.0945         -DE/DX =    0.0                 !
 ! A40   A(12,21,24)           117.4935         -DE/DX =    0.0                 !
 ! A41   A(22,21,23)           109.184          -DE/DX =    0.0                 !
 ! A42   A(22,21,24)           108.6984         -DE/DX =    0.0                 !
 ! A43   A(23,21,24)           107.4757         -DE/DX =    0.0                 !
 ! A44   A(21,24,25)           117.4879         -DE/DX =    0.0                 !
 ! A45   A(21,24,26)           110.0419         -DE/DX =    0.0                 !
 ! A46   A(25,24,26)           132.4672         -DE/DX =    0.0                 !
 ! D1    D(2,1,3,4)             68.8322         -DE/DX =    0.0                 !
 ! D2    D(2,1,3,5)           -175.1212         -DE/DX =    0.0                 !
 ! D3    D(2,1,3,6)            -53.2495         -DE/DX =    0.0                 !
 ! D4    D(1,3,6,7)             60.1993         -DE/DX =    0.0                 !
 ! D5    D(1,3,6,8)            -54.8137         -DE/DX =    0.0                 !
 ! D6    D(1,3,6,9)           -174.1137         -DE/DX =    0.0                 !
 ! D7    D(4,3,6,7)            -61.2108         -DE/DX =    0.0                 !
 ! D8    D(4,3,6,8)           -176.2239         -DE/DX =    0.0                 !
 ! D9    D(4,3,6,9)             64.4761         -DE/DX =    0.0                 !
 ! D10   D(5,3,6,7)           -178.2794         -DE/DX =    0.0                 !
 ! D11   D(5,3,6,8)             66.7075         -DE/DX =    0.0                 !
 ! D12   D(5,3,6,9)            -52.5924         -DE/DX =    0.0                 !
 ! D13   D(3,6,9,10)            21.8365         -DE/DX =    0.0                 !
 ! D14   D(3,6,9,11)           140.4254         -DE/DX =    0.0                 !
 ! D15   D(3,6,9,12)           -99.1368         -DE/DX =    0.0                 !
 ! D16   D(7,6,9,10)           146.7229         -DE/DX =    0.0                 !
 ! D17   D(7,6,9,11)           -94.6881         -DE/DX =    0.0                 !
 ! D18   D(7,6,9,12)            25.7497         -DE/DX =    0.0                 !
 ! D19   D(8,6,9,10)           -97.6651         -DE/DX =    0.0                 !
 ! D20   D(8,6,9,11)            20.9239         -DE/DX =    0.0                 !
 ! D21   D(8,6,9,12)           141.3617         -DE/DX =    0.0                 !
 ! D22   D(6,9,12,13)          -67.7413         -DE/DX =    0.0                 !
 ! D23   D(6,9,12,17)          173.9663         -DE/DX =    0.0                 !
 ! D24   D(6,9,12,21)           54.5349         -DE/DX =    0.0                 !
 ! D25   D(10,9,12,13)         169.2243         -DE/DX =    0.0                 !
 ! D26   D(10,9,12,17)          50.9319         -DE/DX =    0.0                 !
 ! D27   D(10,9,12,21)         -68.4995         -DE/DX =    0.0                 !
 ! D28   D(11,9,12,13)          55.3884         -DE/DX =    0.0                 !
 ! D29   D(11,9,12,17)         -62.904          -DE/DX =    0.0                 !
 ! D30   D(11,9,12,21)         177.6646         -DE/DX =    0.0                 !
 ! D31   D(9,12,13,14)        -178.73           -DE/DX =    0.0                 !
 ! D32   D(9,12,13,15)         -57.8238         -DE/DX =    0.0                 !
 ! D33   D(9,12,13,16)          62.2783         -DE/DX =    0.0                 !
 ! D34   D(17,12,13,14)        -61.0055         -DE/DX =    0.0                 !
 ! D35   D(17,12,13,15)         59.9007         -DE/DX =    0.0                 !
 ! D36   D(17,12,13,16)       -179.9972         -DE/DX =    0.0                 !
 ! D37   D(21,12,13,14)         58.2677         -DE/DX =    0.0                 !
 ! D38   D(21,12,13,15)        179.1739         -DE/DX =    0.0                 !
 ! D39   D(21,12,13,16)        -60.724          -DE/DX =    0.0                 !
 ! D40   D(9,12,17,18)          57.6951         -DE/DX =    0.0                 !
 ! D41   D(9,12,17,19)         178.9538         -DE/DX =    0.0                 !
 ! D42   D(9,12,17,20)         -61.9392         -DE/DX =    0.0                 !
 ! D43   D(13,12,17,18)        -61.9096         -DE/DX =    0.0                 !
 ! D44   D(13,12,17,19)         59.3491         -DE/DX =    0.0                 !
 ! D45   D(13,12,17,20)        178.4562         -DE/DX =    0.0                 !
 ! D46   D(21,12,17,18)        178.3688         -DE/DX =    0.0                 !
 ! D47   D(21,12,17,19)        -60.3726         -DE/DX =    0.0                 !
 ! D48   D(21,12,17,20)         58.7345         -DE/DX =    0.0                 !
 ! D49   D(9,12,21,22)          54.2871         -DE/DX =    0.0                 !
 ! D50   D(9,12,21,23)         -62.5313         -DE/DX =    0.0                 !
 ! D51   D(9,12,21,24)         176.5228         -DE/DX =    0.0                 !
 ! D52   D(13,12,21,22)        176.9482         -DE/DX =    0.0                 !
 ! D53   D(13,12,21,23)         60.1298         -DE/DX =    0.0                 !
 ! D54   D(13,12,21,24)        -60.8161         -DE/DX =    0.0                 !
 ! D55   D(17,12,21,22)        -64.1875         -DE/DX =    0.0                 !
 ! D56   D(17,12,21,23)        178.9941         -DE/DX =    0.0                 !
 ! D57   D(17,12,21,24)         58.0482         -DE/DX =    0.0                 !
 ! D58   D(12,21,24,25)          3.0837         -DE/DX =    0.0                 !
 ! D59   D(12,21,24,26)       -177.4677         -DE/DX =    0.0                 !
 ! D60   D(22,21,24,25)        124.2856         -DE/DX =    0.0                 !
 ! D61   D(22,21,24,26)        -56.2659         -DE/DX =    0.0                 !
 ! D62   D(23,21,24,25)       -117.6636         -DE/DX =    0.0                 !
 ! D63   D(23,21,24,26)         61.785          -DE/DX =    0.0                 !
 --------------------------------------------------------------------------------
 GradGradGradGradGradGradGradGradGradGradGradGradGradGradGradGradGradGrad

                          Input orientation:                          
 ---------------------------------------------------------------------
 Center     Atomic      Atomic             Coordinates (Angstroms)
 Number     Number       Type             X           Y           Z
 ---------------------------------------------------------------------
      1          7           0        2.426301    1.001548    0.382827
      2          1           0        2.114307    1.208327    1.335816
      3          6           0        1.294300    0.505109   -0.343865
      4          1           0        0.580559    1.328386   -0.483881
      5          1           0        1.622609    0.195593   -1.338696
      6          6           0        0.596795   -0.673876    0.354423
      7          1           0        0.238998   -0.363540    1.336905
      8          1           0        1.345418   -1.444576    0.538925
      9          6           0       -0.523439   -1.307518   -0.472031
     10          1           0       -0.382658   -1.080213   -1.528358
     11          1           0       -0.510564   -2.391316   -0.365731
     12          7           0       -1.930621   -0.889951   -0.139192
     13          6           0       -2.320390   -1.391775    1.212480
     14          1           0       -3.347517   -1.077049    1.379257
     15          1           0       -2.219655   -2.474865    1.222734
     16          1           0       -1.668880   -0.949156    1.959513
     17          6           0       -2.837328   -1.509031   -1.154719
     18          1           0       -2.702139   -2.588128   -1.129639
     19          1           0       -3.852637   -1.219463   -0.898253
     20          1           0       -2.569321   -1.121035   -2.134324
     21          6           0       -2.079925    0.616697   -0.192055
     22          1           0       -1.732382    0.931049   -1.174250
     23          1           0       -1.422775    1.029600    0.568170
     24          6           0       -3.518493    1.214459    0.050230
     25          8           0       -4.432366    0.417131    0.328244
     26          8           0       -3.492807    2.435503   -0.072550
 ---------------------------------------------------------------------
                    Distance matrix (angstroms):
                    1          2          3          4          5
     1  N    0.000000
     2  H    1.023859   0.000000
     3  C    1.433861   1.997062   0.000000
     4  H    2.065132   2.382875   1.098552   0.000000
     5  H    2.063765   2.901795   1.092372   1.760625   0.000000
     6  C    2.480916   2.609341   1.537571   2.170730   2.162157
     7  H    2.749186   2.446947   2.166380   2.508892   3.063634
     8  H    2.678843   2.874738   2.140842   3.052943   2.508475
     9  C    3.842334   4.068844   2.570257   2.857786   2.759705
    10  H    3.984546   4.435735   2.593927   2.796439   2.384271
    11  H    4.549400   4.768924   3.412813   3.878233   3.491301
    12  N    4.778393   4.789558   3.519688   3.368361   3.904185
    13  C    5.380279   5.142206   4.368795   4.323474   4.957366
    14  H    6.216945   5.920840   5.197965   4.968620   5.805949
    15  H    5.863087   5.688753   4.866452   5.021798   5.334347
    16  H    4.802259   4.399572   4.025030   4.027076   4.798180
    17  C    6.030990   6.172964   4.667397   4.492540   4.778141
    18  H    6.440048   6.609817   5.114399   5.150941   5.147451
    19  H    6.782265   6.818332   5.456414   5.129958   5.672274
    20  H    5.983114   6.277275   4.558252   4.318029   4.465290
    21  C    4.559021   4.502888   3.379482   2.769448   3.898830
    22  H    4.441183   4.601558   3.167297   2.446259   3.438591
    23  H    3.853638   3.623834   2.913657   2.282418   3.688641
    24  C    5.957896   5.777647   4.880724   4.135273   5.422005
    25  O    6.883737   6.670841   5.766643   5.159394   6.284146
    26  O    6.107326   5.910091   5.168793   4.241133   5.726064
                    6          7          8          9         10
     6  C    0.000000
     7  H    1.090688   0.000000
     8  H    1.090163   1.740568   0.000000
     9  C    1.529527   2.178223   2.129188   0.000000
    10  H    2.160857   3.018246   2.718945   1.089639   0.000000
    11  H    2.166672   2.751852   2.271428   1.089075   1.757001
    12  N    2.584217   2.676419   3.391147   1.505093   2.088581
    13  C    3.124358   2.761018   3.727548   2.464490   3.371063
    14  H    4.095172   3.657045   4.781722   3.384641   4.152664
    15  H    3.453971   3.242792   3.773438   2.666848   3.590002
    16  H    2.790229   2.090594   3.368902   2.711616   3.719783
    17  C    3.842941   4.121179   4.513086   2.420899   2.519701
    18  H    4.092648   4.436543   4.524879   2.611349   2.795134
    19  H    4.654494   4.740255   5.397771   3.357526   3.529472
    20  H    4.051926   4.528784   4.751433   2.642655   2.269440
    21  C    3.021432   2.945503   4.064007   2.490710   2.746985
    22  H    3.215228   3.445026   4.248696   2.639287   2.447922
    23  H    2.650694   2.300713   3.712855   2.711631   3.150965
    24  C    4.538054   4.273681   5.564792   3.950123   4.194153
    25  O    5.146206   4.842363   6.073971   4.346787   4.699908
    26  O    5.155132   4.873148   6.231960   4.794469   4.914535
                   11         12         13         14         15
    11  H    0.000000
    12  N    2.078937   0.000000
    13  C    2.601020   1.493574   0.000000
    14  H    3.580584   2.085255   1.087132   0.000000
    15  H    2.334779   2.109581   1.087812   1.802903   0.000000
    16  H    2.971243   2.115792   1.085558   1.780695   1.781568
    17  C    2.610509   1.495551   2.425820   2.620675   2.639439
    18  H    2.329225   2.111878   2.657539   2.999072   2.404013
    19  H    3.581379   2.092582   2.613937   2.337196   2.956561
    20  H    2.996668   2.107579   3.366952   3.598997   3.636614
    21  C    3.397234   1.514951   2.462621   2.635258   3.402779
    22  H    3.631068   2.103969   3.381974   3.627881   4.193235
    23  H    3.661552   2.107829   2.661561   2.966557   3.653045
    24  C    4.714051   2.643059   3.094952   2.654535   4.083241
    25  O    4.873346   2.861064   2.917954   2.124642   3.749646
    26  O    5.681365   3.674712   4.204036   3.803535   5.235493
                   16         17         18         19         20
    16  H    0.000000
    17  C    3.373006   0.000000
    18  H    3.646466   1.087821   0.000000
    19  H    3.606756   1.086498   1.802894   0.000000
    20  H    4.195216   1.087196   1.783085   1.784505   0.000000
    21  C    2.692601   2.453386   3.396633   2.648151   2.651722
    22  H    3.655089   2.678671   3.650620   3.032550   2.415214
    23  H    2.431434   3.378454   4.196103   3.621175   3.639131
    24  C    3.427486   3.055043   4.064258   2.633486   3.335826
    25  O    3.487783   2.907478   3.761740   2.125752   3.449801
    26  O    4.348782   4.142474   5.194175   3.764311   4.213395
                   21         22         23         24         25
    21  C    0.000000
    22  H    1.088260   0.000000
    23  H    1.086406   1.772455   0.000000
    24  C    1.576546   2.184002   2.166672   0.000000
    25  O    2.417543   3.132333   3.080636   1.244262   0.000000
    26  O    2.306202   2.564414   2.583044   1.227470   2.262130
                   26
    26  O    0.000000
 Stoichiometry    C7H15N2O2(2)
 Framework group  C1[X(C7H15N2O2)]
 Deg. of freedom    72
 Full point group                 C1      NOp   1
 Largest Abelian subgroup         C1      NOp   1
 Largest concise Abelian subgroup C1      NOp   1
                         Standard orientation:                         
 ---------------------------------------------------------------------
 Center     Atomic      Atomic             Coordinates (Angstroms)
 Number     Number       Type             X           Y           Z
 ---------------------------------------------------------------------
      1          7           0        3.873129    1.256969    0.223703
      2          1           0        3.570065    1.507486    1.169050
      3          6           0        2.755788    0.653518   -0.442144
      4          1           0        1.994198    1.425793   -0.616465
      5          1           0        3.080027    0.298821   -1.423132
      6          6           0        2.140325   -0.514277    0.346262
      7          1           0        1.786347   -0.161173    1.315600
      8          1           0        2.934716   -1.229385    0.560783
      9          6           0        1.040338   -1.260238   -0.410721
     10          1           0        1.145974   -1.094258   -1.482450
     11          1           0        1.116232   -2.332584   -0.236370
     12          7           0       -0.380773   -0.899589   -0.070600
     13          6           0       -0.713357   -1.333644    1.319273
     14          1           0       -1.752803   -1.065416    1.490912
     15          1           0       -0.551812   -2.406683    1.395602
     16          1           0       -0.072196   -0.808767    2.020597
     17          6           0       -1.272396   -1.631577   -1.022375
     18          1           0       -1.076373   -2.697797   -0.932352
     19          1           0       -2.296756   -1.381981   -0.759952
     20          1           0       -1.047172   -1.293574   -2.030850
     21          6           0       -0.615459    0.590085   -0.215063
     22          1           0       -0.306763    0.858888   -1.223409
     23          1           0        0.033275    1.086511    0.501166
     24          6           0       -2.079908    1.122721    0.024074
     25          8           0       -2.941573    0.296253    0.374316
     26          8           0       -2.125357    2.332864   -0.176352
 ---------------------------------------------------------------------
 Rotational constants (GHZ):           1.5725784           0.6456304           0.5210688

 **********************************************************************

            Population analysis using the SCF density.

 **********************************************************************

 Orbital symmetries:
 Alpha Orbitals:
       Occupied  (A) (A) (A) (A) (A) (A) (A) (A) (A) (A) (A) (A)
                 (A) (A) (A) (A) (A) (A) (A) (A) (A) (A) (A) (A)
                 (A) (A) (A) (A) (A) (A) (A) (A) (A) (A) (A) (A)
                 (A) (A) (A) (A) (A) (A) (A) (A)
       Virtual   (A) (A) (A) (A) (A) (A) (A) (A) (A) (A) (A) (A)
                 (A) (A) (A) (A) (A) (A) (A) (A) (A) (A) (A) (A)
                 (A) (A) (A) (A) (A) (A) (A) (A) (A) (A) (A) (A)
                 (A) (A) (A) (A) (A) (A) (A) (A) (A) (A) (A) (A)
                 (A) (A) (A) (A) (A) (A) (A) (A) (A) (A) (A) (A)
                 (A) (A) (A) (A) (A) (A) (A) (A) (A) (A) (A) (A)
                 (A) (A) (A) (A) (A) (A) (A) (A) (A) (A) (A) (A)
                 (A) (A) (A) (A) (A) (A) (A) (A) (A) (A) (A) (A)
                 (A) (A) (A) (A) (A) (A) (A) (A) (A) (A) (A) (A)
                 (A) (A) (A) (A) (A) (A) (A) (A) (A) (A) (A) (A)
                 (A) (A) (A) (A) (A) (A) (A) (A) (A) (A) (A) (A)
                 (A) (A) (A) (A) (A) (A) (A) (A) (A) (A) (A) (A)
                 (A) (A) (A) (A) (A) (A) (A) (A) (A) (A) (A) (A)
                 (A) (A) (A) (A) (A) (A) (A) (A) (A) (A) (A) (A)
                 (A) (A) (A) (A) (A) (A) (A) (A) (A) (A) (A) (A)
                 (A) (A) (A) (A) (A) (A) (A) (A) (A) (A) (A) (A)
                 (A) (A) (A) (A) (A) (A) (A) (A) (A) (A) (A) (A)
                 (A) (A) (A) (A) (A) (A) (A) (A) (A) (A) (A) (A)
                 (A) (A) (A) (A) (A) (A) (A) (A) (A) (A) (A) (A)
                 (A) (A) (A) (A) (A) (A) (A) (A) (A) (A) (A) (A)
                 (A) (A) (A) (A) (A) (A) (A) (A) (A) (A) (A) (A)
                 (A) (A) (A) (A) (A) (A) (A) (A) (A) (A) (A) (A)
                 (A) (A) (A) (A) (A) (A) (A) (A) (A) (A) (A) (A)
                 (A) (A) (A) (A) (A) (A) (A) (A) (A) (A) (A) (A)
                 (A) (A) (A) (A) (A) (A) (A) (A) (A) (A) (A) (A)
                 (A) (A) (A) (A) (A) (A) (A) (A) (A) (A) (A) (A)
                 (A) (A) (A) (A) (A) (A) (A) (A) (A) (A) (A) (A)
                 (A) (A) (A) (A) (A) (A) (A) (A) (A) (A) (A) (A)
                 (A) (A) (A) (A) (A) (A) (A) (A) (A) (A) (A) (A)
                 (A) (A) (A) (A) (A) (A) (A) (A) (A) (A) (A) (A)
                 (A) (A) (A) (A) (A) (A) (A) (A) (A) (A) (A) (A)
                 (A) (A) (A) (A) (A) (A) (A) (A) (A) (A) (A) (A)
                 (A) (A) (A) (A)
 Beta  Orbitals:
       Occupied  (A) (A) (A) (A) (A) (A) (A) (A) (A) (A) (A) (A)
                 (A) (A) (A) (A) (A) (A) (A) (A) (A) (A) (A) (A)
                 (A) (A) (A) (A) (A) (A) (A) (A) (A) (A) (A) (A)
                 (A) (A) (A) (A) (A) (A) (A)
       Virtual   (A) (A) (A) (A) (A) (A) (A) (A) (A) (A) (A) (A)
                 (A) (A) (A) (A) (A) (A) (A) (A) (A) (A) (A) (A)
                 (A) (A) (A) (A) (A) (A) (A) (A) (A) (A) (A) (A)
                 (A) (A) (A) (A) (A) (A) (A) (A) (A) (A) (A) (A)
                 (A) (A) (A) (A) (A) (A) (A) (A) (A) (A) (A) (A)
                 (A) (A) (A) (A) (A) (A) (A) (A) (A) (A) (A) (A)
                 (A) (A) (A) (A) (A) (A) (A) (A) (A) (A) (A) (A)
                 (A) (A) (A) (A) (A) (A) (A) (A) (A) (A) (A) (A)
                 (A) (A) (A) (A) (A) (A) (A) (A) (A) (A) (A) (A)
                 (A) (A) (A) (A) (A) (A) (A) (A) (A) (A) (A) (A)
                 (A) (A) (A) (A) (A) (A) (A) (A) (A) (A) (A) (A)
                 (A) (A) (A) (A) (A) (A) (A) (A) (A) (A) (A) (A)
                 (A) (A) (A) (A) (A) (A) (A) (A) (A) (A) (A) (A)
                 (A) (A) (A) (A) (A) (A) (A) (A) (A) (A) (A) (A)
                 (A) (A) (A) (A) (A) (A) (A) (A) (A) (A) (A) (A)
                 (A) (A) (A) (A) (A) (A) (A) (A) (A) (A) (A) (A)
                 (A) (A) (A) (A) (A) (A) (A) (A) (A) (A) (A) (A)
                 (A) (A) (A) (A) (A) (A) (A) (A) (A) (A) (A) (A)
                 (A) (A) (A) (A) (A) (A) (A) (A) (A) (A) (A) (A)
                 (A) (A) (A) (A) (A) (A) (A) (A) (A) (A) (A) (A)
                 (A) (A) (A) (A) (A) (A) (A) (A) (A) (A) (A) (A)
                 (A) (A) (A) (A) (A) (A) (A) (A) (A) (A) (A) (A)
                 (A) (A) (A) (A) (A) (A) (A) (A) (A) (A) (A) (A)
                 (A) (A) (A) (A) (A) (A) (A) (A) (A) (A) (A) (A)
                 (A) (A) (A) (A) (A) (A) (A) (A) (A) (A) (A) (A)
                 (A) (A) (A) (A) (A) (A) (A) (A) (A) (A) (A) (A)
                 (A) (A) (A) (A) (A) (A) (A) (A) (A) (A) (A) (A)
                 (A) (A) (A) (A) (A) (A) (A) (A) (A) (A) (A) (A)
                 (A) (A) (A) (A) (A) (A) (A) (A) (A) (A) (A) (A)
                 (A) (A) (A) (A) (A) (A) (A) (A) (A) (A) (A) (A)
                 (A) (A) (A) (A) (A) (A) (A) (A) (A) (A) (A) (A)
                 (A) (A) (A) (A) (A) (A) (A) (A) (A) (A) (A) (A)
                 (A) (A) (A) (A) (A)
 The electronic state is 2-A.
 Alpha  occ. eigenvalues --  -19.16609 -19.15989 -14.58882 -14.47506 -10.38256
 Alpha  occ. eigenvalues --  -10.35469 -10.35167 -10.35125 -10.34352 -10.34048
 Alpha  occ. eigenvalues --  -10.33697  -1.15273  -1.11136  -1.02955  -1.02712
 Alpha  occ. eigenvalues --   -0.92967  -0.87592  -0.86526  -0.82807  -0.75546
 Alpha  occ. eigenvalues --   -0.73387  -0.65916  -0.64938  -0.62666  -0.60775
 Alpha  occ. eigenvalues --   -0.57921  -0.57625  -0.56258  -0.54485  -0.53184
 Alpha  occ. eigenvalues --   -0.52198  -0.51801  -0.51342  -0.50968  -0.49002
 Alpha  occ. eigenvalues --   -0.48845  -0.48430  -0.46447  -0.44074  -0.40132
 Alpha  occ. eigenvalues --   -0.38198  -0.31239  -0.30537  -0.29902
 Alpha virt. eigenvalues --    0.02878   0.04386   0.05317   0.05982   0.06917
 Alpha virt. eigenvalues --    0.07792   0.08018   0.08703   0.10226   0.10317
 Alpha virt. eigenvalues --    0.11251   0.12127   0.12488   0.13069   0.13173
 Alpha virt. eigenvalues --    0.13960   0.14288   0.14896   0.15941   0.16184
 Alpha virt. eigenvalues --    0.17030   0.17376   0.17495   0.17795   0.18154
 Alpha virt. eigenvalues --    0.18616   0.19594   0.20251   0.20313   0.20484
 Alpha virt. eigenvalues --    0.21678   0.22389   0.22839   0.22859   0.23010
 Alpha virt. eigenvalues --    0.23895   0.24031   0.25117   0.25570   0.26167
 Alpha virt. eigenvalues --    0.26538   0.27599   0.27884   0.28403   0.29195
 Alpha virt. eigenvalues --    0.29992   0.30448   0.30551   0.31256   0.32161
 Alpha virt. eigenvalues --    0.32229   0.32980   0.33643   0.34187   0.35154
 Alpha virt. eigenvalues --    0.35723   0.36671   0.37383   0.38501   0.38748
 Alpha virt. eigenvalues --    0.39845   0.40381   0.40938   0.42274   0.42991
 Alpha virt. eigenvalues --    0.44356   0.45408   0.46074   0.46784   0.47801
 Alpha virt. eigenvalues --    0.48438   0.50442   0.51933   0.52351   0.52424
 Alpha virt. eigenvalues --    0.52879   0.53370   0.54047   0.55434   0.56479
 Alpha virt. eigenvalues --    0.57542   0.58247   0.59317   0.60192   0.60283
 Alpha virt. eigenvalues --    0.61201   0.61932   0.62504   0.63598   0.64478
 Alpha virt. eigenvalues --    0.65081   0.65591   0.66179   0.66692   0.68065
 Alpha virt. eigenvalues --    0.68695   0.68795   0.69550   0.70429   0.71364
 Alpha virt. eigenvalues --    0.72252   0.72519   0.73637   0.73834   0.75202
 Alpha virt. eigenvalues --    0.75906   0.76750   0.77593   0.77759   0.79083
 Alpha virt. eigenvalues --    0.79456   0.81505   0.83188   0.84083   0.84593
 Alpha virt. eigenvalues --    0.87147   0.87900   0.90788   0.91137   0.91324
 Alpha virt. eigenvalues --    0.91938   0.93835   0.94977   0.96747   0.98801
 Alpha virt. eigenvalues --    0.99442   1.01043   1.02311   1.02867   1.03822
 Alpha virt. eigenvalues --    1.04686   1.07061   1.08591   1.09570   1.11014
 Alpha virt. eigenvalues --    1.11913   1.13563   1.14058   1.15156   1.15751
 Alpha virt. eigenvalues --    1.17716   1.18003   1.18278   1.19720   1.20450
 Alpha virt. eigenvalues --    1.21367   1.22407   1.23226   1.24094   1.25227
 Alpha virt. eigenvalues --    1.26732   1.27463   1.27957   1.29005   1.30009
 Alpha virt. eigenvalues --    1.30707   1.31204   1.31502   1.32968   1.33168
 Alpha virt. eigenvalues --    1.34688   1.35191   1.36825   1.37019   1.38139
 Alpha virt. eigenvalues --    1.38913   1.39251   1.39606   1.40880   1.41963
 Alpha virt. eigenvalues --    1.42745   1.43131   1.44490   1.45480   1.46297
 Alpha virt. eigenvalues --    1.47145   1.47940   1.48549   1.49529   1.50311
 Alpha virt. eigenvalues --    1.51006   1.52229   1.52972   1.53853   1.54444
 Alpha virt. eigenvalues --    1.55364   1.57663   1.58136   1.59052   1.60139
 Alpha virt. eigenvalues --    1.61876   1.63395   1.64437   1.64918   1.66301
 Alpha virt. eigenvalues --    1.67087   1.67649   1.68141   1.69564   1.69805
 Alpha virt. eigenvalues --    1.70899   1.71926   1.75997   1.76601   1.77984
 Alpha virt. eigenvalues --    1.79458   1.80893   1.82208   1.83068   1.87387
 Alpha virt. eigenvalues --    1.89161   1.92264   1.93437   1.96435   1.96877
 Alpha virt. eigenvalues --    1.98520   1.99879   2.00909   2.03474   2.05797
 Alpha virt. eigenvalues --    2.07097   2.07747   2.14724   2.21486   2.40173
 Alpha virt. eigenvalues --    2.49329   2.64789   2.72535   2.74593   2.80630
 Alpha virt. eigenvalues --    2.83717   2.86541   2.87358   2.90388   2.92998
 Alpha virt. eigenvalues --    2.94470   2.97089   2.97806   2.99551   3.07348
 Alpha virt. eigenvalues --    3.08134   3.11806   3.11997   3.13774   3.16035
 Alpha virt. eigenvalues --    3.21934   3.23819   3.28095   3.29022   3.29858
 Alpha virt. eigenvalues --    3.33640   3.34009   3.35475   3.37581   3.38231
 Alpha virt. eigenvalues --    3.40621   3.42306   3.44568   3.45376   3.46282
 Alpha virt. eigenvalues --    3.47088   3.48933   3.50570   3.51757   3.52987
 Alpha virt. eigenvalues --    3.53986   3.56075   3.57980   3.58792   3.60025
 Alpha virt. eigenvalues --    3.61741   3.62486   3.63316   3.65483   3.66260
 Alpha virt. eigenvalues --    3.66512   3.68499   3.69540   3.70309   3.72863
 Alpha virt. eigenvalues --    3.73298   3.74624   3.75876   3.77157   3.79389
 Alpha virt. eigenvalues --    3.80960   3.81166   3.82502   3.83319   3.84097
 Alpha virt. eigenvalues --    3.87538   3.88405   3.90530   3.92347   3.93048
 Alpha virt. eigenvalues --    3.94832   3.96077   3.98384   3.99836   4.00486
 Alpha virt. eigenvalues --    4.02346   4.04009   4.04501   4.05165   4.09369
 Alpha virt. eigenvalues --    4.10087   4.10825   4.12107   4.13379   4.14878
 Alpha virt. eigenvalues --    4.16450   4.17606   4.18675   4.20234   4.21947
 Alpha virt. eigenvalues --    4.22946   4.24376   4.25302   4.28343   4.30135
 Alpha virt. eigenvalues --    4.31105   4.31247   4.33480   4.35124   4.36215
 Alpha virt. eigenvalues --    4.38730   4.39850   4.41356   4.41925   4.42694
 Alpha virt. eigenvalues --    4.44413   4.47572   4.49836   4.51435   4.61128
 Alpha virt. eigenvalues --    4.63720   4.73520   4.82088   4.92430   4.98254
 Alpha virt. eigenvalues --    4.99678   5.01086   5.02355   5.05283   5.09832
 Alpha virt. eigenvalues --    5.11091   5.11686   5.13512   5.14610   5.15453
 Alpha virt. eigenvalues --    5.16407   5.17895   5.20338   5.24732   5.26376
 Alpha virt. eigenvalues --    5.29061   5.32054   5.37202   5.44929   5.47502
 Alpha virt. eigenvalues --    5.54582   5.72757   5.75124   5.77457   5.82853
 Alpha virt. eigenvalues --    5.97791   6.33778   6.96233   7.04772   7.08304
 Alpha virt. eigenvalues --    7.09767   7.20521   7.32323   7.36574   7.41006
 Alpha virt. eigenvalues --    7.45030   7.53656  23.98231  24.03186  24.06669
 Alpha virt. eigenvalues --   24.14123  24.16331  24.18239  24.34930  35.56274
 Alpha virt. eigenvalues --   35.62622  50.17848  50.26346
  Beta  occ. eigenvalues --  -19.16608 -19.15989 -14.58881 -14.45890 -10.38249
  Beta  occ. eigenvalues --  -10.35468 -10.35167 -10.35125 -10.34420 -10.33956
  Beta  occ. eigenvalues --  -10.33695  -1.15266  -1.11134  -1.02937  -0.99490
  Beta  occ. eigenvalues --   -0.92005  -0.87584  -0.86514  -0.81934  -0.74802
  Beta  occ. eigenvalues --   -0.73120  -0.65851  -0.64877  -0.62573  -0.60044
  Beta  occ. eigenvalues --   -0.57651  -0.57103  -0.56076  -0.53904  -0.52548
  Beta  occ. eigenvalues --   -0.52026  -0.51793  -0.51304  -0.50650  -0.48974
  Beta  occ. eigenvalues --   -0.48257  -0.47804  -0.46442  -0.44065  -0.37898
  Beta  occ. eigenvalues --   -0.31238  -0.30536  -0.29907
  Beta virt. eigenvalues --   -0.04697   0.02937   0.04518   0.05380   0.06033
  Beta virt. eigenvalues --    0.06992   0.07840   0.08119   0.08902   0.10306
  Beta virt. eigenvalues --    0.10378   0.11332   0.12157   0.12564   0.13143
  Beta virt. eigenvalues --    0.13351   0.14068   0.14418   0.14947   0.15945
  Beta virt. eigenvalues --    0.16184   0.17106   0.17465   0.17594   0.17833
  Beta virt. eigenvalues --    0.18188   0.18686   0.19728   0.20326   0.20494
  Beta virt. eigenvalues --    0.20513   0.21928   0.22490   0.22888   0.23118
  Beta virt. eigenvalues --    0.23229   0.23928   0.24124   0.25125   0.25665
  Beta virt. eigenvalues --    0.26551   0.26641   0.27695   0.27947   0.28726
  Beta virt. eigenvalues --    0.29383   0.30053   0.30533   0.30930   0.31328
  Beta virt. eigenvalues --    0.32310   0.32618   0.33106   0.33796   0.34218
  Beta virt. eigenvalues --    0.35216   0.35783   0.36697   0.37463   0.38561
  Beta virt. eigenvalues --    0.38781   0.39888   0.40421   0.40955   0.42291
  Beta virt. eigenvalues --    0.43025   0.44386   0.45446   0.46161   0.46829
  Beta virt. eigenvalues --    0.48057   0.48531   0.50514   0.51998   0.52576
  Beta virt. eigenvalues --    0.52653   0.53076   0.53401   0.54124   0.55583
  Beta virt. eigenvalues --    0.56544   0.57628   0.58479   0.59343   0.60213
  Beta virt. eigenvalues --    0.60334   0.61228   0.62017   0.62861   0.63702
  Beta virt. eigenvalues --    0.64510   0.65134   0.65734   0.66409   0.66857
  Beta virt. eigenvalues --    0.68193   0.68791   0.68953   0.69604   0.70450
  Beta virt. eigenvalues --    0.71479   0.72445   0.72674   0.73711   0.73963
  Beta virt. eigenvalues --    0.75262   0.75984   0.76951   0.77631   0.77867
  Beta virt. eigenvalues --    0.79141   0.80009   0.81552   0.83266   0.84251
  Beta virt. eigenvalues --    0.84627   0.87665   0.88244   0.91021   0.91230
  Beta virt. eigenvalues --    0.91611   0.93076   0.95063   0.96335   0.96816
  Beta virt. eigenvalues --    0.98927   0.99501   1.01289   1.02540   1.03020
  Beta virt. eigenvalues --    1.03917   1.04759   1.07116   1.08652   1.09643
  Beta virt. eigenvalues --    1.11081   1.11945   1.13706   1.14207   1.15295
  Beta virt. eigenvalues --    1.15911   1.17803   1.18126   1.18604   1.19774
  Beta virt. eigenvalues --    1.20610   1.21462   1.22508   1.23257   1.24411
  Beta virt. eigenvalues --    1.25430   1.26920   1.27582   1.28124   1.29072
  Beta virt. eigenvalues --    1.30171   1.30833   1.31430   1.31612   1.33267
  Beta virt. eigenvalues --    1.33548   1.34911   1.35480   1.37131   1.37236
  Beta virt. eigenvalues --    1.38220   1.38991   1.39442   1.39681   1.41429
  Beta virt. eigenvalues --    1.42014   1.42784   1.43191   1.44676   1.45697
  Beta virt. eigenvalues --    1.46526   1.47354   1.48106   1.48599   1.49571
  Beta virt. eigenvalues --    1.50543   1.51218   1.52257   1.53217   1.53932
  Beta virt. eigenvalues --    1.54559   1.55541   1.57777   1.58285   1.59635
  Beta virt. eigenvalues --    1.60370   1.62144   1.63571   1.64558   1.65271
  Beta virt. eigenvalues --    1.66421   1.67138   1.67719   1.68606   1.69662
  Beta virt. eigenvalues --    1.69883   1.71123   1.72135   1.76142   1.77078
  Beta virt. eigenvalues --    1.78261   1.79826   1.81323   1.82323   1.83627
  Beta virt. eigenvalues --    1.87488   1.89288   1.92354   1.93846   1.96521
  Beta virt. eigenvalues --    1.97474   1.98993   2.00311   2.01092   2.03939
  Beta virt. eigenvalues --    2.05809   2.07147   2.07773   2.14750   2.21488
  Beta virt. eigenvalues --    2.40175   2.49337   2.64791   2.72699   2.74596
  Beta virt. eigenvalues --    2.80627   2.83721   2.86564   2.87446   2.90433
  Beta virt. eigenvalues --    2.93015   2.94693   2.97161   2.97831   2.99647
  Beta virt. eigenvalues --    3.07393   3.08232   3.11843   3.12112   3.13848
  Beta virt. eigenvalues --    3.16086   3.21942   3.23859   3.28111   3.29133
  Beta virt. eigenvalues --    3.29892   3.33808   3.34049   3.35535   3.37655
  Beta virt. eigenvalues --    3.38340   3.40689   3.42384   3.44629   3.45446
  Beta virt. eigenvalues --    3.46317   3.47130   3.48968   3.50678   3.51810
  Beta virt. eigenvalues --    3.53099   3.54020   3.56185   3.58039   3.58805
  Beta virt. eigenvalues --    3.60061   3.61793   3.62526   3.63348   3.65504
  Beta virt. eigenvalues --    3.66370   3.66569   3.68697   3.69913   3.70351
  Beta virt. eigenvalues --    3.73017   3.73514   3.74818   3.75921   3.77267
  Beta virt. eigenvalues --    3.79390   3.81101   3.81792   3.82711   3.83826
  Beta virt. eigenvalues --    3.84351   3.87566   3.88492   3.90700   3.92902
  Beta virt. eigenvalues --    3.93291   3.95196   3.96187   3.99052   4.00061
  Beta virt. eigenvalues --    4.00569   4.02560   4.04028   4.04608   4.05282
  Beta virt. eigenvalues --    4.09464   4.10256   4.12130   4.12275   4.14360
  Beta virt. eigenvalues --    4.15950   4.16705   4.17700   4.19345   4.20622
  Beta virt. eigenvalues --    4.22117   4.23026   4.24550   4.25806   4.28372
  Beta virt. eigenvalues --    4.30158   4.31226   4.31481   4.33614   4.35429
  Beta virt. eigenvalues --    4.36266   4.38893   4.39875   4.41522   4.42042
  Beta virt. eigenvalues --    4.42904   4.44527   4.47694   4.49939   4.52045
  Beta virt. eigenvalues --    4.61789   4.64905   4.73560   4.82728   4.92621
  Beta virt. eigenvalues --    4.98936   5.00016   5.01222   5.07812   5.08684
  Beta virt. eigenvalues --    5.10693   5.11167   5.12780   5.13633   5.15107
  Beta virt. eigenvalues --    5.16170   5.19106   5.20657   5.22559   5.25875
  Beta virt. eigenvalues --    5.27761   5.29089   5.34313   5.37245   5.44938
  Beta virt. eigenvalues --    5.47526   5.54588   5.72806   5.75161   5.79858
  Beta virt. eigenvalues --    5.82873   5.97793   6.33778   6.96234   7.04773
  Beta virt. eigenvalues --    7.08306   7.09769   7.20521   7.32324   7.36576
  Beta virt. eigenvalues --    7.41007   7.45032   7.53657  23.98257  24.03159
  Beta virt. eigenvalues --   24.06709  24.14125  24.16333  24.18253  24.34931
  Beta virt. eigenvalues --   35.56316  35.65043  50.17849  50.26346
          Condensed to atoms (all electrons):
               1          2          3          4          5          6
     1  N    6.966108   0.205645   0.116635   0.015810  -0.072814   0.022932
     2  H    0.205645   0.595194   0.054065  -0.014448   0.010491  -0.039527
     3  C    0.116635   0.054065   5.231263   0.325683   0.494677  -0.008767
     4  H    0.015810  -0.014448   0.325683   0.539623  -0.036076   0.046405
     5  H   -0.072814   0.010491   0.494677  -0.036076   0.557291  -0.068331
     6  C    0.022932  -0.039527  -0.008767   0.046405  -0.068331   6.052438
     7  H   -0.011209   0.002929  -0.015547  -0.007684   0.004102   0.415659
     8  H    0.009357  -0.002565  -0.041099   0.004299  -0.006805   0.480630
     9  C    0.017701   0.024857  -0.022387  -0.016811   0.004409  -0.481755
    10  H   -0.001211   0.000046  -0.004010  -0.001748   0.004816  -0.032606
    11  H   -0.000115  -0.000061   0.015136  -0.000245  -0.000016  -0.048600
    12  N   -0.003083  -0.000588   0.014315  -0.003596   0.001527  -0.049048
    13  C    0.001085  -0.001544   0.016573   0.000380  -0.001609  -0.024989
    14  H    0.000014   0.000001  -0.000858   0.000006   0.000001  -0.001673
    15  H   -0.000064   0.000004   0.002642   0.000002   0.000004  -0.009043
    16  H    0.000520  -0.000057  -0.005735   0.000072  -0.000020   0.002847
    17  C    0.000480  -0.000109  -0.005219  -0.000651   0.000515  -0.119405
    18  H   -0.000015  -0.000000   0.002546  -0.000001  -0.000018   0.000475
    19  H    0.000003   0.000000  -0.000720  -0.000003   0.000002   0.004087
    20  H   -0.000019   0.000000  -0.002819  -0.000043   0.000072   0.000322
    21  C    0.003122  -0.004131   0.014832   0.000616  -0.005714   0.051477
    22  H    0.000209   0.000026  -0.004739  -0.001830   0.000201  -0.022303
    23  H   -0.000871  -0.000308  -0.002050  -0.002880   0.000180   0.062716
    24  C    0.003044  -0.000913  -0.063619   0.014516  -0.001335   0.044532
    25  O   -0.000030  -0.000004  -0.002320   0.000020  -0.000005   0.011234
    26  O    0.000030   0.000018   0.004815  -0.000839   0.000004  -0.012571
               7          8          9         10         11         12
     1  N   -0.011209   0.009357   0.017701  -0.001211  -0.000115  -0.003083
     2  H    0.002929  -0.002565   0.024857   0.000046  -0.000061  -0.000588
     3  C   -0.015547  -0.041099  -0.022387  -0.004010   0.015136   0.014315
     4  H   -0.007684   0.004299  -0.016811  -0.001748  -0.000245  -0.003596
     5  H    0.004102  -0.006805   0.004409   0.004816  -0.000016   0.001527
     6  C    0.415659   0.480630  -0.481755  -0.032606  -0.048600  -0.049048
     7  H    0.509210  -0.025491  -0.014730   0.002374   0.001467   0.023361
     8  H   -0.025491   0.492635  -0.053572   0.001400  -0.007955  -0.003203
     9  C   -0.014730  -0.053572   5.788170   0.427132   0.438349   0.287214
    10  H    0.002374   0.001400   0.427132   0.490578  -0.017543  -0.027498
    11  H    0.001467  -0.007955   0.438349  -0.017543   0.487050  -0.019119
    12  N    0.023361  -0.003203   0.287214  -0.027498  -0.019119   6.967554
    13  C   -0.002416   0.000451  -0.088228   0.001751   0.000331   0.122137
    14  H    0.000004  -0.000018   0.011157  -0.000197  -0.000309  -0.037315
    15  H    0.000061   0.000273  -0.007080   0.000376   0.002080  -0.019795
    16  H    0.004183   0.000032  -0.002621  -0.000395  -0.000648  -0.019528
    17  C    0.005614   0.000192  -0.004149   0.007956  -0.006400   0.185122
    18  H   -0.000005  -0.000001  -0.004784  -0.002219   0.002689  -0.017149
    19  H   -0.000040   0.000007   0.003541   0.000144  -0.000214  -0.034891
    20  H   -0.000021   0.000001  -0.016787   0.005225  -0.000405  -0.024843
    21  C   -0.018397   0.007166  -0.172177  -0.010451  -0.000576  -0.087956
    22  H    0.000396  -0.000155   0.026232  -0.001697  -0.000156  -0.009482
    23  H   -0.004605   0.000017  -0.049824   0.000408  -0.000027  -0.018724
    24  C   -0.004712   0.001763   0.002198   0.002448  -0.003217  -0.092363
    25  O   -0.000231  -0.000016   0.021490  -0.000508   0.000104   0.081686
    26  O    0.000246   0.000006   0.010646   0.000074   0.000055   0.033819
              13         14         15         16         17         18
     1  N    0.001085   0.000014  -0.000064   0.000520   0.000480  -0.000015
     2  H   -0.001544   0.000001   0.000004  -0.000057  -0.000109  -0.000000
     3  C    0.016573  -0.000858   0.002642  -0.005735  -0.005219   0.002546
     4  H    0.000380   0.000006   0.000002   0.000072  -0.000651  -0.000001
     5  H   -0.001609   0.000001   0.000004  -0.000020   0.000515  -0.000018
     6  C   -0.024989  -0.001673  -0.009043   0.002847  -0.119405   0.000475
     7  H   -0.002416   0.000004   0.000061   0.004183   0.005614  -0.000005
     8  H    0.000451  -0.000018   0.000273   0.000032   0.000192  -0.000001
     9  C   -0.088228   0.011157  -0.007080  -0.002621  -0.004149  -0.004784
    10  H    0.001751  -0.000197   0.000376  -0.000395   0.007956  -0.002219
    11  H    0.000331  -0.000309   0.002080  -0.000648  -0.006400   0.002689
    12  N    0.122137  -0.037315  -0.019795  -0.019528   0.185122  -0.017149
    13  C    5.086562   0.425347   0.428421   0.397988  -0.069192  -0.017416
    14  H    0.425347   0.416384  -0.018119  -0.011995  -0.003244  -0.000798
    15  H    0.428421  -0.018119   0.513487  -0.026395  -0.015632   0.003187
    16  H    0.397988  -0.011995  -0.026395   0.519696   0.015149   0.000289
    17  C   -0.069192  -0.003244  -0.015632   0.015149   5.113896   0.413105
    18  H   -0.017416  -0.000798   0.003187   0.000289   0.413105   0.521888
    19  H   -0.001949   0.001420  -0.000501  -0.000004   0.424273  -0.018201
    20  H    0.013505   0.000034   0.000144  -0.000543   0.411286  -0.026853
    21  C    0.017415  -0.003952   0.017938  -0.024175  -0.102672   0.021286
    22  H    0.007875   0.000454  -0.000227  -0.000035  -0.021534  -0.000168
    23  H   -0.017507  -0.001483  -0.000093   0.001420   0.001866  -0.000123
    24  C   -0.027649  -0.002577  -0.009224   0.016841  -0.002478  -0.012269
    25  O   -0.054984   0.018413   0.001366  -0.002864  -0.053716   0.001504
    26  O    0.001125  -0.000349   0.000037   0.000479   0.002287  -0.000003
              19         20         21         22         23         24
     1  N    0.000003  -0.000019   0.003122   0.000209  -0.000871   0.003044
     2  H    0.000000   0.000000  -0.004131   0.000026  -0.000308  -0.000913
     3  C   -0.000720  -0.002819   0.014832  -0.004739  -0.002050  -0.063619
     4  H   -0.000003  -0.000043   0.000616  -0.001830  -0.002880   0.014516
     5  H    0.000002   0.000072  -0.005714   0.000201   0.000180  -0.001335
     6  C    0.004087   0.000322   0.051477  -0.022303   0.062716   0.044532
     7  H   -0.000040  -0.000021  -0.018397   0.000396  -0.004605  -0.004712
     8  H    0.000007   0.000001   0.007166  -0.000155   0.000017   0.001763
     9  C    0.003541  -0.016787  -0.172177   0.026232  -0.049824   0.002198
    10  H    0.000144   0.005225  -0.010451  -0.001697   0.000408   0.002448
    11  H   -0.000214  -0.000405  -0.000576  -0.000156  -0.000027  -0.003217
    12  N   -0.034891  -0.024843  -0.087956  -0.009482  -0.018724  -0.092363
    13  C   -0.001949   0.013505   0.017415   0.007875  -0.017507  -0.027649
    14  H    0.001420   0.000034  -0.003952   0.000454  -0.001483  -0.002577
    15  H   -0.000501   0.000144   0.017938  -0.000227  -0.000093  -0.009224
    16  H   -0.000004  -0.000543  -0.024175  -0.000035   0.001420   0.016841
    17  C    0.424273   0.411286  -0.102672  -0.021534   0.001866  -0.002478
    18  H   -0.018201  -0.026853   0.021286  -0.000168  -0.000123  -0.012269
    19  H    0.420771  -0.011806  -0.010616  -0.001090   0.000484   0.004015
    20  H   -0.011806   0.507986  -0.017876   0.000598   0.000217   0.018450
    21  C   -0.010616  -0.017876   5.507240   0.395198   0.416957   0.150736
    22  H   -0.001090   0.000598   0.395198   0.474259  -0.026714   0.023344
    23  H    0.000484   0.000217   0.416957  -0.026714   0.505095  -0.011767
    24  C    0.004015   0.018450   0.150736   0.023344  -0.011767   4.864762
    25  O    0.015844  -0.003428  -0.110910  -0.000311  -0.002175   0.416951
    26  O   -0.000145   0.000763   0.003123  -0.006385  -0.004071   0.319383
              25         26
     1  N   -0.000030   0.000030
     2  H   -0.000004   0.000018
     3  C   -0.002320   0.004815
     4  H    0.000020  -0.000839
     5  H   -0.000005   0.000004
     6  C    0.011234  -0.012571
     7  H   -0.000231   0.000246
     8  H   -0.000016   0.000006
     9  C    0.021490   0.010646
    10  H   -0.000508   0.000074
    11  H    0.000104   0.000055
    12  N    0.081686   0.033819
    13  C   -0.054984   0.001125
    14  H    0.018413  -0.000349
    15  H    0.001366   0.000037
    16  H   -0.002864   0.000479
    17  C   -0.053716   0.002287
    18  H    0.001504  -0.000003
    19  H    0.015844  -0.000145
    20  H   -0.003428   0.000763
    21  C   -0.110910   0.003123
    22  H   -0.000311  -0.006385
    23  H   -0.002175  -0.004071
    24  C    0.416951   0.319383
    25  O    8.355876  -0.066012
    26  O   -0.066012   8.272246
          Atomic-Atomic Spin Densities.
               1          2          3          4          5          6
     1  N    1.002833   0.009519  -0.061036  -0.016815  -0.001245  -0.000491
     2  H    0.009519  -0.034971   0.009314  -0.000121  -0.000109  -0.005838
     3  C   -0.061036   0.009314   0.078449  -0.029231   0.011393   0.021489
     4  H   -0.016815  -0.000121  -0.029231   0.079326  -0.004740   0.003942
     5  H   -0.001245  -0.000109   0.011393  -0.004740   0.005763  -0.002032
     6  C   -0.000491  -0.005838   0.021489   0.003942  -0.002032   0.132708
     7  H   -0.001433  -0.000007   0.007637  -0.001542   0.000176  -0.001931
     8  H    0.001075   0.000424  -0.002869   0.000330  -0.000098  -0.003669
     9  C    0.030062  -0.000034  -0.121048   0.028219  -0.005857  -0.117982
    10  H    0.000153  -0.000010  -0.001382   0.000224  -0.000097  -0.000739
    11  H   -0.000402   0.000005   0.004192  -0.000244   0.000126   0.005071
    12  N   -0.001849   0.000333   0.010361  -0.001645   0.000639   0.001536
    13  C   -0.000277   0.000175   0.002970  -0.000568   0.000128   0.006013
    14  H   -0.000000  -0.000000  -0.000030   0.000002  -0.000000  -0.000062
    15  H   -0.000006   0.000000   0.000100  -0.000003   0.000000   0.000506
    16  H    0.000056  -0.000004  -0.000550   0.000044  -0.000003  -0.000298
    17  C    0.000149   0.000042  -0.003433   0.000714  -0.000028  -0.008965
    18  H   -0.000002  -0.000000   0.000081  -0.000005   0.000001   0.000475
    19  H   -0.000001   0.000000   0.000097  -0.000004   0.000000   0.000167
    20  H   -0.000004   0.000000   0.000126  -0.000019   0.000005   0.000316
    21  C   -0.001413  -0.000394   0.018261  -0.004010   0.000135   0.020388
    22  H   -0.000004   0.000001   0.001041  -0.000423   0.000021   0.000428
    23  H    0.000034   0.000040   0.001114  -0.000286   0.000025   0.000220
    24  C    0.000268  -0.000086  -0.013096   0.004945  -0.000325  -0.006966
    25  O   -0.000000   0.000000   0.000234  -0.000018   0.000001   0.000362
    26  O    0.000005   0.000001   0.000683  -0.000205   0.000004   0.000246
               7          8          9         10         11         12
     1  N   -0.001433   0.001075   0.030062   0.000153  -0.000402  -0.001849
     2  H   -0.000007   0.000424  -0.000034  -0.000010   0.000005   0.000333
     3  C    0.007637  -0.002869  -0.121048  -0.001382   0.004192   0.010361
     4  H   -0.001542   0.000330   0.028219   0.000224  -0.000244  -0.001645
     5  H    0.000176  -0.000098  -0.005857  -0.000097   0.000126   0.000639
     6  C   -0.001931  -0.003669  -0.117982  -0.000739   0.005071   0.001536
     7  H    0.000014   0.000094  -0.005580  -0.000037   0.000253   0.000884
     8  H    0.000094  -0.003516   0.007651  -0.000004  -0.000224  -0.000872
     9  C   -0.005580   0.007651   0.261380   0.002483  -0.013376  -0.012275
    10  H   -0.000037  -0.000004   0.002483   0.000185  -0.000138  -0.000332
    11  H    0.000253  -0.000224  -0.013376  -0.000138   0.002473   0.001819
    12  N    0.000884  -0.000872  -0.012275  -0.000332   0.001819   0.004133
    13  C    0.000187  -0.000126  -0.011266  -0.000044   0.000506  -0.000077
    14  H   -0.000002   0.000000   0.000180   0.000001  -0.000007   0.000016
    15  H   -0.000006  -0.000000  -0.001001  -0.000004   0.000066   0.000047
    16  H   -0.000099   0.000021   0.001399   0.000003  -0.000054  -0.000114
    17  C   -0.000035  -0.000007   0.016123   0.000310  -0.000895   0.000071
    18  H    0.000003  -0.000002  -0.000797  -0.000010   0.000089  -0.000025
    19  H    0.000002  -0.000000  -0.000535  -0.000006   0.000017  -0.000319
    20  H    0.000002  -0.000001  -0.000705  -0.000028   0.000041   0.000031
    21  C    0.001135  -0.000219  -0.060464  -0.000495   0.001971  -0.005746
    22  H    0.000019   0.000000  -0.002127  -0.000011   0.000021   0.000068
    23  H    0.000045   0.000003  -0.001663  -0.000015   0.000016   0.000199
    24  C   -0.000617   0.000114   0.031444   0.000351  -0.000797   0.004182
    25  O    0.000008  -0.000001  -0.001098  -0.000001   0.000012  -0.000620
    26  O    0.000011  -0.000000  -0.001148  -0.000003   0.000004  -0.000268
              13         14         15         16         17         18
     1  N   -0.000277  -0.000000  -0.000006   0.000056   0.000149  -0.000002
     2  H    0.000175  -0.000000   0.000000  -0.000004   0.000042  -0.000000
     3  C    0.002970  -0.000030   0.000100  -0.000550  -0.003433   0.000081
     4  H   -0.000568   0.000002  -0.000003   0.000044   0.000714  -0.000005
     5  H    0.000128  -0.000000   0.000000  -0.000003  -0.000028   0.000001
     6  C    0.006013  -0.000062   0.000506  -0.000298  -0.008965   0.000475
     7  H    0.000187  -0.000002  -0.000006  -0.000099  -0.000035   0.000003
     8  H   -0.000126   0.000000  -0.000000   0.000021  -0.000007  -0.000002
     9  C   -0.011266   0.000180  -0.001001   0.001399   0.016123  -0.000797
    10  H   -0.000044   0.000001  -0.000004   0.000003   0.000310  -0.000010
    11  H    0.000506  -0.000007   0.000066  -0.000054  -0.000895   0.000089
    12  N   -0.000077   0.000016   0.000047  -0.000114   0.000071  -0.000025
    13  C    0.000690  -0.000016   0.000114  -0.000209  -0.002131   0.000088
    14  H   -0.000016  -0.000004  -0.000002   0.000001   0.000052  -0.000003
    15  H    0.000114  -0.000002   0.000028  -0.000001  -0.000077   0.000009
    16  H   -0.000209   0.000001  -0.000001   0.000089   0.000052  -0.000003
    17  C   -0.002131   0.000052  -0.000077   0.000052   0.004122  -0.000303
    18  H    0.000088  -0.000003   0.000009  -0.000003  -0.000303   0.000038
    19  H    0.000129  -0.000011   0.000009  -0.000004  -0.000226   0.000035
    20  H    0.000066  -0.000001   0.000001  -0.000001  -0.000238   0.000011
    21  C    0.006736  -0.000179   0.000302  -0.000628  -0.008058   0.000510
    22  H    0.000128  -0.000002   0.000001  -0.000005  -0.000239   0.000002
    23  H   -0.000023  -0.000000  -0.000000  -0.000024  -0.000106   0.000000
    24  C   -0.003653   0.000071  -0.000078   0.000409   0.003612  -0.000161
    25  O    0.000148  -0.000012   0.000009  -0.000016  -0.000281   0.000010
    26  O    0.000126  -0.000003   0.000001  -0.000007  -0.000196   0.000002
              19         20         21         22         23         24
     1  N   -0.000001  -0.000004  -0.001413  -0.000004   0.000034   0.000268
     2  H    0.000000   0.000000  -0.000394   0.000001   0.000040  -0.000086
     3  C    0.000097   0.000126   0.018261   0.001041   0.001114  -0.013096
     4  H   -0.000004  -0.000019  -0.004010  -0.000423  -0.000286   0.004945
     5  H    0.000000   0.000005   0.000135   0.000021   0.000025  -0.000325
     6  C    0.000167   0.000316   0.020388   0.000428   0.000220  -0.006966
     7  H    0.000002   0.000002   0.001135   0.000019   0.000045  -0.000617
     8  H   -0.000000  -0.000001  -0.000219   0.000000   0.000003   0.000114
     9  C   -0.000535  -0.000705  -0.060464  -0.002127  -0.001663   0.031444
    10  H   -0.000006  -0.000028  -0.000495  -0.000011  -0.000015   0.000351
    11  H    0.000017   0.000041   0.001971   0.000021   0.000016  -0.000797
    12  N   -0.000319   0.000031  -0.005746   0.000068   0.000199   0.004182
    13  C    0.000129   0.000066   0.006736   0.000128  -0.000023  -0.003653
    14  H   -0.000011  -0.000001  -0.000179  -0.000002  -0.000000   0.000071
    15  H    0.000009   0.000001   0.000302   0.000001  -0.000000  -0.000078
    16  H   -0.000004  -0.000001  -0.000628  -0.000005  -0.000024   0.000409
    17  C   -0.000226  -0.000238  -0.008058  -0.000239  -0.000106   0.003612
    18  H    0.000035   0.000011   0.000510   0.000002   0.000000  -0.000161
    19  H    0.000143   0.000029   0.001193   0.000009   0.000005  -0.000708
    20  H    0.000029   0.000012   0.000623   0.000017   0.000000  -0.000298
    21  C    0.001193   0.000623   0.065737   0.002882   0.001465  -0.047955
    22  H    0.000009   0.000017   0.002882  -0.000018   0.000166  -0.002221
    23  H    0.000005   0.000000   0.001465   0.000166   0.000011  -0.001004
    24  C   -0.000708  -0.000298  -0.047955  -0.002221  -0.001004   0.040062
    25  O    0.000077   0.000017   0.003231   0.000029   0.000029  -0.002575
    26  O    0.000007   0.000006   0.002252   0.000080   0.000072  -0.002060
              25         26
     1  N   -0.000000   0.000005
     2  H    0.000000   0.000001
     3  C    0.000234   0.000683
     4  H   -0.000018  -0.000205
     5  H    0.000001   0.000004
     6  C    0.000362   0.000246
     7  H    0.000008   0.000011
     8  H   -0.000001  -0.000000
     9  C   -0.001098  -0.001148
    10  H   -0.000001  -0.000003
    11  H    0.000012   0.000004
    12  N   -0.000620  -0.000268
    13  C    0.000148   0.000126
    14  H   -0.000012  -0.000003
    15  H    0.000009   0.000001
    16  H   -0.000016  -0.000007
    17  C   -0.000281  -0.000196
    18  H    0.000010   0.000002
    19  H    0.000077   0.000007
    20  H    0.000017   0.000006
    21  C    0.003231   0.002252
    22  H    0.000029   0.000080
    23  H    0.000029   0.000072
    24  C   -0.002575  -0.002060
    25  O    0.000636   0.000070
    26  O    0.000070   0.000392
 Mulliken charges and spin densities:
               1          2
     1  N   -0.273263   0.959178
     2  H    0.170977  -0.021718
     3  C   -0.113294  -0.065135
     4  H    0.139421   0.057865
     5  H    0.114452   0.003883
     6  C   -0.277139   0.044895
     7  H    0.135483  -0.000821
     8  H    0.142652  -0.001896
     9  C   -0.128191   0.021987
    10  H    0.155356   0.000355
    11  H    0.158345   0.000544
    12  N   -0.248555   0.000175
    13  C   -0.213463  -0.000184
    14  H    0.209651  -0.000009
    15  H    0.136152   0.000016
    16  H    0.135500   0.000056
    17  C   -0.177342   0.000027
    18  H    0.133054   0.000047
    19  H    0.205589   0.000105
    20  H    0.146839   0.000009
    21  C   -0.037503  -0.002742
    22  H    0.168035  -0.000137
    23  H    0.153862   0.000324
    24  C    0.349140   0.002857
    25  O   -0.626976   0.000250
    26  O   -0.558781   0.000069
 Sum of Mulliken charges =  -0.00000   1.00000
 Mulliken charges and spin densities with hydrogens summed into heavy atoms:
               1          2
     1  N   -0.102286   0.937460
     3  C    0.140579  -0.003388
     6  C    0.000996   0.042178
     9  C    0.185510   0.022887
    12  N   -0.248555   0.000175
    13  C    0.267840  -0.000122
    17  C    0.308139   0.000188
    21  C    0.284394  -0.002556
    24  C    0.349140   0.002857
    25  O   -0.626976   0.000250
    26  O   -0.558781   0.000069
 Electronic spatial extent (au):  <R**2>=           2223.0802
 Charge=             -0.0000 electrons
 Dipole moment (field-independent basis, Debye):
    X=              6.6748    Y=             -8.4334    Z=             -0.0685  Tot=             10.7555
 Quadrupole moment (field-independent basis, Debye-Ang):
   XX=           -103.0428   YY=            -74.7276   ZZ=            -61.6851
   XY=              9.9104   XZ=              4.4395   YZ=              2.5027
 Traceless Quadrupole moment (field-independent basis, Debye-Ang):
   XX=            -23.2243   YY=              5.0909   ZZ=             18.1334
   XY=              9.9104   XZ=              4.4395   YZ=              2.5027
 Octapole moment (field-independent basis, Debye-Ang**2):
  XXX=             -3.2886  YYY=            -48.0182  ZZZ=              1.4395  XYY=             19.3562
  XXY=            -55.2754  XXZ=              0.0807  XZZ=              2.4082  YZZ=             -1.3276
  YYZ=              5.4692  XYZ=              3.1105
 Hexadecapole moment (field-independent basis, Debye-Ang**3):
 XXXX=          -2511.1717 YYYY=           -789.2693 ZZZZ=           -256.1093 XXXY=            -47.8891
 XXXZ=             57.4285 YYYX=             66.8216 YYYZ=             11.3822 ZZZX=              6.2971
 ZZZY=              4.4222 XXYY=           -515.5152 XXZZ=           -335.4564 YYZZ=           -161.2924
 XXYZ=             22.2593 YYXZ=              5.2806 ZZXY=             12.9364
 N-N= 6.693002706063D+02 E-N=-2.587896268219D+03  KE= 5.335603871767D+02
                          Isotropic Fermi Contact Couplings
        Atom                 a.u.       MegaHertz       Gauss      10(-4) cm-1
     1  N(14)              0.09943      32.12605      11.46337      10.71610
     2  H(1)              -0.01404     -62.73784     -22.38642     -20.92709
     3  C(13)             -0.02871     -32.27025     -11.51483     -10.76420
     4  H(1)               0.03002     134.17153      47.87574      44.75480
     5  H(1)               0.00081       3.61405       1.28958       1.20552
     6  C(13)              0.04539      51.02205      18.20593      17.01912
     7  H(1)              -0.00067      -2.98025      -1.06343      -0.99410
     8  H(1)              -0.00087      -3.89915      -1.39131      -1.30062
     9  C(13)              0.00285       3.20764       1.14457       1.06995
    10  H(1)               0.00009       0.40218       0.14351       0.13415
    11  H(1)               0.00020       0.90105       0.32152       0.30056
    12  N(14)              0.00014       0.04419       0.01577       0.01474
    13  C(13)             -0.00003      -0.03721      -0.01328      -0.01241
    14  H(1)              -0.00000      -0.01473      -0.00526      -0.00491
    15  H(1)              -0.00000      -0.00244      -0.00087      -0.00082
    16  H(1)              -0.00000      -0.00227      -0.00081      -0.00076
    17  C(13)              0.00006       0.06765       0.02414       0.02256
    18  H(1)               0.00002       0.08475       0.03024       0.02827
    19  H(1)               0.00005       0.24337       0.08684       0.08118
    20  H(1)              -0.00000      -0.01764      -0.00629      -0.00588
    21  C(13)              0.00065       0.72664       0.25928       0.24238
    22  H(1)               0.00013       0.59194       0.21122       0.19745
    23  H(1)               0.00005       0.20185       0.07203       0.06733
    24  C(13)              0.00008       0.09532       0.03401       0.03180
    25  O(17)              0.00004      -0.02344      -0.00836      -0.00782
    26  O(17)              0.00002      -0.01139      -0.00407      -0.00380
 --------------------------------------------------------
       Center         ----  Spin Dipole Couplings  ----
                      3XX-RR        3YY-RR        3ZZ-RR
 --------------------------------------------------------
     1   Atom       -0.781086      1.499962     -0.718876
     2   Atom       -0.076173     -0.021191      0.097363
     3   Atom        0.012146      0.005197     -0.017343
     4   Atom        0.015422     -0.007650     -0.007772
     5   Atom       -0.007100     -0.003086      0.010186
     6   Atom       -0.001031      0.017339     -0.016308
     7   Atom        0.003525     -0.003954      0.000429
     8   Atom       -0.004096      0.013071     -0.008975
     9   Atom        0.001086      0.002310     -0.003396
    10   Atom        0.000210      0.000225     -0.000435
    11   Atom       -0.000112      0.002096     -0.001984
    12   Atom        0.003656     -0.001239     -0.002417
    13   Atom        0.001234     -0.000369     -0.000865
    14   Atom        0.000959     -0.000412     -0.000547
    15   Atom        0.000562      0.000110     -0.000672
    16   Atom        0.001340     -0.000771     -0.000569
    17   Atom        0.001058     -0.000324     -0.000734
    18   Atom        0.000464      0.000149     -0.000614
    19   Atom        0.000811     -0.000290     -0.000521
    20   Atom        0.000749     -0.000339     -0.000410
    21   Atom        0.004762     -0.002519     -0.002244
    22   Atom        0.003443     -0.002137     -0.001306
    23   Atom        0.005296     -0.002829     -0.002467
    24   Atom        0.001883     -0.000890     -0.000992
    25   Atom        0.002334     -0.001139     -0.001196
    26   Atom        0.001748     -0.000730     -0.001018
 --------------------------------------------------------
                        XY            XZ            YZ
 --------------------------------------------------------
     1   Atom       -0.869679      0.317961     -0.929366
     2   Atom       -0.036750     -0.047810      0.025175
     3   Atom        0.005048      0.023975      0.004086
     4   Atom       -0.002939      0.012802      0.000670
     5   Atom        0.005214      0.009768      0.011228
     6   Atom        0.039140     -0.019462     -0.027018
     7   Atom        0.006733     -0.008224     -0.003747
     8   Atom        0.005187      0.000903     -0.004700
     9   Atom        0.007397      0.004092      0.004106
    10   Atom        0.002897      0.002531      0.002298
    11   Atom        0.002462      0.000597      0.000417
    12   Atom        0.001434      0.000348     -0.000060
    13   Atom        0.001224     -0.000716     -0.000406
    14   Atom        0.000649     -0.000451     -0.000195
    15   Atom        0.001151     -0.000448     -0.000397
    16   Atom        0.001316     -0.001498     -0.000728
    17   Atom        0.000910      0.000617      0.000208
    18   Atom        0.000907      0.000287      0.000227
    19   Atom        0.000564      0.000192      0.000094
    20   Atom        0.000826      0.000780      0.000390
    21   Atom        0.001202     -0.000662     -0.000189
    22   Atom        0.000721      0.001837     -0.000033
    23   Atom        0.000414     -0.001413     -0.000003
    24   Atom       -0.000177     -0.000119      0.000035
    25   Atom       -0.000237     -0.000148     -0.000008
    26   Atom       -0.000660      0.000025     -0.000030
 --------------------------------------------------------


 ---------------------------------------------------------------------------------
              Anisotropic Spin Dipole Couplings in Principal Axis System
 ---------------------------------------------------------------------------------

       Atom             a.u.   MegaHertz   Gauss  10(-4) cm-1        Axes

              Baa    -1.0756   -41.482   -14.802   -13.837  0.9495  0.2541 -0.1844
     1 N(14)  Bbb    -1.0566   -40.749   -14.540   -13.593  0.0824  0.3651  0.9273
              Bcc     2.1321    82.231    29.342    27.429 -0.3029  0.8956 -0.3257
 
              Baa    -0.1002   -53.436   -19.067   -17.824  0.9129  0.3694  0.1739
     2 H(1)   Bbb    -0.0178    -9.520    -3.397    -3.175 -0.3020  0.8975 -0.3214
              Bcc     0.1180    62.956    22.464    21.000 -0.2748  0.2409  0.9308
 
              Baa    -0.0308    -4.130    -1.474    -1.378 -0.4846 -0.0313  0.8742
     3 C(13)  Bbb     0.0034     0.454     0.162     0.151 -0.2572  0.9603 -0.1082
              Bcc     0.0274     3.676     1.312     1.226  0.8361  0.2772  0.4734
 
              Baa    -0.0140    -7.457    -2.661    -2.487 -0.4066 -0.2809  0.8693
     4 H(1)   Bbb    -0.0073    -3.908    -1.394    -1.304 -0.0399  0.9561  0.2903
              Bcc     0.0213    11.365     4.055     3.791  0.9127 -0.0834  0.4000
 
              Baa    -0.0115    -6.140    -2.191    -2.048  0.9209 -0.0560 -0.3857
     5 H(1)   Bbb    -0.0095    -5.043    -1.799    -1.682 -0.1312  0.8873 -0.4421
              Bcc     0.0210    11.183     3.990     3.730  0.3670  0.4577  0.8098
 
              Baa    -0.0328    -4.408    -1.573    -1.470 -0.5661  0.6869  0.4559
     6 C(13)  Bbb    -0.0296    -3.968    -1.416    -1.323  0.5983 -0.0382  0.8004
              Bcc     0.0624     8.376     2.989     2.794  0.5672  0.7258 -0.3893
 
              Baa    -0.0082    -4.361    -1.556    -1.455 -0.6127  0.7461 -0.2607
     7 H(1)   Bbb    -0.0055    -2.910    -1.038    -0.971  0.3171  0.5342  0.7836
              Bcc     0.0136     7.271     2.594     2.425  0.7239  0.3974 -0.5639
 
              Baa    -0.0106    -5.658    -2.019    -1.887 -0.3276  0.2525  0.9104
     8 H(1)   Bbb    -0.0047    -2.495    -0.890    -0.832  0.9120 -0.1673  0.3746
              Bcc     0.0153     8.153     2.909     2.720  0.2469  0.9530 -0.1755
 
              Baa    -0.0059    -0.793    -0.283    -0.265  0.7147 -0.3371 -0.6128
     9 C(13)  Bbb    -0.0055    -0.735    -0.262    -0.245  0.2948 -0.6494  0.7010
              Bcc     0.0114     1.528     0.545     0.510  0.6342  0.6817  0.3648
 
              Baa    -0.0028    -1.474    -0.526    -0.492  0.7908 -0.4376 -0.4279
    10 H(1)   Bbb    -0.0024    -1.294    -0.462    -0.432  0.0284 -0.6722  0.7398
              Bcc     0.0052     2.768     0.988     0.923  0.6114  0.5972  0.5192
 
              Baa    -0.0022    -1.179    -0.421    -0.393 -0.4538  0.1747  0.8738
    11 H(1)   Bbb    -0.0016    -0.832    -0.297    -0.277  0.7053 -0.5290  0.4720
              Bcc     0.0038     2.011     0.718     0.671  0.5447  0.8305  0.1168
 
              Baa    -0.0025    -0.095    -0.034    -0.032 -0.0930  0.1578  0.9831
    12 N(14)  Bbb    -0.0016    -0.062    -0.022    -0.021 -0.2481  0.9525 -0.1763
              Bcc     0.0041     0.157     0.056     0.052  0.9643  0.2603  0.0494
 
              Baa    -0.0011    -0.147    -0.052    -0.049  0.1118  0.3344  0.9358
    13 C(13)  Bbb    -0.0010    -0.138    -0.049    -0.046 -0.5190  0.8227 -0.2320
              Bcc     0.0021     0.285     0.102     0.095  0.8475  0.4597 -0.2655
 
              Baa    -0.0007    -0.366    -0.131    -0.122 -0.0693  0.6813  0.7287
    14 H(1)   Bbb    -0.0007    -0.351    -0.125    -0.117 -0.4333  0.6374 -0.6371
              Bcc     0.0013     0.718     0.256     0.239  0.8986  0.3599 -0.2510
 
              Baa    -0.0009    -0.455    -0.163    -0.152 -0.3914  0.7094  0.5862
    15 H(1)   Bbb    -0.0008    -0.432    -0.154    -0.144  0.5379 -0.3404  0.7712
              Bcc     0.0017     0.887     0.317     0.296  0.7466  0.6172 -0.2483
 
              Baa    -0.0014    -0.751    -0.268    -0.250 -0.1847  0.8811  0.4354
    16 H(1)   Bbb    -0.0014    -0.741    -0.265    -0.247  0.5600 -0.2697  0.7833
              Bcc     0.0028     1.492     0.532     0.498  0.8076  0.3886 -0.4436
 
              Baa    -0.0009    -0.127    -0.045    -0.042 -0.4008  0.2955  0.8672
    17 C(13)  Bbb    -0.0007    -0.098    -0.035    -0.033 -0.2888  0.8575 -0.4257
              Bcc     0.0017     0.226     0.081     0.075  0.8695  0.4211  0.2584
 
              Baa    -0.0007    -0.366    -0.130    -0.122 -0.2365 -0.0075  0.9716
    18 H(1)   Bbb    -0.0006    -0.327    -0.117    -0.109 -0.6149  0.7754 -0.1437
              Bcc     0.0013     0.692     0.247     0.231  0.7523  0.6314  0.1880
 
              Baa    -0.0006    -0.296    -0.106    -0.099  0.0475 -0.4225  0.9051
    19 H(1)   Bbb    -0.0005    -0.278    -0.099    -0.093 -0.4051  0.8201  0.4041
              Bcc     0.0011     0.575     0.205     0.192  0.9130  0.3859  0.1322
 
              Baa    -0.0008    -0.433    -0.155    -0.145 -0.5734  0.4194  0.7038
    20 H(1)   Bbb    -0.0008    -0.407    -0.145    -0.136 -0.1344  0.7993 -0.5858
              Bcc     0.0016     0.841     0.300     0.280  0.8082  0.4304  0.4019
 
              Baa    -0.0027    -0.366    -0.131    -0.122 -0.1394  0.9722  0.1883
    21 C(13)  Bbb    -0.0023    -0.308    -0.110    -0.103  0.1210 -0.1720  0.9776
              Bcc     0.0050     0.674     0.240     0.225  0.9828  0.1591 -0.0937
 
              Baa    -0.0024    -1.263    -0.451    -0.421 -0.2514  0.8509  0.4612
    22 H(1)   Bbb    -0.0018    -0.947    -0.338    -0.316 -0.2207 -0.5144  0.8287
              Bcc     0.0041     2.210     0.789     0.737  0.9424  0.1065  0.3171
 
              Baa    -0.0029    -1.536    -0.548    -0.512 -0.1120  0.9187 -0.3786
    23 H(1)   Bbb    -0.0027    -1.434    -0.512    -0.478  0.1406  0.3919  0.9092
              Bcc     0.0056     2.969     1.059     0.990  0.9837  0.0486 -0.1730
 
              Baa    -0.0010    -0.135    -0.048    -0.045  0.0242 -0.2560  0.9664
    24 C(13)  Bbb    -0.0009    -0.120    -0.043    -0.040  0.0725  0.9646  0.2537
              Bcc     0.0019     0.255     0.091     0.085  0.9971 -0.0639 -0.0419
 
              Baa    -0.0012     0.087     0.031     0.029  0.0609  0.3174  0.9463
    25 O(17)  Bbb    -0.0011     0.083     0.030     0.028  0.0507  0.9459 -0.3205
              Bcc     0.0024    -0.171    -0.061    -0.057  0.9969 -0.0675 -0.0415
 
              Baa    -0.0010     0.074     0.026     0.025  0.0333  0.1777  0.9835
    26 O(17)  Bbb    -0.0009     0.064     0.023     0.021  0.2403  0.9538 -0.1805
              Bcc     0.0019    -0.138    -0.049    -0.046  0.9701 -0.2423  0.0109
 

 ---------------------------------------------------------------------------------

 1\1\GINC-CCLEARNI\FOpt\UwB97XD\6-311+G(2d,2p)\C7H15N2O2(2)\TROUPPER\28
 -Sep-2026\0\\# opt freq wb97xd/6-311+g(2d,2p) scf=xqc\\opt freq\\0,2\N
 ,2.4263010355,1.001547586,0.3828266197\H,2.1143071372,1.2083268222,1.3
 358159781\C,1.2943002036,0.5051089682,-0.343864985\H,0.5805591541,1.32
 83862454,-0.483880708\H,1.622609283,0.1955925514,-1.3386961508\C,0.596
 7952043,-0.6738759604,0.3544227747\H,0.2389977009,-0.3635397663,1.3369
 052251\H,1.3454176527,-1.4445762397,0.5389248023\C,-0.5234392002,-1.30
 75177892,-0.4720309999\H,-0.3826581876,-1.0802131811,-1.528357648\H,-0
 .5105638991,-2.3913160721,-0.3657311818\N,-1.9306211665,-0.8899514295,
 -0.1391918337\C,-2.3203904374,-1.3917753153,1.2124798387\H,-3.34751664
 45,-1.0770493392,1.3792574075\H,-2.2196547971,-2.4748647652,1.22273429
 11\H,-1.6688796612,-0.9491556346,1.9595129189\C,-2.8373277215,-1.50903
 13413,-1.1547190158\H,-2.7021387978,-2.5881276149,-1.1296391405\H,-3.8
 526370861,-1.2194630379,-0.8982532962\H,-2.5693213373,-1.1210351697,-2
 .1343241152\C,-2.0799254379,0.6166970365,-0.1920550561\H,-1.7323823934
 ,0.9310492161,-1.1742500095\H,-1.4227748117,1.0295995087,0.5681704607\
 C,-3.5184927466,1.2144590878,0.0502304176\O,-4.4323656184,0.417131129,
 0.3282436662\O,-3.492806537,2.4355029551,-0.0725499301\\Version=EM64M-
 G16RevA.03\State=2-A\HF=-535.6297912\S2=0.754278\S2-1=0.\S2A=0.750014\
 RMSD=5.558e-09\RMSF=1.095e-05\Dipole=2.4406794,-3.4517017,-0.1860923\Q
 uadrupole=-16.5478209,2.7223254,13.8254956,8.2442083,3.1898514,1.19249
 22\PG=C01 [X(C7H15N2O2)]\\@


 "TIGER, TIGER BURNING BRIGHT
 IN THE FOREST OF THE NIGHT.
 WHAT IMMORTAL HAND OR EYE
 CAN FRAME THY FEARFUL SYMMETRYE?"
                     - WILLIAM BLAKE
 Job cpu time:       1 days  5 hours 54 minutes 38.1 seconds.
 Elapsed time:       0 days  1 hours 22 minutes 28.7 seconds.
 File lengths (MBytes):  RWF=    204 Int=      0 D2E=      0 Chk=     19 Scr=      1
 Normal termination of Gaussian 16 at Mon Sep 28 18:39:40 2026.
 Link1:  Proceeding to internal job step number  2.
 ----------------------------------------------------------------------
 #N Geom=AllCheck Guess=TCheck SCRF=Check GenChk UwB97XD/6-311+G(2d,2p)
  Freq
 ----------------------------------------------------------------------
 1/10=4,29=7,30=1,38=1,40=1/1,3;
 2/12=2,40=1/2;
 3/5=4,6=6,7=212,11=2,14=-4,25=1,30=1,70=2,71=2,74=-58,116=2,140=1/1,2,3;
 4/5=101/1;
 5/5=2,8=3,13=1,38=6,98=1/2,8;
 8/6=4,10=90,11=11/1;
 11/6=1,8=1,9=11,15=111,16=1/1,2,10;
 10/6=1/2;
 6/7=2,8=2,9=2,10=2,28=1/1;
 7/8=1,10=1,25=1/1,2,3,16;
 1/10=4,30=1/3;
 99//99;
 Structure from the checkpoint file:  "aminopropyl_betaine.chk"
 --------
 opt freq
 --------
 Charge =  0 Multiplicity = 2
 Redundant internal coordinates found in file.  (old form).
 N,0,2.4263010355,1.001547586,0.3828266197
 H,0,2.1143071372,1.2083268222,1.3358159781
 C,0,1.2943002036,0.5051089682,-0.343864985
 H,0,0.5805591541,1.3283862454,-0.483880708
 H,0,1.622609283,0.1955925514,-1.3386961508
 C,0,0.5967952043,-0.6738759604,0.3544227747
 H,0,0.2389977009,-0.3635397663,1.3369052251
 H,0,1.3454176527,-1.4445762397,0.5389248023
 C,0,-0.5234392002,-1.3075177892,-0.4720309999
 H,0,-0.3826581876,-1.0802131811,-1.528357648
 H,0,-0.5105638991,-2.3913160721,-0.3657311818
 N,0,-1.9306211665,-0.8899514295,-0.1391918337
 C,0,-2.3203904374,-1.3917753153,1.2124798387
 H,0,-3.3475166445,-1.0770493392,1.3792574075
 H,0,-2.2196547971,-2.4748647652,1.2227342911
 H,0,-1.6688796612,-0.9491556346,1.9595129189
 C,0,-2.8373277215,-1.5090313413,-1.1547190158
 H,0,-2.7021387978,-2.5881276149,-1.1296391405
 H,0,-3.8526370861,-1.2194630379,-0.8982532962
 H,0,-2.5693213373,-1.1210351697,-2.1343241152
 C,0,-2.0799254379,0.6166970365,-0.1920550561
 H,0,-1.7323823934,0.9310492161,-1.1742500095
 H,0,-1.4227748117,1.0295995087,0.5681704607
 C,0,-3.5184927466,1.2144590878,0.0502304176
 O,0,-4.4323656184,0.417131129,0.3282436662
 O,0,-3.492806537,2.4355029551,-0.0725499301
 Recover connectivity data from disk.

 GradGradGradGradGradGradGradGradGradGradGradGradGradGradGradGradGradGrad
 Berny optimization.
 Initialization pass.
                           ----------------------------
                           !    Initial Parameters    !
                           ! (Angstroms and Degrees)  !
 --------------------------                            --------------------------
 ! Name  Definition              Value          Derivative Info.                !
 --------------------------------------------------------------------------------
 ! R1    R(1,2)                  1.0239         calculate D2E/DX2 analytically  !
 ! R2    R(1,3)                  1.4339         calculate D2E/DX2 analytically  !
 ! R3    R(3,4)                  1.0986         calculate D2E/DX2 analytically  !
 ! R4    R(3,5)                  1.0924         calculate D2E/DX2 analytically  !
 ! R5    R(3,6)                  1.5376         calculate D2E/DX2 analytically  !
 ! R6    R(6,7)                  1.0907         calculate D2E/DX2 analytically  !
 ! R7    R(6,8)                  1.0902         calculate D2E/DX2 analytically  !
 ! R8    R(6,9)                  1.5295         calculate D2E/DX2 analytically  !
 ! R9    R(9,10)                 1.0896         calculate D2E/DX2 analytically  !
 ! R10   R(9,11)                 1.0891         calculate D2E/DX2 analytically  !
 ! R11   R(9,12)                 1.5051         calculate D2E/DX2 analytically  !
 ! R12   R(12,13)                1.4936         calculate D2E/DX2 analytically  !
 ! R13   R(12,17)                1.4956         calculate D2E/DX2 analytically  !
 ! R14   R(12,21)                1.515          calculate D2E/DX2 analytically  !
 ! R15   R(13,14)                1.0871         calculate D2E/DX2 analytically  !
 ! R16   R(13,15)                1.0878         calculate D2E/DX2 analytically  !
 ! R17   R(13,16)                1.0856         calculate D2E/DX2 analytically  !
 ! R18   R(17,18)                1.0878         calculate D2E/DX2 analytically  !
 ! R19   R(17,19)                1.0865         calculate D2E/DX2 analytically  !
 ! R20   R(17,20)                1.0872         calculate D2E/DX2 analytically  !
 ! R21   R(21,22)                1.0883         calculate D2E/DX2 analytically  !
 ! R22   R(21,23)                1.0864         calculate D2E/DX2 analytically  !
 ! R23   R(21,24)                1.5765         calculate D2E/DX2 analytically  !
 ! R24   R(24,25)                1.2443         calculate D2E/DX2 analytically  !
 ! R25   R(24,26)                1.2275         calculate D2E/DX2 analytically  !
 ! A1    A(2,1,3)              107.5224         calculate D2E/DX2 analytically  !
 ! A2    A(1,3,4)              108.5456         calculate D2E/DX2 analytically  !
 ! A3    A(1,3,5)              108.8069         calculate D2E/DX2 analytically  !
 ! A4    A(1,3,6)              113.1695         calculate D2E/DX2 analytically  !
 ! A5    A(4,3,5)              106.9501         calculate D2E/DX2 analytically  !
 ! A6    A(4,3,6)              109.7424         calculate D2E/DX2 analytically  !
 ! A7    A(5,3,6)              109.4312         calculate D2E/DX2 analytically  !
 ! A8    A(3,6,7)              109.8607         calculate D2E/DX2 analytically  !
 ! A9    A(3,6,8)              107.9043         calculate D2E/DX2 analytically  !
 ! A10   A(3,6,9)              113.8607         calculate D2E/DX2 analytically  !
 ! A11   A(7,6,8)              105.9008         calculate D2E/DX2 analytically  !
 ! A12   A(7,6,9)              111.3668         calculate D2E/DX2 analytically  !
 ! A13   A(8,6,9)              107.549          calculate D2E/DX2 analytically  !
 ! A14   A(6,9,10)             110.0456         calculate D2E/DX2 analytically  !
 ! A15   A(6,9,11)             110.5404         calculate D2E/DX2 analytically  !
 ! A16   A(6,9,12)             116.7653         calculate D2E/DX2 analytically  !
 ! A17   A(10,9,11)            107.499          calculate D2E/DX2 analytically  !
 ! A18   A(10,9,12)            106.0992         calculate D2E/DX2 analytically  !
 ! A19   A(11,9,12)            105.4002         calculate D2E/DX2 analytically  !
 ! A20   A(9,12,13)            110.5426         calculate D2E/DX2 analytically  !
 ! A21   A(9,12,17)            107.5671         calculate D2E/DX2 analytically  !
 ! A22   A(9,12,21)            111.1212         calculate D2E/DX2 analytically  !
 ! A23   A(13,12,17)           108.495          calculate D2E/DX2 analytically  !
 ! A24   A(13,12,21)           109.8773         calculate D2E/DX2 analytically  !
 ! A25   A(17,12,21)           109.1617         calculate D2E/DX2 analytically  !
 ! A26   A(12,13,14)           106.7458         calculate D2E/DX2 analytically  !
 ! A27   A(12,13,15)           108.5961         calculate D2E/DX2 analytically  !
 ! A28   A(12,13,16)           109.2178         calculate D2E/DX2 analytically  !
 ! A29   A(14,13,15)           111.9805         calculate D2E/DX2 analytically  !
 ! A30   A(14,13,16)           110.0857         calculate D2E/DX2 analytically  !
 ! A31   A(15,13,16)           110.1147         calculate D2E/DX2 analytically  !
 ! A32   A(12,17,18)           108.6405         calculate D2E/DX2 analytically  !
 ! A33   A(12,17,19)           107.2138         calculate D2E/DX2 analytically  !
 ! A34   A(12,17,20)           108.3399         calculate D2E/DX2 analytically  !
 ! A35   A(18,17,19)           112.0285         calculate D2E/DX2 analytically  !
 ! A36   A(18,17,20)           110.1302         calculate D2E/DX2 analytically  !
 ! A37   A(19,17,20)           110.3611         calculate D2E/DX2 analytically  !
 ! A38   A(12,21,22)           106.696          calculate D2E/DX2 analytically  !
 ! A39   A(12,21,23)           107.0945         calculate D2E/DX2 analytically  !
 ! A40   A(12,21,24)           117.4935         calculate D2E/DX2 analytically  !
 ! A41   A(22,21,23)           109.184          calculate D2E/DX2 analytically  !
 ! A42   A(22,21,24)           108.6984         calculate D2E/DX2 analytically  !
 ! A43   A(23,21,24)           107.4757         calculate D2E/DX2 analytically  !
 ! A44   A(21,24,25)           117.4879         calculate D2E/DX2 analytically  !
 ! A45   A(21,24,26)           110.0419         calculate D2E/DX2 analytically  !
 ! A46   A(25,24,26)           132.4672         calculate D2E/DX2 analytically  !
 ! D1    D(2,1,3,4)             68.8322         calculate D2E/DX2 analytically  !
 ! D2    D(2,1,3,5)           -175.1212         calculate D2E/DX2 analytically  !
 ! D3    D(2,1,3,6)            -53.2495         calculate D2E/DX2 analytically  !
 ! D4    D(1,3,6,7)             60.1993         calculate D2E/DX2 analytically  !
 ! D5    D(1,3,6,8)            -54.8137         calculate D2E/DX2 analytically  !
 ! D6    D(1,3,6,9)           -174.1137         calculate D2E/DX2 analytically  !
 ! D7    D(4,3,6,7)            -61.2108         calculate D2E/DX2 analytically  !
 ! D8    D(4,3,6,8)           -176.2239         calculate D2E/DX2 analytically  !
 ! D9    D(4,3,6,9)             64.4761         calculate D2E/DX2 analytically  !
 ! D10   D(5,3,6,7)           -178.2794         calculate D2E/DX2 analytically  !
 ! D11   D(5,3,6,8)             66.7075         calculate D2E/DX2 analytically  !
 ! D12   D(5,3,6,9)            -52.5924         calculate D2E/DX2 analytically  !
 ! D13   D(3,6,9,10)            21.8365         calculate D2E/DX2 analytically  !
 ! D14   D(3,6,9,11)           140.4254         calculate D2E/DX2 analytically  !
 ! D15   D(3,6,9,12)           -99.1368         calculate D2E/DX2 analytically  !
 ! D16   D(7,6,9,10)           146.7229         calculate D2E/DX2 analytically  !
 ! D17   D(7,6,9,11)           -94.6881         calculate D2E/DX2 analytically  !
 ! D18   D(7,6,9,12)            25.7497         calculate D2E/DX2 analytically  !
 ! D19   D(8,6,9,10)           -97.6651         calculate D2E/DX2 analytically  !
 ! D20   D(8,6,9,11)            20.9239         calculate D2E/DX2 analytically  !
 ! D21   D(8,6,9,12)           141.3617         calculate D2E/DX2 analytically  !
 ! D22   D(6,9,12,13)          -67.7413         calculate D2E/DX2 analytically  !
 ! D23   D(6,9,12,17)          173.9663         calculate D2E/DX2 analytically  !
 ! D24   D(6,9,12,21)           54.5349         calculate D2E/DX2 analytically  !
 ! D25   D(10,9,12,13)         169.2243         calculate D2E/DX2 analytically  !
 ! D26   D(10,9,12,17)          50.9319         calculate D2E/DX2 analytically  !
 ! D27   D(10,9,12,21)         -68.4995         calculate D2E/DX2 analytically  !
 ! D28   D(11,9,12,13)          55.3884         calculate D2E/DX2 analytically  !
 ! D29   D(11,9,12,17)         -62.904          calculate D2E/DX2 analytically  !
 ! D30   D(11,9,12,21)         177.6646         calculate D2E/DX2 analytically  !
 ! D31   D(9,12,13,14)        -178.73           calculate D2E/DX2 analytically  !
 ! D32   D(9,12,13,15)         -57.8238         calculate D2E/DX2 analytically  !
 ! D33   D(9,12,13,16)          62.2783         calculate D2E/DX2 analytically  !
 ! D34   D(17,12,13,14)        -61.0055         calculate D2E/DX2 analytically  !
 ! D35   D(17,12,13,15)         59.9007         calculate D2E/DX2 analytically  !
 ! D36   D(17,12,13,16)       -179.9972         calculate D2E/DX2 analytically  !
 ! D37   D(21,12,13,14)         58.2677         calculate D2E/DX2 analytically  !
 ! D38   D(21,12,13,15)        179.1739         calculate D2E/DX2 analytically  !
 ! D39   D(21,12,13,16)        -60.724          calculate D2E/DX2 analytically  !
 ! D40   D(9,12,17,18)          57.6951         calculate D2E/DX2 analytically  !
 ! D41   D(9,12,17,19)         178.9538         calculate D2E/DX2 analytically  !
 ! D42   D(9,12,17,20)         -61.9392         calculate D2E/DX2 analytically  !
 ! D43   D(13,12,17,18)        -61.9096         calculate D2E/DX2 analytically  !
 ! D44   D(13,12,17,19)         59.3491         calculate D2E/DX2 analytically  !
 ! D45   D(13,12,17,20)        178.4562         calculate D2E/DX2 analytically  !
 ! D46   D(21,12,17,18)        178.3688         calculate D2E/DX2 analytically  !
 ! D47   D(21,12,17,19)        -60.3726         calculate D2E/DX2 analytically  !
 ! D48   D(21,12,17,20)         58.7345         calculate D2E/DX2 analytically  !
 ! D49   D(9,12,21,22)          54.2871         calculate D2E/DX2 analytically  !
 ! D50   D(9,12,21,23)         -62.5313         calculate D2E/DX2 analytically  !
 ! D51   D(9,12,21,24)         176.5228         calculate D2E/DX2 analytically  !
 ! D52   D(13,12,21,22)        176.9482         calculate D2E/DX2 analytically  !
 ! D53   D(13,12,21,23)         60.1298         calculate D2E/DX2 analytically  !
 ! D54   D(13,12,21,24)        -60.8161         calculate D2E/DX2 analytically  !
 ! D55   D(17,12,21,22)        -64.1875         calculate D2E/DX2 analytically  !
 ! D56   D(17,12,21,23)        178.9941         calculate D2E/DX2 analytically  !
 ! D57   D(17,12,21,24)         58.0482         calculate D2E/DX2 analytically  !
 ! D58   D(12,21,24,25)          3.0837         calculate D2E/DX2 analytically  !
 ! D59   D(12,21,24,26)       -177.4677         calculate D2E/DX2 analytically  !
 ! D60   D(22,21,24,25)        124.2856         calculate D2E/DX2 analytically  !
 ! D61   D(22,21,24,26)        -56.2659         calculate D2E/DX2 analytically  !
 ! D62   D(23,21,24,25)       -117.6636         calculate D2E/DX2 analytically  !
 ! D63   D(23,21,24,26)         61.785          calculate D2E/DX2 analytically  !
 --------------------------------------------------------------------------------
 Trust Radius=3.00D-01 FncErr=1.00D-07 GrdErr=1.00D-07 EigMax=2.50D+02 EigMin=1.00D-04
 Number of steps in this run=      2 maximum allowed number of steps=      2.
 GradGradGradGradGradGradGradGradGradGradGradGradGradGradGradGradGradGrad

                          Input orientation:                          
 ---------------------------------------------------------------------
 Center     Atomic      Atomic             Coordinates (Angstroms)
 Number     Number       Type             X           Y           Z
 ---------------------------------------------------------------------
      1          7           0        2.426301    1.001548    0.382827
      2          1           0        2.114307    1.208327    1.335816
      3          6           0        1.294300    0.505109   -0.343865
      4          1           0        0.580559    1.328386   -0.483881
      5          1           0        1.622609    0.195593   -1.338696
      6          6           0        0.596795   -0.673876    0.354423
      7          1           0        0.238998   -0.363540    1.336905
      8          1           0        1.345418   -1.444576    0.538925
      9          6           0       -0.523439   -1.307518   -0.472031
     10          1           0       -0.382658   -1.080213   -1.528358
     11          1           0       -0.510564   -2.391316   -0.365731
     12          7           0       -1.930621   -0.889951   -0.139192
     13          6           0       -2.320390   -1.391775    1.212480
     14          1           0       -3.347517   -1.077049    1.379257
     15          1           0       -2.219655   -2.474865    1.222734
     16          1           0       -1.668880   -0.949156    1.959513
     17          6           0       -2.837328   -1.509031   -1.154719
     18          1           0       -2.702139   -2.588128   -1.129639
     19          1           0       -3.852637   -1.219463   -0.898253
     20          1           0       -2.569321   -1.121035   -2.134324
     21          6           0       -2.079925    0.616697   -0.192055
     22          1           0       -1.732382    0.931049   -1.174250
     23          1           0       -1.422775    1.029600    0.568170
     24          6           0       -3.518493    1.214459    0.050230
     25          8           0       -4.432366    0.417131    0.328244
     26          8           0       -3.492807    2.435503   -0.072550
 ---------------------------------------------------------------------
                    Distance matrix (angstroms):
                    1          2          3          4          5
     1  N    0.000000
     2  H    1.023859   0.000000
     3  C    1.433861   1.997062   0.000000
     4  H    2.065132   2.382875   1.098552   0.000000
     5  H    2.063765   2.901795   1.092372   1.760625   0.000000
     6  C    2.480916   2.609341   1.537571   2.170730   2.162157
     7  H    2.749186   2.446947   2.166380   2.508892   3.063634
     8  H    2.678843   2.874738   2.140842   3.052943   2.508475
     9  C    3.842334   4.068844   2.570257   2.857786   2.759705
    10  H    3.984546   4.435735   2.593927   2.796439   2.384271
    11  H    4.549400   4.768924   3.412813   3.878233   3.491301
    12  N    4.778393   4.789558   3.519688   3.368361   3.904185
    13  C    5.380279   5.142206   4.368795   4.323474   4.957366
    14  H    6.216945   5.920840   5.197965   4.968620   5.805949
    15  H    5.863087   5.688753   4.866452   5.021798   5.334347
    16  H    4.802259   4.399572   4.025030   4.027076   4.798180
    17  C    6.030990   6.172964   4.667397   4.492540   4.778141
    18  H    6.440048   6.609817   5.114399   5.150941   5.147451
    19  H    6.782265   6.818332   5.456414   5.129958   5.672274
    20  H    5.983114   6.277275   4.558252   4.318029   4.465290
    21  C    4.559021   4.502888   3.379482   2.769448   3.898830
    22  H    4.441183   4.601558   3.167297   2.446259   3.438591
    23  H    3.853638   3.623834   2.913657   2.282418   3.688641
    24  C    5.957896   5.777647   4.880724   4.135273   5.422005
    25  O    6.883737   6.670841   5.766643   5.159394   6.284146
    26  O    6.107326   5.910091   5.168793   4.241133   5.726064
                    6          7          8          9         10
     6  C    0.000000
     7  H    1.090688   0.000000
     8  H    1.090163   1.740568   0.000000
     9  C    1.529527   2.178223   2.129188   0.000000
    10  H    2.160857   3.018246   2.718945   1.089639   0.000000
    11  H    2.166672   2.751852   2.271428   1.089075   1.757001
    12  N    2.584217   2.676419   3.391147   1.505093   2.088581
    13  C    3.124358   2.761018   3.727548   2.464490   3.371063
    14  H    4.095172   3.657045   4.781722   3.384641   4.152664
    15  H    3.453971   3.242792   3.773438   2.666848   3.590002
    16  H    2.790229   2.090594   3.368902   2.711616   3.719783
    17  C    3.842941   4.121179   4.513086   2.420899   2.519701
    18  H    4.092648   4.436543   4.524879   2.611349   2.795134
    19  H    4.654494   4.740255   5.397771   3.357526   3.529472
    20  H    4.051926   4.528784   4.751433   2.642655   2.269440
    21  C    3.021432   2.945503   4.064007   2.490710   2.746985
    22  H    3.215228   3.445026   4.248696   2.639287   2.447922
    23  H    2.650694   2.300713   3.712855   2.711631   3.150965
    24  C    4.538054   4.273681   5.564792   3.950123   4.194153
    25  O    5.146206   4.842363   6.073971   4.346787   4.699908
    26  O    5.155132   4.873148   6.231960   4.794469   4.914535
                   11         12         13         14         15
    11  H    0.000000
    12  N    2.078937   0.000000
    13  C    2.601020   1.493574   0.000000
    14  H    3.580584   2.085255   1.087132   0.000000
    15  H    2.334779   2.109581   1.087812   1.802903   0.000000
    16  H    2.971243   2.115792   1.085558   1.780695   1.781568
    17  C    2.610509   1.495551   2.425820   2.620675   2.639439
    18  H    2.329225   2.111878   2.657539   2.999072   2.404013
    19  H    3.581379   2.092582   2.613937   2.337196   2.956561
    20  H    2.996668   2.107579   3.366952   3.598997   3.636614
    21  C    3.397234   1.514951   2.462621   2.635258   3.402779
    22  H    3.631068   2.103969   3.381974   3.627881   4.193235
    23  H    3.661552   2.107829   2.661561   2.966557   3.653045
    24  C    4.714051   2.643059   3.094952   2.654535   4.083241
    25  O    4.873346   2.861064   2.917954   2.124642   3.749646
    26  O    5.681365   3.674712   4.204036   3.803535   5.235493
                   16         17         18         19         20
    16  H    0.000000
    17  C    3.373006   0.000000
    18  H    3.646466   1.087821   0.000000
    19  H    3.606756   1.086498   1.802894   0.000000
    20  H    4.195216   1.087196   1.783085   1.784505   0.000000
    21  C    2.692601   2.453386   3.396633   2.648151   2.651722
    22  H    3.655089   2.678671   3.650620   3.032550   2.415214
    23  H    2.431434   3.378454   4.196103   3.621175   3.639131
    24  C    3.427486   3.055043   4.064258   2.633486   3.335826
    25  O    3.487783   2.907478   3.761740   2.125752   3.449801
    26  O    4.348782   4.142474   5.194175   3.764311   4.213395
                   21         22         23         24         25
    21  C    0.000000
    22  H    1.088260   0.000000
    23  H    1.086406   1.772455   0.000000
    24  C    1.576546   2.184002   2.166672   0.000000
    25  O    2.417543   3.132333   3.080636   1.244262   0.000000
    26  O    2.306202   2.564414   2.583044   1.227470   2.262130
                   26
    26  O    0.000000
 Stoichiometry    C7H15N2O2(2)
 Framework group  C1[X(C7H15N2O2)]
 Deg. of freedom    72
 Full point group                 C1      NOp   1
 Largest Abelian subgroup         C1      NOp   1
 Largest concise Abelian subgroup C1      NOp   1
                         Standard orientation:                         
 ---------------------------------------------------------------------
 Center     Atomic      Atomic             Coordinates (Angstroms)
 Number     Number       Type             X           Y           Z
 ---------------------------------------------------------------------
      1          7           0        3.873129    1.256969    0.223703
      2          1           0        3.570065    1.507486    1.169050
      3          6           0        2.755788    0.653518   -0.442144
      4          1           0        1.994198    1.425793   -0.616465
      5          1           0        3.080027    0.298821   -1.423132
      6          6           0        2.140325   -0.514277    0.346262
      7          1           0        1.786347   -0.161173    1.315600
      8          1           0        2.934716   -1.229385    0.560783
      9          6           0        1.040338   -1.260238   -0.410721
     10          1           0        1.145974   -1.094258   -1.482450
     11          1           0        1.116232   -2.332584   -0.236370
     12          7           0       -0.380773   -0.899589   -0.070600
     13          6           0       -0.713357   -1.333644    1.319273
     14          1           0       -1.752803   -1.065416    1.490912
     15          1           0       -0.551812   -2.406683    1.395602
     16          1           0       -0.072196   -0.808767    2.020597
     17          6           0       -1.272396   -1.631577   -1.022375
     18          1           0       -1.076373   -2.697797   -0.932352
     19          1           0       -2.296756   -1.381981   -0.759952
     20          1           0       -1.047172   -1.293574   -2.030850
     21          6           0       -0.615459    0.590085   -0.215063
     22          1           0       -0.306763    0.858888   -1.223409
     23          1           0        0.033275    1.086511    0.501166
     24          6           0       -2.079908    1.122721    0.024074
     25          8           0       -2.941573    0.296253    0.374316
     26          8           0       -2.125357    2.332864   -0.176352
 ---------------------------------------------------------------------
 Rotational constants (GHZ):           1.5725784           0.6456304           0.5210688
 Standard basis: 6-311+G(2d,2p) (5D, 7F)
 There are   454 symmetry adapted cartesian basis functions of A   symmetry.
 There are   432 symmetry adapted basis functions of A   symmetry.
   432 basis functions,   627 primitive gaussians,   454 cartesian basis functions
    44 alpha electrons       43 beta electrons
       nuclear repulsion energy       669.3212059320 Hartrees.
 NAtoms=   26 NActive=   26 NUniq=   26 SFac= 1.00D+00 NAtFMM=   60 NAOKFM=F Big=F
 Integral buffers will be    131072 words long.
 Raffenetti 2 integral format.
 Two-electron integral symmetry is turned on.
 Nuclear repulsion after empirical dispersion term =      669.3002706063 Hartrees.
 One-electron integrals computed using PRISM.
 NBasis=   432 RedAO= T EigKep=  1.20D-05  NBF=   432
 NBsUse=   432 1.00D-06 EigRej= -1.00D+00 NBFU=   432
 Initial guess from the checkpoint file:  "aminopropyl_betaine.chk"
 B after Tr=     0.000000   -0.000000    0.000000
         Rot=    1.000000   -0.000000    0.000000   -0.000000 Ang=   0.00 deg.
 Initial guess <Sx>= 0.0000 <Sy>= 0.0000 <Sz>= 0.5000 <S**2>= 0.7543 S= 0.5021
 Requested convergence on RMS density matrix=1.00D-08 within  32 cycles.
 Requested convergence on MAX density matrix=1.00D-06.
 Requested convergence on             energy=1.00D-06.
 No special actions if energy rises.
 SCF Done:  E(UwB97XD) =  -535.629791242     A.U. after    1 cycles
            NFock=  1  Conv=0.16D-08     -V/T= 2.0039
 <Sx>= 0.0000 <Sy>= 0.0000 <Sz>= 0.5000 <S**2>= 0.7543 S= 0.5021
 <L.S>= 0.000000000000E+00
 Annihilation of the first spin contaminant:
 S**2 before annihilation     0.7543,   after     0.7500
 QCSCF skips out because SCF is already converged.
 DoSCS=F DFT=T ScalE2(SS,OS)=  1.000000  1.000000
 Range of M.O.s used for correlation:     1   432
 NBasis=   432 NAE=    44 NBE=    43 NFC=     0 NFV=     0
 NROrb=    432 NOA=    44 NOB=    43 NVA=   388 NVB=   389

 **** Warning!!: The largest alpha MO coefficient is  0.54546272D+02


 **** Warning!!: The largest beta MO coefficient is  0.56791655D+02

 Symmetrizing basis deriv contribution to polar:
 IMax=3 JMax=2 DiffMx= 0.00D+00
 G2DrvN: will do    27 centers at a time, making    1 passes.
 Calling FoFCou, ICntrl=  3107 FMM=F I1Cent=   0 AccDes= 0.00D+00.
 End of G2Drv F.D. properties file   721 does not exist.
 End of G2Drv F.D. properties file   722 does not exist.
 End of G2Drv F.D. properties file   788 does not exist.
          IDoAtm=11111111111111111111111111
          Differentiating once with respect to electric field.
                with respect to dipole field.
          Differentiating once with respect to nuclear coordinates.
 CalDSu exits because no D1Ps are significant.
          There are    81 degrees of freedom in the 1st order CPHF.  IDoFFX=6 NUNeed=     3.
     78 vectors produced by pass  0 Test12= 4.17D-14 1.23D-09 XBig12= 8.76D+01 1.47D+00.
 AX will form    78 AO Fock derivatives at one time.
     78 vectors produced by pass  1 Test12= 4.17D-14 1.23D-09 XBig12= 1.24D+01 3.72D-01.
     78 vectors produced by pass  2 Test12= 4.17D-14 1.23D-09 XBig12= 5.04D-01 6.97D-02.
     78 vectors produced by pass  3 Test12= 4.17D-14 1.23D-09 XBig12= 9.16D-03 8.30D-03.
     78 vectors produced by pass  4 Test12= 4.17D-14 1.23D-09 XBig12= 1.06D-04 8.25D-04.
     78 vectors produced by pass  5 Test12= 4.17D-14 1.23D-09 XBig12= 8.83D-07 9.09D-05.
     78 vectors produced by pass  6 Test12= 4.17D-14 1.23D-09 XBig12= 8.11D-09 6.36D-06.
     40 vectors produced by pass  7 Test12= 4.17D-14 1.23D-09 XBig12= 7.06D-11 5.81D-07.
      5 vectors produced by pass  8 Test12= 4.17D-14 1.23D-09 XBig12= 6.81D-13 6.42D-08.
      3 vectors produced by pass  9 Test12= 4.17D-14 1.23D-09 XBig12= 8.32D-15 7.39D-09.
      2 vectors produced by pass 10 Test12= 4.17D-14 1.23D-09 XBig12= 6.54D-16 2.51D-09.
 InvSVY:  IOpt=1 It=  1 EMax= 3.55D-15
 Solved reduced A of dimension   596 with    81 vectors.
 Isotropic polarizability for W=    0.000000      106.96 Bohr**3.
 End of Minotr F.D. properties file   721 does not exist.
 End of Minotr F.D. properties file   722 does not exist.
 End of Minotr F.D. properties file   788 does not exist.

 **********************************************************************

            Population analysis using the SCF density.

 **********************************************************************

 Orbital symmetries:
 Alpha Orbitals:
       Occupied  (A) (A) (A) (A) (A) (A) (A) (A) (A) (A) (A) (A)
                 (A) (A) (A) (A) (A) (A) (A) (A) (A) (A) (A) (A)
                 (A) (A) (A) (A) (A) (A) (A) (A) (A) (A) (A) (A)
                 (A) (A) (A) (A) (A) (A) (A) (A)
       Virtual   (A) (A) (A) (A) (A) (A) (A) (A) (A) (A) (A) (A)
                 (A) (A) (A) (A) (A) (A) (A) (A) (A) (A) (A) (A)
                 (A) (A) (A) (A) (A) (A) (A) (A) (A) (A) (A) (A)
                 (A) (A) (A) (A) (A) (A) (A) (A) (A) (A) (A) (A)
                 (A) (A) (A) (A) (A) (A) (A) (A) (A) (A) (A) (A)
                 (A) (A) (A) (A) (A) (A) (A) (A) (A) (A) (A) (A)
                 (A) (A) (A) (A) (A) (A) (A) (A) (A) (A) (A) (A)
                 (A) (A) (A) (A) (A) (A) (A) (A) (A) (A) (A) (A)
                 (A) (A) (A) (A) (A) (A) (A) (A) (A) (A) (A) (A)
                 (A) (A) (A) (A) (A) (A) (A) (A) (A) (A) (A) (A)
                 (A) (A) (A) (A) (A) (A) (A) (A) (A) (A) (A) (A)
                 (A) (A) (A) (A) (A) (A) (A) (A) (A) (A) (A) (A)
                 (A) (A) (A) (A) (A) (A) (A) (A) (A) (A) (A) (A)
                 (A) (A) (A) (A) (A) (A) (A) (A) (A) (A) (A) (A)
                 (A) (A) (A) (A) (A) (A) (A) (A) (A) (A) (A) (A)
                 (A) (A) (A) (A) (A) (A) (A) (A) (A) (A) (A) (A)
                 (A) (A) (A) (A) (A) (A) (A) (A) (A) (A) (A) (A)
                 (A) (A) (A) (A) (A) (A) (A) (A) (A) (A) (A) (A)
                 (A) (A) (A) (A) (A) (A) (A) (A) (A) (A) (A) (A)
                 (A) (A) (A) (A) (A) (A) (A) (A) (A) (A) (A) (A)
                 (A) (A) (A) (A) (A) (A) (A) (A) (A) (A) (A) (A)
                 (A) (A) (A) (A) (A) (A) (A) (A) (A) (A) (A) (A)
                 (A) (A) (A) (A) (A) (A) (A) (A) (A) (A) (A) (A)
                 (A) (A) (A) (A) (A) (A) (A) (A) (A) (A) (A) (A)
                 (A) (A) (A) (A) (A) (A) (A) (A) (A) (A) (A) (A)
                 (A) (A) (A) (A) (A) (A) (A) (A) (A) (A) (A) (A)
                 (A) (A) (A) (A) (A) (A) (A) (A) (A) (A) (A) (A)
                 (A) (A) (A) (A) (A) (A) (A) (A) (A) (A) (A) (A)
                 (A) (A) (A) (A) (A) (A) (A) (A) (A) (A) (A) (A)
                 (A) (A) (A) (A) (A) (A) (A) (A) (A) (A) (A) (A)
                 (A) (A) (A) (A) (A) (A) (A) (A) (A) (A) (A) (A)
                 (A) (A) (A) (A) (A) (A) (A) (A) (A) (A) (A) (A)
                 (A) (A) (A) (A)
 Beta  Orbitals:
       Occupied  (A) (A) (A) (A) (A) (A) (A) (A) (A) (A) (A) (A)
                 (A) (A) (A) (A) (A) (A) (A) (A) (A) (A) (A) (A)
                 (A) (A) (A) (A) (A) (A) (A) (A) (A) (A) (A) (A)
                 (A) (A) (A) (A) (A) (A) (A)
       Virtual   (A) (A) (A) (A) (A) (A) (A) (A) (A) (A) (A) (A)
                 (A) (A) (A) (A) (A) (A) (A) (A) (A) (A) (A) (A)
                 (A) (A) (A) (A) (A) (A) (A) (A) (A) (A) (A) (A)
                 (A) (A) (A) (A) (A) (A) (A) (A) (A) (A) (A) (A)
                 (A) (A) (A) (A) (A) (A) (A) (A) (A) (A) (A) (A)
                 (A) (A) (A) (A) (A) (A) (A) (A) (A) (A) (A) (A)
                 (A) (A) (A) (A) (A) (A) (A) (A) (A) (A) (A) (A)
                 (A) (A) (A) (A) (A) (A) (A) (A) (A) (A) (A) (A)
                 (A) (A) (A) (A) (A) (A) (A) (A) (A) (A) (A) (A)
                 (A) (A) (A) (A) (A) (A) (A) (A) (A) (A) (A) (A)
                 (A) (A) (A) (A) (A) (A) (A) (A) (A) (A) (A) (A)
                 (A) (A) (A) (A) (A) (A) (A) (A) (A) (A) (A) (A)
                 (A) (A) (A) (A) (A) (A) (A) (A) (A) (A) (A) (A)
                 (A) (A) (A) (A) (A) (A) (A) (A) (A) (A) (A) (A)
                 (A) (A) (A) (A) (A) (A) (A) (A) (A) (A) (A) (A)
                 (A) (A) (A) (A) (A) (A) (A) (A) (A) (A) (A) (A)
                 (A) (A) (A) (A) (A) (A) (A) (A) (A) (A) (A) (A)
                 (A) (A) (A) (A) (A) (A) (A) (A) (A) (A) (A) (A)
                 (A) (A) (A) (A) (A) (A) (A) (A) (A) (A) (A) (A)
                 (A) (A) (A) (A) (A) (A) (A) (A) (A) (A) (A) (A)
                 (A) (A) (A) (A) (A) (A) (A) (A) (A) (A) (A) (A)
                 (A) (A) (A) (A) (A) (A) (A) (A) (A) (A) (A) (A)
                 (A) (A) (A) (A) (A) (A) (A) (A) (A) (A) (A) (A)
                 (A) (A) (A) (A) (A) (A) (A) (A) (A) (A) (A) (A)
                 (A) (A) (A) (A) (A) (A) (A) (A) (A) (A) (A) (A)
                 (A) (A) (A) (A) (A) (A) (A) (A) (A) (A) (A) (A)
                 (A) (A) (A) (A) (A) (A) (A) (A) (A) (A) (A) (A)
                 (A) (A) (A) (A) (A) (A) (A) (A) (A) (A) (A) (A)
                 (A) (A) (A) (A) (A) (A) (A) (A) (A) (A) (A) (A)
                 (A) (A) (A) (A) (A) (A) (A) (A) (A) (A) (A) (A)
                 (A) (A) (A) (A) (A) (A) (A) (A) (A) (A) (A) (A)
                 (A) (A) (A) (A) (A) (A) (A) (A) (A) (A) (A) (A)
                 (A) (A) (A) (A) (A)
 The electronic state is 2-A.
 Alpha  occ. eigenvalues --  -19.16609 -19.15989 -14.58882 -14.47506 -10.38256
 Alpha  occ. eigenvalues --  -10.35469 -10.35167 -10.35125 -10.34352 -10.34048
 Alpha  occ. eigenvalues --  -10.33697  -1.15273  -1.11136  -1.02955  -1.02712
 Alpha  occ. eigenvalues --   -0.92967  -0.87592  -0.86526  -0.82807  -0.75546
 Alpha  occ. eigenvalues --   -0.73387  -0.65916  -0.64938  -0.62666  -0.60775
 Alpha  occ. eigenvalues --   -0.57921  -0.57625  -0.56258  -0.54485  -0.53184
 Alpha  occ. eigenvalues --   -0.52198  -0.51801  -0.51342  -0.50968  -0.49002
 Alpha  occ. eigenvalues --   -0.48845  -0.48430  -0.46447  -0.44074  -0.40132
 Alpha  occ. eigenvalues --   -0.38198  -0.31239  -0.30537  -0.29902
 Alpha virt. eigenvalues --    0.02878   0.04386   0.05317   0.05982   0.06917
 Alpha virt. eigenvalues --    0.07792   0.08018   0.08703   0.10226   0.10317
 Alpha virt. eigenvalues --    0.11251   0.12127   0.12488   0.13069   0.13173
 Alpha virt. eigenvalues --    0.13960   0.14288   0.14896   0.15941   0.16184
 Alpha virt. eigenvalues --    0.17030   0.17376   0.17495   0.17795   0.18154
 Alpha virt. eigenvalues --    0.18616   0.19594   0.20251   0.20313   0.20484
 Alpha virt. eigenvalues --    0.21678   0.22389   0.22839   0.22859   0.23010
 Alpha virt. eigenvalues --    0.23895   0.24031   0.25117   0.25570   0.26167
 Alpha virt. eigenvalues --    0.26538   0.27599   0.27884   0.28403   0.29195
 Alpha virt. eigenvalues --    0.29992   0.30448   0.30551   0.31256   0.32161
 Alpha virt. eigenvalues --    0.32229   0.32980   0.33643   0.34187   0.35154
 Alpha virt. eigenvalues --    0.35723   0.36671   0.37383   0.38501   0.38748
 Alpha virt. eigenvalues --    0.39845   0.40381   0.40938   0.42274   0.42991
 Alpha virt. eigenvalues --    0.44356   0.45408   0.46074   0.46784   0.47801
 Alpha virt. eigenvalues --    0.48438   0.50442   0.51933   0.52351   0.52424
 Alpha virt. eigenvalues --    0.52879   0.53370   0.54047   0.55434   0.56479
 Alpha virt. eigenvalues --    0.57542   0.58247   0.59317   0.60192   0.60283
 Alpha virt. eigenvalues --    0.61201   0.61932   0.62504   0.63598   0.64478
 Alpha virt. eigenvalues --    0.65081   0.65591   0.66179   0.66692   0.68065
 Alpha virt. eigenvalues --    0.68695   0.68795   0.69550   0.70429   0.71364
 Alpha virt. eigenvalues --    0.72252   0.72519   0.73637   0.73834   0.75202
 Alpha virt. eigenvalues --    0.75906   0.76750   0.77593   0.77759   0.79083
 Alpha virt. eigenvalues --    0.79456   0.81505   0.83188   0.84083   0.84593
 Alpha virt. eigenvalues --    0.87147   0.87900   0.90788   0.91137   0.91324
 Alpha virt. eigenvalues --    0.91938   0.93835   0.94977   0.96747   0.98801
 Alpha virt. eigenvalues --    0.99442   1.01043   1.02311   1.02867   1.03822
 Alpha virt. eigenvalues --    1.04686   1.07061   1.08591   1.09570   1.11014
 Alpha virt. eigenvalues --    1.11913   1.13563   1.14058   1.15156   1.15751
 Alpha virt. eigenvalues --    1.17716   1.18003   1.18278   1.19720   1.20450
 Alpha virt. eigenvalues --    1.21367   1.22407   1.23226   1.24094   1.25227
 Alpha virt. eigenvalues --    1.26732   1.27463   1.27957   1.29005   1.30009
 Alpha virt. eigenvalues --    1.30707   1.31204   1.31502   1.32968   1.33168
 Alpha virt. eigenvalues --    1.34688   1.35191   1.36825   1.37019   1.38139
 Alpha virt. eigenvalues --    1.38913   1.39251   1.39606   1.40880   1.41963
 Alpha virt. eigenvalues --    1.42745   1.43131   1.44490   1.45480   1.46297
 Alpha virt. eigenvalues --    1.47145   1.47940   1.48549   1.49529   1.50311
 Alpha virt. eigenvalues --    1.51006   1.52229   1.52972   1.53853   1.54444
 Alpha virt. eigenvalues --    1.55364   1.57663   1.58136   1.59052   1.60139
 Alpha virt. eigenvalues --    1.61876   1.63395   1.64437   1.64918   1.66301
 Alpha virt. eigenvalues --    1.67087   1.67649   1.68141   1.69564   1.69805
 Alpha virt. eigenvalues --    1.70899   1.71926   1.75997   1.76601   1.77984
 Alpha virt. eigenvalues --    1.79458   1.80893   1.82208   1.83068   1.87387
 Alpha virt. eigenvalues --    1.89161   1.92264   1.93437   1.96435   1.96877
 Alpha virt. eigenvalues --    1.98520   1.99879   2.00909   2.03474   2.05797
 Alpha virt. eigenvalues --    2.07097   2.07747   2.14724   2.21486   2.40173
 Alpha virt. eigenvalues --    2.49329   2.64789   2.72535   2.74593   2.80630
 Alpha virt. eigenvalues --    2.83717   2.86541   2.87358   2.90388   2.92998
 Alpha virt. eigenvalues --    2.94470   2.97089   2.97806   2.99551   3.07348
 Alpha virt. eigenvalues --    3.08134   3.11806   3.11997   3.13774   3.16035
 Alpha virt. eigenvalues --    3.21934   3.23819   3.28095   3.29022   3.29858
 Alpha virt. eigenvalues --    3.33640   3.34009   3.35475   3.37581   3.38231
 Alpha virt. eigenvalues --    3.40621   3.42306   3.44568   3.45376   3.46282
 Alpha virt. eigenvalues --    3.47088   3.48933   3.50570   3.51757   3.52987
 Alpha virt. eigenvalues --    3.53986   3.56075   3.57980   3.58792   3.60025
 Alpha virt. eigenvalues --    3.61741   3.62486   3.63316   3.65483   3.66260
 Alpha virt. eigenvalues --    3.66512   3.68499   3.69540   3.70309   3.72863
 Alpha virt. eigenvalues --    3.73298   3.74624   3.75876   3.77157   3.79389
 Alpha virt. eigenvalues --    3.80960   3.81166   3.82502   3.83319   3.84097
 Alpha virt. eigenvalues --    3.87538   3.88405   3.90530   3.92347   3.93048
 Alpha virt. eigenvalues --    3.94832   3.96077   3.98384   3.99836   4.00486
 Alpha virt. eigenvalues --    4.02346   4.04009   4.04501   4.05165   4.09369
 Alpha virt. eigenvalues --    4.10087   4.10825   4.12107   4.13379   4.14878
 Alpha virt. eigenvalues --    4.16450   4.17606   4.18675   4.20234   4.21947
 Alpha virt. eigenvalues --    4.22946   4.24376   4.25302   4.28343   4.30135
 Alpha virt. eigenvalues --    4.31105   4.31247   4.33480   4.35124   4.36215
 Alpha virt. eigenvalues --    4.38730   4.39850   4.41356   4.41925   4.42694
 Alpha virt. eigenvalues --    4.44413   4.47572   4.49836   4.51435   4.61128
 Alpha virt. eigenvalues --    4.63720   4.73520   4.82088   4.92430   4.98254
 Alpha virt. eigenvalues --    4.99678   5.01086   5.02355   5.05283   5.09832
 Alpha virt. eigenvalues --    5.11091   5.11686   5.13512   5.14610   5.15453
 Alpha virt. eigenvalues --    5.16407   5.17895   5.20338   5.24732   5.26376
 Alpha virt. eigenvalues --    5.29061   5.32054   5.37202   5.44929   5.47502
 Alpha virt. eigenvalues --    5.54582   5.72757   5.75124   5.77457   5.82853
 Alpha virt. eigenvalues --    5.97791   6.33778   6.96233   7.04772   7.08304
 Alpha virt. eigenvalues --    7.09767   7.20521   7.32323   7.36574   7.41006
 Alpha virt. eigenvalues --    7.45030   7.53656  23.98231  24.03186  24.06669
 Alpha virt. eigenvalues --   24.14123  24.16331  24.18239  24.34930  35.56274
 Alpha virt. eigenvalues --   35.62622  50.17848  50.26346
  Beta  occ. eigenvalues --  -19.16608 -19.15989 -14.58881 -14.45890 -10.38249
  Beta  occ. eigenvalues --  -10.35468 -10.35167 -10.35125 -10.34420 -10.33956
  Beta  occ. eigenvalues --  -10.33695  -1.15266  -1.11134  -1.02937  -0.99490
  Beta  occ. eigenvalues --   -0.92005  -0.87584  -0.86514  -0.81934  -0.74802
  Beta  occ. eigenvalues --   -0.73119  -0.65851  -0.64877  -0.62573  -0.60044
  Beta  occ. eigenvalues --   -0.57651  -0.57103  -0.56076  -0.53904  -0.52548
  Beta  occ. eigenvalues --   -0.52026  -0.51793  -0.51304  -0.50650  -0.48974
  Beta  occ. eigenvalues --   -0.48257  -0.47804  -0.46442  -0.44065  -0.37898
  Beta  occ. eigenvalues --   -0.31238  -0.30536  -0.29907
  Beta virt. eigenvalues --   -0.04697   0.02937   0.04518   0.05380   0.06033
  Beta virt. eigenvalues --    0.06992   0.07840   0.08119   0.08902   0.10306
  Beta virt. eigenvalues --    0.10378   0.11332   0.12157   0.12564   0.13143
  Beta virt. eigenvalues --    0.13351   0.14068   0.14418   0.14947   0.15945
  Beta virt. eigenvalues --    0.16184   0.17106   0.17465   0.17594   0.17833
  Beta virt. eigenvalues --    0.18188   0.18686   0.19728   0.20326   0.20494
  Beta virt. eigenvalues --    0.20513   0.21928   0.22490   0.22888   0.23118
  Beta virt. eigenvalues --    0.23229   0.23928   0.24124   0.25125   0.25665
  Beta virt. eigenvalues --    0.26551   0.26641   0.27695   0.27947   0.28726
  Beta virt. eigenvalues --    0.29383   0.30053   0.30533   0.30930   0.31328
  Beta virt. eigenvalues --    0.32310   0.32618   0.33106   0.33796   0.34218
  Beta virt. eigenvalues --    0.35216   0.35783   0.36697   0.37463   0.38561
  Beta virt. eigenvalues --    0.38781   0.39888   0.40421   0.40955   0.42291
  Beta virt. eigenvalues --    0.43025   0.44386   0.45446   0.46161   0.46829
  Beta virt. eigenvalues --    0.48057   0.48531   0.50514   0.51998   0.52576
  Beta virt. eigenvalues --    0.52653   0.53076   0.53401   0.54124   0.55583
  Beta virt. eigenvalues --    0.56544   0.57628   0.58479   0.59343   0.60213
  Beta virt. eigenvalues --    0.60334   0.61228   0.62017   0.62861   0.63702
  Beta virt. eigenvalues --    0.64510   0.65134   0.65734   0.66409   0.66857
  Beta virt. eigenvalues --    0.68193   0.68791   0.68953   0.69604   0.70450
  Beta virt. eigenvalues --    0.71479   0.72445   0.72674   0.73711   0.73963
  Beta virt. eigenvalues --    0.75262   0.75984   0.76951   0.77631   0.77867
  Beta virt. eigenvalues --    0.79141   0.80009   0.81552   0.83266   0.84251
  Beta virt. eigenvalues --    0.84627   0.87665   0.88244   0.91021   0.91230
  Beta virt. eigenvalues --    0.91611   0.93076   0.95063   0.96335   0.96816
  Beta virt. eigenvalues --    0.98927   0.99501   1.01289   1.02540   1.03020
  Beta virt. eigenvalues --    1.03917   1.04759   1.07116   1.08652   1.09643
  Beta virt. eigenvalues --    1.11081   1.11945   1.13706   1.14207   1.15295
  Beta virt. eigenvalues --    1.15911   1.17803   1.18126   1.18604   1.19774
  Beta virt. eigenvalues --    1.20610   1.21462   1.22508   1.23257   1.24411
  Beta virt. eigenvalues --    1.25430   1.26920   1.27582   1.28124   1.29072
  Beta virt. eigenvalues --    1.30171   1.30833   1.31430   1.31612   1.33267
  Beta virt. eigenvalues --    1.33548   1.34911   1.35480   1.37131   1.37236
  Beta virt. eigenvalues --    1.38220   1.38991   1.39442   1.39681   1.41429
  Beta virt. eigenvalues --    1.42014   1.42784   1.43191   1.44676   1.45697
  Beta virt. eigenvalues --    1.46526   1.47354   1.48106   1.48599   1.49571
  Beta virt. eigenvalues --    1.50543   1.51218   1.52257   1.53217   1.53932
  Beta virt. eigenvalues --    1.54559   1.55541   1.57777   1.58285   1.59635
  Beta virt. eigenvalues --    1.60370   1.62144   1.63571   1.64558   1.65271
  Beta virt. eigenvalues --    1.66421   1.67138   1.67719   1.68606   1.69662
  Beta virt. eigenvalues --    1.69883   1.71123   1.72135   1.76142   1.77078
  Beta virt. eigenvalues --    1.78261   1.79826   1.81323   1.82323   1.83627
  Beta virt. eigenvalues --    1.87488   1.89288   1.92354   1.93846   1.96521
  Beta virt. eigenvalues --    1.97474   1.98993   2.00311   2.01092   2.03939
  Beta virt. eigenvalues --    2.05809   2.07148   2.07773   2.14750   2.21488
  Beta virt. eigenvalues --    2.40175   2.49337   2.64791   2.72699   2.74596
  Beta virt. eigenvalues --    2.80627   2.83721   2.86564   2.87446   2.90433
  Beta virt. eigenvalues --    2.93015   2.94693   2.97161   2.97831   2.99647
  Beta virt. eigenvalues --    3.07393   3.08232   3.11843   3.12112   3.13848
  Beta virt. eigenvalues --    3.16086   3.21942   3.23859   3.28111   3.29133
  Beta virt. eigenvalues --    3.29892   3.33808   3.34049   3.35535   3.37655
  Beta virt. eigenvalues --    3.38340   3.40689   3.42384   3.44629   3.45446
  Beta virt. eigenvalues --    3.46317   3.47130   3.48968   3.50678   3.51810
  Beta virt. eigenvalues --    3.53099   3.54020   3.56185   3.58039   3.58805
  Beta virt. eigenvalues --    3.60061   3.61793   3.62526   3.63348   3.65504
  Beta virt. eigenvalues --    3.66370   3.66569   3.68697   3.69913   3.70351
  Beta virt. eigenvalues --    3.73017   3.73514   3.74818   3.75921   3.77267
  Beta virt. eigenvalues --    3.79390   3.81101   3.81792   3.82711   3.83826
  Beta virt. eigenvalues --    3.84351   3.87566   3.88492   3.90700   3.92902
  Beta virt. eigenvalues --    3.93291   3.95196   3.96187   3.99052   4.00061
  Beta virt. eigenvalues --    4.00569   4.02560   4.04028   4.04608   4.05282
  Beta virt. eigenvalues --    4.09464   4.10256   4.12130   4.12275   4.14360
  Beta virt. eigenvalues --    4.15950   4.16705   4.17700   4.19345   4.20622
  Beta virt. eigenvalues --    4.22117   4.23026   4.24550   4.25806   4.28372
  Beta virt. eigenvalues --    4.30158   4.31226   4.31481   4.33614   4.35429
  Beta virt. eigenvalues --    4.36266   4.38893   4.39875   4.41522   4.42042
  Beta virt. eigenvalues --    4.42904   4.44527   4.47694   4.49939   4.52045
  Beta virt. eigenvalues --    4.61789   4.64905   4.73560   4.82728   4.92621
  Beta virt. eigenvalues --    4.98936   5.00016   5.01222   5.07812   5.08684
  Beta virt. eigenvalues --    5.10693   5.11167   5.12780   5.13633   5.15107
  Beta virt. eigenvalues --    5.16170   5.19106   5.20657   5.22559   5.25875
  Beta virt. eigenvalues --    5.27761   5.29089   5.34313   5.37245   5.44938
  Beta virt. eigenvalues --    5.47526   5.54588   5.72806   5.75161   5.79858
  Beta virt. eigenvalues --    5.82873   5.97793   6.33778   6.96234   7.04773
  Beta virt. eigenvalues --    7.08306   7.09769   7.20521   7.32324   7.36576
  Beta virt. eigenvalues --    7.41007   7.45032   7.53657  23.98257  24.03159
  Beta virt. eigenvalues --   24.06709  24.14125  24.16333  24.18253  24.34931
  Beta virt. eigenvalues --   35.56316  35.65043  50.17849  50.26346
          Condensed to atoms (all electrons):
               1          2          3          4          5          6
     1  N    6.966108   0.205645   0.116635   0.015810  -0.072814   0.022932
     2  H    0.205645   0.595194   0.054065  -0.014448   0.010491  -0.039527
     3  C    0.116635   0.054065   5.231263   0.325683   0.494678  -0.008767
     4  H    0.015810  -0.014448   0.325683   0.539623  -0.036076   0.046405
     5  H   -0.072814   0.010491   0.494678  -0.036076   0.557291  -0.068331
     6  C    0.022932  -0.039527  -0.008767   0.046405  -0.068331   6.052437
     7  H   -0.011209   0.002929  -0.015547  -0.007684   0.004102   0.415659
     8  H    0.009357  -0.002565  -0.041099   0.004299  -0.006805   0.480630
     9  C    0.017701   0.024857  -0.022387  -0.016811   0.004409  -0.481755
    10  H   -0.001211   0.000046  -0.004010  -0.001748   0.004816  -0.032606
    11  H   -0.000115  -0.000061   0.015136  -0.000245  -0.000016  -0.048600
    12  N   -0.003083  -0.000588   0.014315  -0.003596   0.001527  -0.049048
    13  C    0.001085  -0.001544   0.016573   0.000380  -0.001609  -0.024990
    14  H    0.000014   0.000001  -0.000858   0.000006   0.000001  -0.001673
    15  H   -0.000064   0.000004   0.002642   0.000002   0.000004  -0.009043
    16  H    0.000520  -0.000057  -0.005735   0.000072  -0.000020   0.002847
    17  C    0.000480  -0.000109  -0.005219  -0.000651   0.000515  -0.119405
    18  H   -0.000015  -0.000000   0.002546  -0.000001  -0.000018   0.000475
    19  H    0.000003   0.000000  -0.000720  -0.000003   0.000002   0.004087
    20  H   -0.000019   0.000000  -0.002819  -0.000043   0.000072   0.000322
    21  C    0.003122  -0.004131   0.014832   0.000616  -0.005714   0.051477
    22  H    0.000209   0.000026  -0.004739  -0.001830   0.000201  -0.022303
    23  H   -0.000871  -0.000308  -0.002050  -0.002880   0.000180   0.062716
    24  C    0.003044  -0.000913  -0.063619   0.014516  -0.001335   0.044532
    25  O   -0.000030  -0.000004  -0.002320   0.000020  -0.000005   0.011234
    26  O    0.000030   0.000018   0.004815  -0.000839   0.000004  -0.012571
               7          8          9         10         11         12
     1  N   -0.011209   0.009357   0.017701  -0.001211  -0.000115  -0.003083
     2  H    0.002929  -0.002565   0.024857   0.000046  -0.000061  -0.000588
     3  C   -0.015547  -0.041099  -0.022387  -0.004010   0.015136   0.014315
     4  H   -0.007684   0.004299  -0.016811  -0.001748  -0.000245  -0.003596
     5  H    0.004102  -0.006805   0.004409   0.004816  -0.000016   0.001527
     6  C    0.415659   0.480630  -0.481755  -0.032606  -0.048600  -0.049048
     7  H    0.509210  -0.025491  -0.014730   0.002374   0.001467   0.023361
     8  H   -0.025491   0.492635  -0.053572   0.001400  -0.007955  -0.003203
     9  C   -0.014730  -0.053572   5.788170   0.427132   0.438349   0.287214
    10  H    0.002374   0.001400   0.427132   0.490578  -0.017543  -0.027498
    11  H    0.001467  -0.007955   0.438349  -0.017543   0.487050  -0.019119
    12  N    0.023361  -0.003203   0.287214  -0.027498  -0.019119   6.967554
    13  C   -0.002416   0.000451  -0.088228   0.001751   0.000331   0.122137
    14  H    0.000004  -0.000018   0.011157  -0.000197  -0.000309  -0.037315
    15  H    0.000061   0.000273  -0.007080   0.000376   0.002080  -0.019795
    16  H    0.004183   0.000032  -0.002621  -0.000395  -0.000648  -0.019528
    17  C    0.005614   0.000192  -0.004149   0.007956  -0.006400   0.185123
    18  H   -0.000005  -0.000001  -0.004784  -0.002219   0.002689  -0.017149
    19  H   -0.000040   0.000007   0.003541   0.000144  -0.000214  -0.034891
    20  H   -0.000021   0.000001  -0.016787   0.005225  -0.000405  -0.024843
    21  C   -0.018397   0.007166  -0.172177  -0.010451  -0.000576  -0.087956
    22  H    0.000396  -0.000155   0.026232  -0.001697  -0.000156  -0.009482
    23  H   -0.004605   0.000017  -0.049824   0.000408  -0.000027  -0.018724
    24  C   -0.004712   0.001763   0.002198   0.002448  -0.003217  -0.092363
    25  O   -0.000231  -0.000016   0.021490  -0.000508   0.000104   0.081686
    26  O    0.000246   0.000006   0.010646   0.000074   0.000055   0.033819
              13         14         15         16         17         18
     1  N    0.001085   0.000014  -0.000064   0.000520   0.000480  -0.000015
     2  H   -0.001544   0.000001   0.000004  -0.000057  -0.000109  -0.000000
     3  C    0.016573  -0.000858   0.002642  -0.005735  -0.005219   0.002546
     4  H    0.000380   0.000006   0.000002   0.000072  -0.000651  -0.000001
     5  H   -0.001609   0.000001   0.000004  -0.000020   0.000515  -0.000018
     6  C   -0.024990  -0.001673  -0.009043   0.002847  -0.119405   0.000475
     7  H   -0.002416   0.000004   0.000061   0.004183   0.005614  -0.000005
     8  H    0.000451  -0.000018   0.000273   0.000032   0.000192  -0.000001
     9  C   -0.088228   0.011157  -0.007080  -0.002621  -0.004149  -0.004784
    10  H    0.001751  -0.000197   0.000376  -0.000395   0.007956  -0.002219
    11  H    0.000331  -0.000309   0.002080  -0.000648  -0.006400   0.002689
    12  N    0.122137  -0.037315  -0.019795  -0.019528   0.185123  -0.017149
    13  C    5.086562   0.425347   0.428421   0.397988  -0.069192  -0.017416
    14  H    0.425347   0.416384  -0.018119  -0.011995  -0.003244  -0.000798
    15  H    0.428421  -0.018119   0.513487  -0.026395  -0.015632   0.003187
    16  H    0.397988  -0.011995  -0.026395   0.519696   0.015149   0.000289
    17  C   -0.069192  -0.003244  -0.015632   0.015149   5.113896   0.413105
    18  H   -0.017416  -0.000798   0.003187   0.000289   0.413105   0.521888
    19  H   -0.001949   0.001420  -0.000501  -0.000004   0.424273  -0.018201
    20  H    0.013505   0.000034   0.000144  -0.000543   0.411286  -0.026853
    21  C    0.017415  -0.003952   0.017938  -0.024175  -0.102672   0.021286
    22  H    0.007875   0.000454  -0.000227  -0.000035  -0.021534  -0.000168
    23  H   -0.017507  -0.001483  -0.000093   0.001420   0.001866  -0.000123
    24  C   -0.027649  -0.002577  -0.009224   0.016841  -0.002478  -0.012269
    25  O   -0.054984   0.018413   0.001366  -0.002864  -0.053716   0.001504
    26  O    0.001125  -0.000349   0.000037   0.000479   0.002287  -0.000003
              19         20         21         22         23         24
     1  N    0.000003  -0.000019   0.003122   0.000209  -0.000871   0.003044
     2  H    0.000000   0.000000  -0.004131   0.000026  -0.000308  -0.000913
     3  C   -0.000720  -0.002819   0.014832  -0.004739  -0.002050  -0.063619
     4  H   -0.000003  -0.000043   0.000616  -0.001830  -0.002880   0.014516
     5  H    0.000002   0.000072  -0.005714   0.000201   0.000180  -0.001335
     6  C    0.004087   0.000322   0.051477  -0.022303   0.062716   0.044532
     7  H   -0.000040  -0.000021  -0.018397   0.000396  -0.004605  -0.004712
     8  H    0.000007   0.000001   0.007166  -0.000155   0.000017   0.001763
     9  C    0.003541  -0.016787  -0.172177   0.026232  -0.049824   0.002198
    10  H    0.000144   0.005225  -0.010451  -0.001697   0.000408   0.002448
    11  H   -0.000214  -0.000405  -0.000576  -0.000156  -0.000027  -0.003217
    12  N   -0.034891  -0.024843  -0.087956  -0.009482  -0.018724  -0.092363
    13  C   -0.001949   0.013505   0.017415   0.007875  -0.017507  -0.027649
    14  H    0.001420   0.000034  -0.003952   0.000454  -0.001483  -0.002577
    15  H   -0.000501   0.000144   0.017938  -0.000227  -0.000093  -0.009224
    16  H   -0.000004  -0.000543  -0.024175  -0.000035   0.001420   0.016841
    17  C    0.424273   0.411286  -0.102672  -0.021534   0.001866  -0.002478
    18  H   -0.018201  -0.026853   0.021286  -0.000168  -0.000123  -0.012269
    19  H    0.420771  -0.011806  -0.010616  -0.001090   0.000484   0.004015
    20  H   -0.011806   0.507986  -0.017876   0.000598   0.000217   0.018450
    21  C   -0.010616  -0.017876   5.507240   0.395198   0.416957   0.150736
    22  H   -0.001090   0.000598   0.395198   0.474259  -0.026714   0.023344
    23  H    0.000484   0.000217   0.416957  -0.026714   0.505095  -0.011767
    24  C    0.004015   0.018450   0.150736   0.023344  -0.011767   4.864762
    25  O    0.015844  -0.003428  -0.110910  -0.000311  -0.002175   0.416951
    26  O   -0.000145   0.000763   0.003123  -0.006385  -0.004071   0.319383
              25         26
     1  N   -0.000030   0.000030
     2  H   -0.000004   0.000018
     3  C   -0.002320   0.004815
     4  H    0.000020  -0.000839
     5  H   -0.000005   0.000004
     6  C    0.011234  -0.012571
     7  H   -0.000231   0.000246
     8  H   -0.000016   0.000006
     9  C    0.021490   0.010646
    10  H   -0.000508   0.000074
    11  H    0.000104   0.000055
    12  N    0.081686   0.033819
    13  C   -0.054984   0.001125
    14  H    0.018413  -0.000349
    15  H    0.001366   0.000037
    16  H   -0.002864   0.000479
    17  C   -0.053716   0.002287
    18  H    0.001504  -0.000003
    19  H    0.015844  -0.000145
    20  H   -0.003428   0.000763
    21  C   -0.110910   0.003123
    22  H   -0.000311  -0.006385
    23  H   -0.002175  -0.004071
    24  C    0.416951   0.319383
    25  O    8.355875  -0.066012
    26  O   -0.066012   8.272246
          Atomic-Atomic Spin Densities.
               1          2          3          4          5          6
     1  N    1.002833   0.009519  -0.061036  -0.016815  -0.001245  -0.000491
     2  H    0.009519  -0.034971   0.009314  -0.000121  -0.000109  -0.005838
     3  C   -0.061036   0.009314   0.078449  -0.029232   0.011393   0.021489
     4  H   -0.016815  -0.000121  -0.029232   0.079326  -0.004740   0.003942
     5  H   -0.001245  -0.000109   0.011393  -0.004740   0.005763  -0.002032
     6  C   -0.000491  -0.005838   0.021489   0.003942  -0.002032   0.132708
     7  H   -0.001433  -0.000007   0.007637  -0.001542   0.000176  -0.001931
     8  H    0.001075   0.000424  -0.002869   0.000330  -0.000098  -0.003669
     9  C    0.030062  -0.000034  -0.121048   0.028219  -0.005857  -0.117982
    10  H    0.000153  -0.000010  -0.001382   0.000224  -0.000097  -0.000739
    11  H   -0.000402   0.000005   0.004192  -0.000244   0.000126   0.005071
    12  N   -0.001849   0.000333   0.010361  -0.001645   0.000639   0.001536
    13  C   -0.000277   0.000175   0.002970  -0.000568   0.000128   0.006013
    14  H   -0.000000  -0.000000  -0.000030   0.000002  -0.000000  -0.000062
    15  H   -0.000006   0.000000   0.000100  -0.000003   0.000000   0.000506
    16  H    0.000056  -0.000004  -0.000550   0.000044  -0.000003  -0.000298
    17  C    0.000149   0.000042  -0.003433   0.000714  -0.000028  -0.008965
    18  H   -0.000002  -0.000000   0.000081  -0.000005   0.000001   0.000475
    19  H   -0.000001   0.000000   0.000097  -0.000004   0.000000   0.000167
    20  H   -0.000004   0.000000   0.000126  -0.000019   0.000005   0.000316
    21  C   -0.001413  -0.000394   0.018261  -0.004010   0.000135   0.020388
    22  H   -0.000004   0.000001   0.001041  -0.000423   0.000021   0.000428
    23  H    0.000034   0.000040   0.001114  -0.000286   0.000025   0.000220
    24  C    0.000268  -0.000086  -0.013096   0.004945  -0.000325  -0.006966
    25  O   -0.000000   0.000000   0.000234  -0.000018   0.000001   0.000362
    26  O    0.000005   0.000001   0.000683  -0.000205   0.000004   0.000246
               7          8          9         10         11         12
     1  N   -0.001433   0.001075   0.030062   0.000153  -0.000402  -0.001849
     2  H   -0.000007   0.000424  -0.000034  -0.000010   0.000005   0.000333
     3  C    0.007637  -0.002869  -0.121048  -0.001382   0.004192   0.010361
     4  H   -0.001542   0.000330   0.028219   0.000224  -0.000244  -0.001645
     5  H    0.000176  -0.000098  -0.005857  -0.000097   0.000126   0.000639
     6  C   -0.001931  -0.003669  -0.117982  -0.000739   0.005071   0.001536
     7  H    0.000014   0.000094  -0.005580  -0.000037   0.000253   0.000884
     8  H    0.000094  -0.003516   0.007651  -0.000004  -0.000224  -0.000872
     9  C   -0.005580   0.007651   0.261380   0.002483  -0.013376  -0.012275
    10  H   -0.000037  -0.000004   0.002483   0.000185  -0.000138  -0.000332
    11  H    0.000253  -0.000224  -0.013376  -0.000138   0.002473   0.001819
    12  N    0.000884  -0.000872  -0.012275  -0.000332   0.001819   0.004133
    13  C    0.000187  -0.000126  -0.011266  -0.000044   0.000506  -0.000077
    14  H   -0.000002   0.000000   0.000180   0.000001  -0.000007   0.000016
    15  H   -0.000006  -0.000000  -0.001001  -0.000004   0.000066   0.000047
    16  H   -0.000099   0.000021   0.001399   0.000003  -0.000054  -0.000114
    17  C   -0.000035  -0.000007   0.016123   0.000310  -0.000895   0.000071
    18  H    0.000003  -0.000002  -0.000797  -0.000010   0.000089  -0.000025
    19  H    0.000002  -0.000000  -0.000535  -0.000006   0.000017  -0.000319
    20  H    0.000002  -0.000001  -0.000705  -0.000028   0.000041   0.000031
    21  C    0.001135  -0.000219  -0.060464  -0.000495   0.001971  -0.005746
    22  H    0.000019   0.000000  -0.002127  -0.000011   0.000021   0.000068
    23  H    0.000045   0.000003  -0.001663  -0.000015   0.000016   0.000199
    24  C   -0.000617   0.000114   0.031444   0.000351  -0.000797   0.004182
    25  O    0.000008  -0.000001  -0.001098  -0.000001   0.000012  -0.000620
    26  O    0.000011  -0.000000  -0.001148  -0.000003   0.000004  -0.000268
              13         14         15         16         17         18
     1  N   -0.000277  -0.000000  -0.000006   0.000056   0.000149  -0.000002
     2  H    0.000175  -0.000000   0.000000  -0.000004   0.000042  -0.000000
     3  C    0.002970  -0.000030   0.000100  -0.000550  -0.003433   0.000081
     4  H   -0.000568   0.000002  -0.000003   0.000044   0.000714  -0.000005
     5  H    0.000128  -0.000000   0.000000  -0.000003  -0.000028   0.000001
     6  C    0.006013  -0.000062   0.000506  -0.000298  -0.008965   0.000475
     7  H    0.000187  -0.000002  -0.000006  -0.000099  -0.000035   0.000003
     8  H   -0.000126   0.000000  -0.000000   0.000021  -0.000007  -0.000002
     9  C   -0.011266   0.000180  -0.001001   0.001399   0.016123  -0.000797
    10  H   -0.000044   0.000001  -0.000004   0.000003   0.000310  -0.000010
    11  H    0.000506  -0.000007   0.000066  -0.000054  -0.000895   0.000089
    12  N   -0.000077   0.000016   0.000047  -0.000114   0.000071  -0.000025
    13  C    0.000690  -0.000016   0.000114  -0.000209  -0.002131   0.000088
    14  H   -0.000016  -0.000004  -0.000002   0.000001   0.000052  -0.000003
    15  H    0.000114  -0.000002   0.000028  -0.000001  -0.000077   0.000009
    16  H   -0.000209   0.000001  -0.000001   0.000089   0.000052  -0.000003
    17  C   -0.002131   0.000052  -0.000077   0.000052   0.004122  -0.000303
    18  H    0.000088  -0.000003   0.000009  -0.000003  -0.000303   0.000038
    19  H    0.000129  -0.000011   0.000009  -0.000004  -0.000226   0.000035
    20  H    0.000066  -0.000001   0.000001  -0.000001  -0.000238   0.000011
    21  C    0.006736  -0.000179   0.000302  -0.000628  -0.008058   0.000510
    22  H    0.000128  -0.000002   0.000001  -0.000005  -0.000239   0.000002
    23  H   -0.000023  -0.000000  -0.000000  -0.000024  -0.000106   0.000000
    24  C   -0.003653   0.000071  -0.000078   0.000409   0.003612  -0.000161
    25  O    0.000148  -0.000012   0.000009  -0.000016  -0.000281   0.000010
    26  O    0.000126  -0.000003   0.000001  -0.000007  -0.000196   0.000002
              19         20         21         22         23         24
     1  N   -0.000001  -0.000004  -0.001413  -0.000004   0.000034   0.000268
     2  H    0.000000   0.000000  -0.000394   0.000001   0.000040  -0.000086
     3  C    0.000097   0.000126   0.018261   0.001041   0.001114  -0.013096
     4  H   -0.000004  -0.000019  -0.004010  -0.000423  -0.000286   0.004945
     5  H    0.000000   0.000005   0.000135   0.000021   0.000025  -0.000325
     6  C    0.000167   0.000316   0.020388   0.000428   0.000220  -0.006966
     7  H    0.000002   0.000002   0.001135   0.000019   0.000045  -0.000617
     8  H   -0.000000  -0.000001  -0.000219   0.000000   0.000003   0.000114
     9  C   -0.000535  -0.000705  -0.060464  -0.002127  -0.001663   0.031444
    10  H   -0.000006  -0.000028  -0.000495  -0.000011  -0.000015   0.000351
    11  H    0.000017   0.000041   0.001971   0.000021   0.000016  -0.000797
    12  N   -0.000319   0.000031  -0.005746   0.000068   0.000199   0.004182
    13  C    0.000129   0.000066   0.006736   0.000128  -0.000023  -0.003653
    14  H   -0.000011  -0.000001  -0.000179  -0.000002  -0.000000   0.000071
    15  H    0.000009   0.000001   0.000302   0.000001  -0.000000  -0.000078
    16  H   -0.000004  -0.000001  -0.000628  -0.000005  -0.000024   0.000409
    17  C   -0.000226  -0.000238  -0.008058  -0.000239  -0.000106   0.003612
    18  H    0.000035   0.000011   0.000510   0.000002   0.000000  -0.000161
    19  H    0.000143   0.000029   0.001193   0.000009   0.000005  -0.000708
    20  H    0.000029   0.000012   0.000623   0.000017   0.000000  -0.000298
    21  C    0.001193   0.000623   0.065737   0.002882   0.001465  -0.047955
    22  H    0.000009   0.000017   0.002882  -0.000018   0.000166  -0.002221
    23  H    0.000005   0.000000   0.001465   0.000166   0.000011  -0.001004
    24  C   -0.000708  -0.000298  -0.047955  -0.002221  -0.001004   0.040062
    25  O    0.000077   0.000017   0.003231   0.000029   0.000029  -0.002575
    26  O    0.000007   0.000006   0.002252   0.000080   0.000072  -0.002060
              25         26
     1  N   -0.000000   0.000005
     2  H    0.000000   0.000001
     3  C    0.000234   0.000683
     4  H   -0.000018  -0.000205
     5  H    0.000001   0.000004
     6  C    0.000362   0.000246
     7  H    0.000008   0.000011
     8  H   -0.000001  -0.000000
     9  C   -0.001098  -0.001148
    10  H   -0.000001  -0.000003
    11  H    0.000012   0.000004
    12  N   -0.000620  -0.000268
    13  C    0.000148   0.000126
    14  H   -0.000012  -0.000003
    15  H    0.000009   0.000001
    16  H   -0.000016  -0.000007
    17  C   -0.000281  -0.000196
    18  H    0.000010   0.000002
    19  H    0.000077   0.000007
    20  H    0.000017   0.000006
    21  C    0.003231   0.002252
    22  H    0.000029   0.000080
    23  H    0.000029   0.000072
    24  C   -0.002575  -0.002060
    25  O    0.000636   0.000070
    26  O    0.000070   0.000392
 Mulliken charges and spin densities:
               1          2
     1  N   -0.273263   0.959178
     2  H    0.170977  -0.021718
     3  C   -0.113294  -0.065135
     4  H    0.139421   0.057865
     5  H    0.114452   0.003883
     6  C   -0.277138   0.044895
     7  H    0.135483  -0.000821
     8  H    0.142652  -0.001896
     9  C   -0.128191   0.021987
    10  H    0.155356   0.000355
    11  H    0.158345   0.000544
    12  N   -0.248555   0.000175
    13  C   -0.213463  -0.000184
    14  H    0.209651  -0.000009
    15  H    0.136152   0.000016
    16  H    0.135500   0.000056
    17  C   -0.177343   0.000027
    18  H    0.133055   0.000047
    19  H    0.205589   0.000105
    20  H    0.146839   0.000009
    21  C   -0.037503  -0.002742
    22  H    0.168035  -0.000137
    23  H    0.153862   0.000324
    24  C    0.349140   0.002857
    25  O   -0.626976   0.000250
    26  O   -0.558781   0.000069
 Sum of Mulliken charges =  -0.00000   1.00000
 Mulliken charges and spin densities with hydrogens summed into heavy atoms:
               1          2
     1  N   -0.102286   0.937460
     3  C    0.140579  -0.003388
     6  C    0.000996   0.042178
     9  C    0.185511   0.022887
    12  N   -0.248555   0.000175
    13  C    0.267840  -0.000122
    17  C    0.308139   0.000188
    21  C    0.284394  -0.002556
    24  C    0.349140   0.002857
    25  O   -0.626976   0.000250
    26  O   -0.558781   0.000069
 APT charges:
               1
     1  N   -0.289037
     2  H    0.143626
     3  C    0.182583
     4  H    0.018243
     5  H   -0.028788
     6  C    0.030612
     7  H    0.001681
     8  H   -0.004750
     9  C    0.261326
    10  H    0.011722
    11  H   -0.024065
    12  N   -0.423517
    13  C    0.124166
    14  H    0.139073
    15  H    0.015562
    16  H    0.026423
    17  C    0.147286
    18  H    0.014533
    19  H    0.128310
    20  H    0.026516
    21  C    0.108841
    22  H    0.011940
    23  H    0.010074
    24  C    1.313893
    25  O   -0.981362
    26  O   -0.964889
 Sum of APT charges =  -0.00000
 APT charges with hydrogens summed into heavy atoms:
               1
     1  N   -0.145411
     3  C    0.172038
     6  C    0.027543
     9  C    0.248983
    12  N   -0.423517
    13  C    0.305224
    17  C    0.316644
    21  C    0.130855
    24  C    1.313893
    25  O   -0.981362
    26  O   -0.964889
 Electronic spatial extent (au):  <R**2>=           2223.0802
 Charge=              0.0000 electrons
 Dipole moment (field-independent basis, Debye):
    X=              6.6748    Y=             -8.4334    Z=             -0.0685  Tot=             10.7555
 Quadrupole moment (field-independent basis, Debye-Ang):
   XX=           -103.0428   YY=            -74.7276   ZZ=            -61.6851
   XY=              9.9104   XZ=              4.4395   YZ=              2.5027
 Traceless Quadrupole moment (field-independent basis, Debye-Ang):
   XX=            -23.2243   YY=              5.0909   ZZ=             18.1334
   XY=              9.9104   XZ=              4.4395   YZ=              2.5027
 Octapole moment (field-independent basis, Debye-Ang**2):
  XXX=             -3.2886  YYY=            -48.0182  ZZZ=              1.4395  XYY=             19.3562
  XXY=            -55.2754  XXZ=              0.0807  XZZ=              2.4082  YZZ=             -1.3276
  YYZ=              5.4692  XYZ=              3.1105
 Hexadecapole moment (field-independent basis, Debye-Ang**3):
 XXXX=          -2511.1716 YYYY=           -789.2693 ZZZZ=           -256.1093 XXXY=            -47.8892
 XXXZ=             57.4285 YYYX=             66.8215 YYYZ=             11.3822 ZZZX=              6.2971
 ZZZY=              4.4222 XXYY=           -515.5152 XXZZ=           -335.4564 YYZZ=           -161.2924
 XXYZ=             22.2593 YYXZ=              5.2806 ZZXY=             12.9364
 N-N= 6.693002706063D+02 E-N=-2.587896266317D+03  KE= 5.335603864605D+02
  Exact polarizability: 120.035   1.847 110.044   0.082  -0.820  90.795
 Approx polarizability: 116.551   2.574 121.214  -1.165  -1.682 107.262
                          Isotropic Fermi Contact Couplings
        Atom                 a.u.       MegaHertz       Gauss      10(-4) cm-1
     1  N(14)              0.09943      32.12605      11.46337      10.71610
     2  H(1)              -0.01404     -62.73786     -22.38643     -20.92710
     3  C(13)             -0.02871     -32.27025     -11.51483     -10.76420
     4  H(1)               0.03002     134.17150      47.87573      44.75479
     5  H(1)               0.00081       3.61402       1.28957       1.20551
     6  C(13)              0.04539      51.02207      18.20594      17.01913
     7  H(1)              -0.00067      -2.98028      -1.06344      -0.99411
     8  H(1)              -0.00087      -3.89918      -1.39132      -1.30063
     9  C(13)              0.00285       3.20763       1.14456       1.06995
    10  H(1)               0.00009       0.40218       0.14351       0.13415
    11  H(1)               0.00020       0.90105       0.32152       0.30056
    12  N(14)              0.00014       0.04419       0.01577       0.01474
    13  C(13)             -0.00003      -0.03721      -0.01328      -0.01241
    14  H(1)              -0.00000      -0.01473      -0.00526      -0.00491
    15  H(1)              -0.00000      -0.00244      -0.00087      -0.00082
    16  H(1)              -0.00000      -0.00227      -0.00081      -0.00076
    17  C(13)              0.00006       0.06765       0.02414       0.02256
    18  H(1)               0.00002       0.08475       0.03024       0.02827
    19  H(1)               0.00005       0.24337       0.08684       0.08118
    20  H(1)              -0.00000      -0.01764      -0.00629      -0.00588
    21  C(13)              0.00065       0.72664       0.25928       0.24238
    22  H(1)               0.00013       0.59193       0.21122       0.19745
    23  H(1)               0.00005       0.20185       0.07203       0.06733
    24  C(13)              0.00008       0.09532       0.03401       0.03180
    25  O(17)              0.00004      -0.02344      -0.00836      -0.00782
    26  O(17)              0.00002      -0.01139      -0.00407      -0.00380
 --------------------------------------------------------
       Center         ----  Spin Dipole Couplings  ----
                      3XX-RR        3YY-RR        3ZZ-RR
 --------------------------------------------------------
     1   Atom       -0.781086      1.499962     -0.718876
     2   Atom       -0.076173     -0.021191      0.097363
     3   Atom        0.012146      0.005197     -0.017343
     4   Atom        0.015422     -0.007650     -0.007772
     5   Atom       -0.007100     -0.003086      0.010186
     6   Atom       -0.001031      0.017339     -0.016308
     7   Atom        0.003525     -0.003954      0.000429
     8   Atom       -0.004096      0.013071     -0.008975
     9   Atom        0.001086      0.002310     -0.003396
    10   Atom        0.000210      0.000225     -0.000435
    11   Atom       -0.000112      0.002096     -0.001984
    12   Atom        0.003656     -0.001239     -0.002417
    13   Atom        0.001234     -0.000369     -0.000865
    14   Atom        0.000959     -0.000412     -0.000547
    15   Atom        0.000562      0.000110     -0.000672
    16   Atom        0.001340     -0.000771     -0.000569
    17   Atom        0.001058     -0.000324     -0.000734
    18   Atom        0.000464      0.000149     -0.000614
    19   Atom        0.000811     -0.000290     -0.000521
    20   Atom        0.000749     -0.000339     -0.000410
    21   Atom        0.004762     -0.002519     -0.002244
    22   Atom        0.003443     -0.002137     -0.001306
    23   Atom        0.005296     -0.002829     -0.002467
    24   Atom        0.001883     -0.000890     -0.000992
    25   Atom        0.002334     -0.001139     -0.001196
    26   Atom        0.001748     -0.000730     -0.001018
 --------------------------------------------------------
                        XY            XZ            YZ
 --------------------------------------------------------
     1   Atom       -0.869680      0.317961     -0.929366
     2   Atom       -0.036750     -0.047810      0.025175
     3   Atom        0.005047      0.023975      0.004085
     4   Atom       -0.002939      0.012802      0.000670
     5   Atom        0.005214      0.009768      0.011228
     6   Atom        0.039140     -0.019462     -0.027018
     7   Atom        0.006733     -0.008224     -0.003747
     8   Atom        0.005187      0.000903     -0.004700
     9   Atom        0.007397      0.004092      0.004106
    10   Atom        0.002897      0.002531      0.002298
    11   Atom        0.002462      0.000597      0.000417
    12   Atom        0.001434      0.000348     -0.000060
    13   Atom        0.001224     -0.000716     -0.000406
    14   Atom        0.000649     -0.000451     -0.000195
    15   Atom        0.001151     -0.000448     -0.000397
    16   Atom        0.001316     -0.001498     -0.000728
    17   Atom        0.000910      0.000617      0.000208
    18   Atom        0.000907      0.000287      0.000227
    19   Atom        0.000564      0.000192      0.000094
    20   Atom        0.000826      0.000780      0.000390
    21   Atom        0.001202     -0.000662     -0.000189
    22   Atom        0.000721      0.001837     -0.000033
    23   Atom        0.000414     -0.001413     -0.000003
    24   Atom       -0.000177     -0.000119      0.000035
    25   Atom       -0.000237     -0.000148     -0.000008
    26   Atom       -0.000660      0.000025     -0.000030
 --------------------------------------------------------


 ---------------------------------------------------------------------------------
              Anisotropic Spin Dipole Couplings in Principal Axis System
 ---------------------------------------------------------------------------------

       Atom             a.u.   MegaHertz   Gauss  10(-4) cm-1        Axes

              Baa    -1.0756   -41.482   -14.802   -13.837  0.9495  0.2541 -0.1844
     1 N(14)  Bbb    -1.0566   -40.749   -14.540   -13.593  0.0824  0.3651  0.9273
              Bcc     2.1321    82.231    29.342    27.429 -0.3029  0.8956 -0.3257
 
              Baa    -0.1002   -53.436   -19.067   -17.824  0.9129  0.3694  0.1739
     2 H(1)   Bbb    -0.0178    -9.520    -3.397    -3.175 -0.3020  0.8975 -0.3214
              Bcc     0.1180    62.956    22.464    21.000 -0.2748  0.2409  0.9308
 
              Baa    -0.0308    -4.130    -1.474    -1.378 -0.4846 -0.0313  0.8742
     3 C(13)  Bbb     0.0034     0.454     0.162     0.151 -0.2572  0.9603 -0.1082
              Bcc     0.0274     3.676     1.312     1.226  0.8361  0.2772  0.4734
 
              Baa    -0.0140    -7.457    -2.661    -2.487 -0.4066 -0.2809  0.8693
     4 H(1)   Bbb    -0.0073    -3.908    -1.394    -1.304 -0.0399  0.9561  0.2903
              Bcc     0.0213    11.365     4.055     3.791  0.9127 -0.0834  0.4000
 
              Baa    -0.0115    -6.140    -2.191    -2.048  0.9209 -0.0560 -0.3857
     5 H(1)   Bbb    -0.0095    -5.043    -1.799    -1.682 -0.1312  0.8873 -0.4421
              Bcc     0.0210    11.183     3.990     3.730  0.3670  0.4577  0.8098
 
              Baa    -0.0328    -4.408    -1.573    -1.470 -0.5661  0.6869  0.4559
     6 C(13)  Bbb    -0.0296    -3.968    -1.416    -1.323  0.5983 -0.0382  0.8004
              Bcc     0.0624     8.376     2.989     2.794  0.5672  0.7258 -0.3893
 
              Baa    -0.0082    -4.361    -1.556    -1.455 -0.6127  0.7461 -0.2607
     7 H(1)   Bbb    -0.0055    -2.910    -1.038    -0.971  0.3171  0.5342  0.7836
              Bcc     0.0136     7.271     2.594     2.425  0.7239  0.3974 -0.5639
 
              Baa    -0.0106    -5.658    -2.019    -1.887 -0.3276  0.2525  0.9104
     8 H(1)   Bbb    -0.0047    -2.495    -0.890    -0.832  0.9120 -0.1673  0.3746
              Bcc     0.0153     8.153     2.909     2.720  0.2469  0.9530 -0.1755
 
              Baa    -0.0059    -0.793    -0.283    -0.265  0.7147 -0.3371 -0.6128
     9 C(13)  Bbb    -0.0055    -0.735    -0.262    -0.245  0.2948 -0.6494  0.7010
              Bcc     0.0114     1.528     0.545     0.510  0.6342  0.6817  0.3648
 
              Baa    -0.0028    -1.474    -0.526    -0.492  0.7908 -0.4376 -0.4279
    10 H(1)   Bbb    -0.0024    -1.294    -0.462    -0.432  0.0284 -0.6722  0.7398
              Bcc     0.0052     2.768     0.988     0.923  0.6114  0.5972  0.5192
 
              Baa    -0.0022    -1.179    -0.421    -0.393 -0.4538  0.1747  0.8738
    11 H(1)   Bbb    -0.0016    -0.832    -0.297    -0.277  0.7053 -0.5290  0.4720
              Bcc     0.0038     2.011     0.718     0.671  0.5447  0.8305  0.1168
 
              Baa    -0.0025    -0.095    -0.034    -0.032 -0.0930  0.1578  0.9831
    12 N(14)  Bbb    -0.0016    -0.062    -0.022    -0.021 -0.2481  0.9525 -0.1763
              Bcc     0.0041     0.157     0.056     0.052  0.9643  0.2603  0.0494
 
              Baa    -0.0011    -0.147    -0.052    -0.049  0.1118  0.3344  0.9358
    13 C(13)  Bbb    -0.0010    -0.138    -0.049    -0.046 -0.5190  0.8227 -0.2320
              Bcc     0.0021     0.285     0.102     0.095  0.8475  0.4597 -0.2655
 
              Baa    -0.0007    -0.366    -0.131    -0.122 -0.0693  0.6813  0.7287
    14 H(1)   Bbb    -0.0007    -0.351    -0.125    -0.117 -0.4333  0.6374 -0.6371
              Bcc     0.0013     0.718     0.256     0.239  0.8986  0.3599 -0.2510
 
              Baa    -0.0009    -0.455    -0.163    -0.152 -0.3914  0.7094  0.5862
    15 H(1)   Bbb    -0.0008    -0.432    -0.154    -0.144  0.5379 -0.3404  0.7712
              Bcc     0.0017     0.887     0.317     0.296  0.7466  0.6172 -0.2483
 
              Baa    -0.0014    -0.751    -0.268    -0.250 -0.1847  0.8811  0.4354
    16 H(1)   Bbb    -0.0014    -0.741    -0.265    -0.247  0.5600 -0.2697  0.7833
              Bcc     0.0028     1.492     0.532     0.498  0.8076  0.3886 -0.4436
 
              Baa    -0.0009    -0.127    -0.045    -0.042 -0.4008  0.2955  0.8672
    17 C(13)  Bbb    -0.0007    -0.098    -0.035    -0.033 -0.2888  0.8575 -0.4257
              Bcc     0.0017     0.226     0.081     0.075  0.8695  0.4211  0.2584
 
              Baa    -0.0007    -0.366    -0.130    -0.122 -0.2365 -0.0075  0.9716
    18 H(1)   Bbb    -0.0006    -0.327    -0.117    -0.109 -0.6149  0.7754 -0.1437
              Bcc     0.0013     0.692     0.247     0.231  0.7523  0.6314  0.1880
 
              Baa    -0.0006    -0.296    -0.106    -0.099  0.0475 -0.4225  0.9051
    19 H(1)   Bbb    -0.0005    -0.278    -0.099    -0.093 -0.4051  0.8201  0.4041
              Bcc     0.0011     0.575     0.205     0.192  0.9130  0.3859  0.1322
 
              Baa    -0.0008    -0.433    -0.155    -0.145 -0.5734  0.4194  0.7038
    20 H(1)   Bbb    -0.0008    -0.407    -0.145    -0.136 -0.1344  0.7993 -0.5858
              Bcc     0.0016     0.841     0.300     0.280  0.8082  0.4304  0.4019
 
              Baa    -0.0027    -0.366    -0.131    -0.122 -0.1394  0.9722  0.1883
    21 C(13)  Bbb    -0.0023    -0.308    -0.110    -0.103  0.1210 -0.1720  0.9776
              Bcc     0.0050     0.674     0.240     0.225  0.9828  0.1591 -0.0937
 
              Baa    -0.0024    -1.263    -0.451    -0.421 -0.2514  0.8509  0.4612
    22 H(1)   Bbb    -0.0018    -0.947    -0.338    -0.316 -0.2207 -0.5144  0.8287
              Bcc     0.0041     2.210     0.789     0.737  0.9424  0.1065  0.3171
 
              Baa    -0.0029    -1.536    -0.548    -0.512 -0.1120  0.9187 -0.3786
    23 H(1)   Bbb    -0.0027    -1.434    -0.512    -0.478  0.1406  0.3919  0.9092
              Bcc     0.0056     2.969     1.059     0.990  0.9837  0.0486 -0.1730
 
              Baa    -0.0010    -0.135    -0.048    -0.045  0.0242 -0.2560  0.9664
    24 C(13)  Bbb    -0.0009    -0.120    -0.043    -0.040  0.0725  0.9646  0.2537
              Bcc     0.0019     0.255     0.091     0.085  0.9971 -0.0639 -0.0419
 
              Baa    -0.0012     0.087     0.031     0.029  0.0609  0.3174  0.9463
    25 O(17)  Bbb    -0.0011     0.083     0.030     0.028  0.0507  0.9459 -0.3205
              Bcc     0.0024    -0.171    -0.061    -0.057  0.9969 -0.0675 -0.0415
 
              Baa    -0.0010     0.074     0.026     0.025  0.0333  0.1777  0.9835
    26 O(17)  Bbb    -0.0009     0.064     0.023     0.021  0.2403  0.9538 -0.1805
              Bcc     0.0019    -0.138    -0.049    -0.046  0.9701 -0.2423  0.0109
 

 ---------------------------------------------------------------------------------

 Calling FoFJK, ICntrl=    100127 FMM=F ISym2X=0 I1Cent= 0 IOpClX= 1 NMat=1 NMatS=1 NMatT=0.
 Full mass-weighted force constant matrix:
 Low frequencies ---   -3.4311    0.0004    0.0006    0.0007    7.6478   13.9146
 Low frequencies ---   58.5307   74.7873   77.1394
 Diagonal vibrational polarizability:
       31.8414295     106.3183665      69.1341448
 Harmonic frequencies (cm**-1), IR intensities (KM/Mole), Raman scattering
 activities (A**4/AMU), depolarization ratios for plane and unpolarized
 incident light, reduced masses (AMU), force constants (mDyne/A),
 and normal coordinates:
                      1                      2                      3
                      A                      A                      A
 Frequencies --     58.4982                74.7838                77.1338
 Red. masses --      5.0035                 3.3797                 2.7345
 Frc consts  --      0.0101                 0.0111                 0.0096
 IR Inten    --      1.1690                 9.1386                12.5745
  Atom  AN      X      Y      Z        X      Y      Z        X      Y      Z
     1   7    -0.09   0.10  -0.07     0.24  -0.17  -0.14     0.10  -0.09   0.07
     2   1    -0.23   0.32  -0.17     0.55  -0.36   0.01    -0.13   0.25  -0.09
     3   6     0.02  -0.08  -0.09    -0.03   0.09   0.06     0.20  -0.13  -0.06
     4   1     0.00  -0.15  -0.33     0.05   0.23   0.36     0.26  -0.14  -0.35
     5   1     0.16  -0.25   0.02    -0.32   0.20  -0.08     0.39  -0.34   0.08
     6   6    -0.02   0.04   0.05     0.01   0.06   0.04    -0.02   0.05   0.03
     7   1    -0.08   0.19  -0.02     0.04   0.02   0.07    -0.13   0.25  -0.08
     8   1    -0.04   0.07   0.21     0.03   0.06  -0.03    -0.13   0.00   0.27
     9   6     0.01  -0.04   0.08     0.01   0.05   0.05    -0.00   0.09  -0.04
    10   1     0.05  -0.13   0.07     0.02   0.03   0.05     0.00   0.17  -0.03
    11   1     0.02  -0.03   0.17     0.02   0.05   0.07     0.01   0.08  -0.13
    12   7    -0.00  -0.03   0.00    -0.01   0.03   0.02    -0.00   0.05  -0.02
    13   6    -0.06   0.06   0.01    -0.03   0.04   0.02     0.03   0.05  -0.01
    14   1    -0.07   0.03  -0.05    -0.04   0.01  -0.01     0.02  -0.02  -0.01
    15   1    -0.02   0.07   0.10     0.00   0.04   0.04     0.11   0.06   0.00
    16   1    -0.11   0.13   0.01    -0.05   0.06   0.03    -0.00   0.10  -0.02
    17   6     0.04  -0.08   0.01     0.04  -0.00   0.01     0.00   0.01  -0.00
    18   1     0.01  -0.08   0.11     0.07   0.00   0.02     0.02   0.02   0.03
    19   1     0.03  -0.03  -0.07     0.02  -0.03  -0.02     0.00   0.00  -0.00
    20   1     0.10  -0.18  -0.01     0.05  -0.01   0.01    -0.00  -0.01  -0.01
    21   6    -0.00  -0.03  -0.07    -0.04   0.02   0.02    -0.06   0.04  -0.04
    22   1    -0.07  -0.10  -0.11    -0.01   0.03   0.03    -0.11   0.03  -0.06
    23   1     0.06   0.01  -0.16    -0.07   0.03   0.04    -0.04   0.09  -0.09
    24   6     0.03   0.01   0.01    -0.06  -0.02  -0.02    -0.07  -0.02   0.02
    25   8    -0.05  -0.02  -0.27    -0.07  -0.07  -0.14    -0.02  -0.05   0.05
    26   8     0.13   0.07   0.34    -0.08  -0.01   0.08    -0.14  -0.02   0.01
                      4                      5                      6
                      A                      A                      A
 Frequencies --     94.8810               156.3046               178.9082
 Red. masses --      2.5712                 3.3494                 2.0589
 Frc consts  --      0.0136                 0.0482                 0.0388
 IR Inten    --      1.8078                 5.6593                45.9222
  Atom  AN      X      Y      Z        X      Y      Z        X      Y      Z
     1   7     0.01   0.04  -0.14     0.05  -0.01  -0.05     0.03  -0.18   0.08
     2   1     0.01   0.17  -0.18     0.17  -0.06   0.00    -0.34   0.77  -0.29
     3   6     0.02  -0.06  -0.06    -0.04   0.05   0.05    -0.06   0.12  -0.06
     4   1     0.02  -0.08  -0.18     0.02   0.11   0.06    -0.05   0.13   0.01
     5   1     0.03  -0.20  -0.00    -0.13  -0.01   0.04    -0.07   0.08  -0.04
     6   6    -0.02   0.06   0.09    -0.09   0.12   0.11    -0.03   0.10  -0.04
     7   1    -0.06   0.19   0.02    -0.21   0.21   0.04    -0.04   0.10  -0.04
     8   1    -0.03   0.08   0.22    -0.10   0.16   0.28     0.01   0.15  -0.03
     9   6     0.01  -0.01   0.11     0.02  -0.00   0.06     0.00   0.02  -0.01
    10   1     0.05  -0.07   0.10     0.11  -0.06   0.06    -0.03   0.00  -0.02
    11   1     0.02  -0.00   0.17     0.06   0.01   0.14     0.06   0.03   0.02
    12   7    -0.00  -0.01   0.04    -0.02  -0.04  -0.08    -0.00  -0.03   0.01
    13   6    -0.10  -0.14  -0.03    -0.10  -0.01  -0.08     0.02  -0.05   0.01
    14   1    -0.07  -0.02  -0.02    -0.14  -0.10  -0.18     0.03  -0.02   0.04
    15   1    -0.25  -0.17  -0.16     0.02   0.01  -0.02    -0.03  -0.06  -0.03
    16   1    -0.03  -0.32   0.05    -0.22   0.10  -0.06     0.06  -0.10   0.01
    17   6     0.05   0.11  -0.10     0.04  -0.08  -0.10    -0.01  -0.03   0.02
    18   1     0.08   0.11  -0.26    -0.05  -0.09   0.03     0.03  -0.03  -0.01
    19   1     0.03   0.04  -0.10     0.03   0.00  -0.23    -0.01  -0.07   0.06
    20   1     0.07   0.28  -0.04     0.17  -0.21  -0.12    -0.05   0.00   0.02
    21   6     0.03   0.01   0.16    -0.03  -0.06  -0.18     0.00  -0.03   0.03
    22   1     0.15   0.10   0.22    -0.17  -0.15  -0.25     0.03  -0.02   0.04
    23   1    -0.05  -0.05   0.28     0.09  -0.00  -0.32    -0.01  -0.04   0.04
    24   6     0.00  -0.00   0.01     0.04   0.00   0.04     0.02  -0.00  -0.01
    25   8    -0.00   0.00   0.00     0.07   0.04   0.21    -0.01   0.02  -0.01
    26   8    -0.00  -0.01  -0.06     0.06  -0.00   0.02     0.06  -0.00  -0.01
                      7                      8                      9
                      A                      A                      A
 Frequencies --    200.3568               256.0112               265.3992
 Red. masses --      2.7579                 1.2769                 3.0840
 Frc consts  --      0.0652                 0.0493                 0.1280
 IR Inten    --     26.3502                 1.4482                 3.4480
  Atom  AN      X      Y      Z        X      Y      Z        X      Y      Z
     1   7    -0.06  -0.09  -0.01    -0.00   0.00  -0.04    -0.07  -0.05  -0.03
     2   1    -0.23   0.44  -0.20    -0.03   0.21  -0.10     0.02  -0.18   0.03
     3   6    -0.10  -0.02  -0.01    -0.02  -0.02   0.02    -0.09  -0.03   0.02
     4   1    -0.17  -0.08   0.09    -0.06  -0.06   0.05    -0.04   0.01  -0.03
     5   1    -0.14  -0.01  -0.03    -0.05  -0.04   0.01    -0.12  -0.09   0.03
     6   6     0.07  -0.10   0.01     0.03  -0.04   0.03    -0.16   0.05   0.06
     7   1     0.18  -0.21   0.09     0.04  -0.09   0.05    -0.28   0.15  -0.02
     8   1     0.13  -0.09  -0.17     0.03  -0.06  -0.03    -0.19   0.07   0.23
     9   6     0.03  -0.08   0.08     0.02   0.03  -0.02    -0.07   0.05  -0.04
    10   1     0.10  -0.24   0.07     0.01   0.15  -0.00    -0.07   0.18  -0.03
    11   1    -0.08  -0.06   0.24     0.01   0.01  -0.15    -0.04   0.04  -0.16
    12   7     0.04   0.07  -0.02     0.01  -0.01   0.01    -0.03   0.04   0.01
    13   6    -0.04   0.14  -0.01     0.02  -0.05  -0.01     0.06   0.01   0.03
    14   1    -0.05   0.15  -0.09    -0.10  -0.44  -0.13    -0.02  -0.31  -0.00
    15   1    -0.03   0.15   0.06     0.46   0.03   0.10     0.43   0.07   0.09
    16   1    -0.08   0.20  -0.02    -0.30   0.29   0.04    -0.14   0.26   0.02
    17   6     0.08   0.09  -0.08     0.03   0.00  -0.01    -0.07   0.06   0.03
    18   1     0.05   0.09  -0.06    -0.16  -0.02   0.18     0.02   0.07  -0.07
    19   1     0.07   0.11  -0.15     0.03   0.20  -0.18    -0.06  -0.02   0.12
    20   1     0.18   0.08  -0.06     0.23  -0.19  -0.03    -0.17   0.16   0.04
    21   6     0.04   0.07  -0.05    -0.02  -0.00   0.05     0.09   0.05   0.03
    22   1     0.00   0.07  -0.06     0.00   0.03   0.07     0.15   0.05   0.04
    23   1     0.05   0.09  -0.07    -0.04  -0.02   0.08     0.07   0.01   0.07
    24   6     0.00  -0.01   0.01    -0.03   0.01   0.01     0.12  -0.02  -0.03
    25   8     0.08  -0.08   0.04    -0.06   0.04  -0.00     0.20  -0.12  -0.07
    26   8    -0.12  -0.01   0.03     0.02   0.01  -0.03     0.00  -0.02  -0.00
                     10                     11                     12
                      A                      A                      A
 Frequencies --    301.3709               317.2260               336.2989
 Red. masses --      2.1676                 1.1094                 2.5830
 Frc consts  --      0.1160                 0.0658                 0.1721
 IR Inten    --      1.1424                 1.0176                 5.7584
  Atom  AN      X      Y      Z        X      Y      Z        X      Y      Z
     1   7    -0.02  -0.00  -0.09    -0.02  -0.01  -0.00     0.10   0.10  -0.04
     2   1     0.03   0.30  -0.15    -0.00  -0.05   0.01     0.04   0.57  -0.18
     3   6    -0.09  -0.07   0.11    -0.02  -0.00  -0.00     0.06   0.02   0.07
     4   1    -0.14  -0.12   0.16    -0.01   0.01  -0.00     0.01  -0.03   0.13
     5   1    -0.19  -0.12   0.09    -0.02  -0.01   0.00     0.02   0.01   0.06
     6   6    -0.02  -0.07   0.15    -0.03   0.01   0.01     0.07  -0.07   0.02
     7   1    -0.09  -0.08   0.13    -0.06   0.04  -0.01     0.19  -0.22   0.12
     8   1    -0.03  -0.07   0.17    -0.03   0.03   0.06     0.04  -0.17  -0.20
     9   6     0.03   0.04  -0.04    -0.00   0.01  -0.01    -0.06   0.08  -0.03
    10   1     0.09   0.24  -0.00     0.01   0.04  -0.01    -0.10   0.24  -0.01
    11   1     0.02   0.01  -0.23     0.00   0.00  -0.04    -0.05   0.05  -0.20
    12   7     0.04   0.01  -0.03     0.01   0.01  -0.00    -0.08  -0.00   0.02
    13   6     0.14  -0.02  -0.03     0.04  -0.02  -0.00    -0.16  -0.05  -0.01
    14   1     0.22   0.16   0.14     0.11   0.19   0.10    -0.15   0.01  -0.05
    15   1    -0.07  -0.06  -0.14    -0.21  -0.07  -0.11    -0.23  -0.07  -0.08
    16   1     0.35  -0.23  -0.07     0.23  -0.24  -0.02    -0.15  -0.14   0.05
    17   6     0.02  -0.02   0.01    -0.01   0.01   0.02    -0.09  -0.07   0.05
    18   1     0.19  -0.00  -0.13    -0.37  -0.03   0.39    -0.05  -0.06   0.12
    19   1     0.02  -0.18   0.17     0.01   0.38  -0.25    -0.08  -0.08   0.07
    20   1    -0.17   0.12   0.02     0.32  -0.38  -0.04    -0.13  -0.13   0.02
    21   6    -0.03   0.01  -0.06     0.02   0.02   0.01     0.01   0.01  -0.03
    22   1    -0.08  -0.01  -0.08     0.04   0.03   0.02     0.03  -0.04  -0.03
    23   1    -0.02   0.05  -0.10     0.01   0.01   0.03     0.06  -0.03  -0.04
    24   6    -0.03   0.03  -0.01     0.01   0.01  -0.00     0.06   0.02  -0.02
    25   8    -0.04   0.04  -0.00     0.03  -0.02  -0.02     0.13  -0.05  -0.02
    26   8    -0.00   0.03   0.01    -0.03   0.01   0.00    -0.04   0.02   0.01
                     13                     14                     15
                      A                      A                      A
 Frequencies --    351.3115               371.3293               427.3476
 Red. masses --      3.8339                 2.3059                 2.1572
 Frc consts  --      0.2788                 0.1873                 0.2321
 IR Inten    --     12.9722                 0.6059                 0.4111
  Atom  AN      X      Y      Z        X      Y      Z        X      Y      Z
     1   7     0.07   0.06  -0.03    -0.05  -0.04  -0.01    -0.05  -0.04   0.01
     2   1     0.06   0.33  -0.10    -0.03  -0.14   0.02    -0.05  -0.18   0.04
     3   6     0.02   0.01   0.07    -0.03  -0.03  -0.02    -0.02  -0.01  -0.04
     4   1     0.01   0.00   0.08    -0.04  -0.04  -0.03    -0.03  -0.02  -0.04
     5   1    -0.01  -0.01   0.06    -0.03  -0.04  -0.02    -0.00   0.01  -0.04
     6   6    -0.00  -0.01   0.05    -0.03  -0.01  -0.02     0.04  -0.01  -0.02
     7   1    -0.03  -0.03   0.04    -0.04  -0.01  -0.02     0.15  -0.03   0.03
     8   1    -0.02  -0.03   0.05    -0.06  -0.04  -0.02     0.03  -0.05  -0.14
     9   6    -0.01   0.02  -0.04    -0.02   0.11  -0.09    -0.04   0.10   0.03
    10   1    -0.00   0.11  -0.02    -0.09   0.37  -0.06    -0.12   0.26   0.05
    11   1     0.00   0.00  -0.13     0.01   0.07  -0.35    -0.02   0.08  -0.14
    12   7    -0.00  -0.00  -0.02    -0.00   0.02   0.01    -0.01   0.03   0.12
    13   6    -0.00   0.17   0.02    -0.11   0.13   0.02    -0.03  -0.10   0.10
    14   1     0.03   0.30   0.02    -0.07   0.33  -0.07    -0.03  -0.13   0.13
    15   1    -0.13   0.16   0.15    -0.31   0.10   0.09    -0.03  -0.11  -0.05
    16   1     0.08   0.18  -0.07    -0.04   0.06   0.01    -0.01  -0.20   0.16
    17   6    -0.15   0.19  -0.04     0.16  -0.11  -0.03     0.09   0.11   0.00
    18   1    -0.40   0.14  -0.07     0.30  -0.08   0.03     0.05   0.10  -0.08
    19   1    -0.09   0.41  -0.03     0.09  -0.25  -0.15     0.06   0.11  -0.11
    20   1    -0.06   0.18  -0.03     0.21  -0.13  -0.03     0.21   0.19   0.06
    21   6    -0.00  -0.08  -0.01     0.00   0.00   0.10    -0.06  -0.02  -0.12
    22   1    -0.07  -0.03  -0.01     0.07   0.12   0.15    -0.29  -0.29  -0.27
    23   1    -0.03  -0.03  -0.02    -0.06  -0.07   0.20     0.10   0.20  -0.41
    24   6     0.02  -0.18   0.02     0.02  -0.03   0.03     0.01  -0.02  -0.01
    25   8    -0.10  -0.06   0.02    -0.01  -0.01   0.03     0.00  -0.02  -0.01
    26   8     0.18  -0.18  -0.02     0.07  -0.03  -0.01     0.05  -0.02  -0.01
                     16                     17                     18
                      A                      A                      A
 Frequencies --    469.3816               516.4319               562.2636
 Red. masses --      2.5748                 2.7384                 2.6576
 Frc consts  --      0.3342                 0.4303                 0.4950
 IR Inten    --      3.9547                 0.4606                 1.9535
  Atom  AN      X      Y      Z        X      Y      Z        X      Y      Z
     1   7    -0.05  -0.05  -0.00    -0.03  -0.02   0.01    -0.09  -0.07   0.01
     2   1    -0.04  -0.17   0.03    -0.04  -0.12   0.03    -0.12  -0.31   0.06
     3   6    -0.04  -0.01  -0.03     0.00  -0.02  -0.02    -0.02  -0.01  -0.07
     4   1    -0.06  -0.03  -0.02     0.00  -0.04  -0.06    -0.08  -0.07  -0.09
     5   1    -0.05  -0.01  -0.03     0.02  -0.06  -0.00    -0.01  -0.04  -0.06
     6   6     0.04   0.01   0.02     0.05   0.01   0.03     0.17   0.06   0.10
     7   1    -0.09   0.06  -0.04     0.32  -0.05   0.15     0.36   0.09   0.16
     8   1     0.07   0.08   0.14     0.03  -0.09  -0.25     0.21   0.05  -0.06
     9   6     0.12   0.01  -0.05    -0.08   0.10   0.14     0.10   0.12   0.08
    10   1     0.12   0.07  -0.04     0.05  -0.13   0.12     0.13   0.36   0.12
    11   1     0.10  -0.00  -0.10    -0.18   0.13   0.35     0.20   0.09  -0.17
    12   7     0.14   0.06  -0.02    -0.08   0.15  -0.07    -0.02  -0.09  -0.03
    13   6    -0.13  -0.03  -0.12     0.06  -0.02  -0.13    -0.00   0.03   0.01
    14   1    -0.18  -0.04  -0.38     0.07  -0.15   0.07     0.01   0.09   0.02
    15   1    -0.18  -0.05  -0.21     0.17  -0.01  -0.32    -0.02   0.04   0.15
    16   1    -0.32  -0.12   0.12     0.12  -0.09  -0.13     0.04   0.12  -0.10
    17   6    -0.02   0.05   0.19    -0.03  -0.06   0.02    -0.13  -0.03  -0.07
    18   1    -0.04   0.05   0.25     0.11  -0.02   0.21    -0.24  -0.05  -0.15
    19   1     0.04   0.09   0.41    -0.05  -0.15   0.02    -0.08   0.08   0.03
    20   1    -0.26  -0.05   0.11    -0.09  -0.22  -0.04    -0.17   0.04  -0.06
    21   6     0.06   0.05  -0.03    -0.07   0.10   0.01    -0.00  -0.09   0.00
    22   1    -0.04   0.05  -0.06    -0.04   0.22   0.06     0.15  -0.03   0.07
    23   1     0.04   0.13  -0.07    -0.14   0.05   0.11    -0.05  -0.18   0.12
    24   6    -0.00  -0.04   0.01     0.00  -0.06   0.00     0.01   0.02  -0.04
    25   8    -0.04  -0.00   0.00    -0.01  -0.05   0.02     0.04   0.02   0.00
    26   8     0.01  -0.04   0.00     0.13  -0.05  -0.02    -0.05   0.03   0.02
                     19                     20                     21
                      A                      A                      A
 Frequencies --    610.7295               703.3025               759.2219
 Red. masses --      2.6709                 3.1940                 1.8528
 Frc consts  --      0.5870                 0.9308                 0.6292
 IR Inten    --      2.7150                34.8992                10.9933
  Atom  AN      X      Y      Z        X      Y      Z        X      Y      Z
     1   7    -0.01  -0.01   0.00     0.01   0.00  -0.01    -0.01   0.01   0.01
     2   1     0.00  -0.03   0.01     0.06   0.01   0.01    -0.13   0.00  -0.03
     3   6    -0.01   0.01  -0.00    -0.02   0.00   0.02     0.04  -0.01  -0.04
     4   1    -0.00   0.00  -0.04     0.14   0.09  -0.27    -0.14  -0.08   0.40
     5   1    -0.00  -0.02   0.01     0.09  -0.23   0.13    -0.14   0.34  -0.22
     6   6     0.01   0.01   0.02    -0.10   0.04   0.00     0.09  -0.05   0.00
     7   1     0.06  -0.01   0.05     0.24  -0.26   0.23    -0.13   0.35  -0.22
     8   1     0.03   0.01  -0.03    -0.06  -0.06  -0.47    -0.03  -0.03   0.46
     9   6     0.01   0.01   0.01    -0.11   0.07   0.05    -0.01  -0.01   0.01
    10   1     0.04   0.00   0.01    -0.07   0.07   0.06    -0.05   0.05   0.02
    11   1     0.02   0.01   0.02    -0.04   0.08   0.05    -0.07  -0.02  -0.07
    12   7    -0.01  -0.01  -0.03     0.02  -0.00  -0.01    -0.05   0.06   0.01
    13   6     0.01   0.02  -0.04     0.03   0.00  -0.04    -0.01  -0.02   0.05
    14   1     0.02   0.05  -0.02     0.02  -0.01  -0.04    -0.01  -0.10   0.16
    15   1    -0.01   0.02   0.01     0.05   0.00  -0.08     0.07  -0.01  -0.06
    16   1     0.04   0.04  -0.07     0.02  -0.00  -0.04     0.04  -0.05   0.04
    17   6    -0.04  -0.04  -0.04     0.04   0.01   0.02    -0.04  -0.05  -0.06
    18   1    -0.01  -0.03  -0.02     0.06   0.01   0.03     0.07  -0.02   0.01
    19   1    -0.04  -0.06  -0.02     0.03   0.00   0.04    -0.08  -0.13  -0.11
    20   1    -0.07  -0.04  -0.04     0.02   0.00   0.02    -0.01  -0.08  -0.06
    21   6     0.03   0.01   0.10     0.24  -0.08  -0.05     0.10   0.07  -0.03
    22   1    -0.59  -0.13  -0.13     0.31  -0.11  -0.04     0.11   0.06  -0.04
    23   1     0.54   0.03  -0.38     0.25  -0.13  -0.03     0.09   0.07  -0.02
    24   6     0.08   0.06   0.30     0.09  -0.07  -0.03     0.07  -0.06  -0.00
    25   8    -0.02  -0.01  -0.10    -0.10   0.15   0.00    -0.05   0.08  -0.00
    26   8    -0.03  -0.02  -0.10    -0.12  -0.10   0.05    -0.04  -0.07   0.02
                     22                     23                     24
                      A                      A                      A
 Frequencies --    799.9225               864.2260               886.9292
 Red. masses --      2.6001                 3.1383                 2.9093
 Frc consts  --      0.9802                 1.3810                 1.3484
 IR Inten    --      1.2390                60.4477                50.3754
  Atom  AN      X      Y      Z        X      Y      Z        X      Y      Z
     1   7     0.00  -0.01  -0.01    -0.04  -0.02  -0.02    -0.05  -0.00  -0.02
     2   1     0.12  -0.03   0.03     0.09   0.06  -0.01    -0.08   0.08  -0.05
     3   6    -0.05   0.03   0.03    -0.01  -0.09   0.11     0.05  -0.13   0.08
     4   1     0.10   0.08  -0.39    -0.04  -0.12   0.06    -0.00  -0.09   0.42
     5   1     0.13  -0.29   0.20    -0.03  -0.12   0.12    -0.18   0.11  -0.07
     6   6    -0.02   0.04   0.03     0.03   0.05  -0.08    -0.03   0.06  -0.10
     7   1     0.03  -0.27   0.15    -0.12  -0.07  -0.09     0.04   0.09  -0.08
     8   1     0.15   0.14  -0.24    -0.02   0.00  -0.04    -0.21  -0.15  -0.11
     9   6     0.09  -0.05  -0.06     0.12   0.12  -0.10    -0.02   0.17   0.00
    10   1     0.13  -0.00  -0.05     0.14  -0.48  -0.19     0.00  -0.26  -0.06
    11   1     0.13  -0.06  -0.08     0.07   0.22   0.52     0.12   0.24   0.41
    12   7     0.02   0.02  -0.01    -0.01   0.06  -0.03     0.08  -0.02  -0.03
    13   6    -0.03  -0.05   0.17    -0.02  -0.02   0.09    -0.00  -0.03   0.08
    14   1    -0.04  -0.06   0.15    -0.03  -0.00   0.02    -0.02   0.03  -0.08
    15   1    -0.04  -0.06   0.13    -0.03  -0.02   0.05    -0.07  -0.04   0.11
    16   1    -0.04  -0.08   0.21    -0.04  -0.03   0.12    -0.08  -0.02   0.14
    17   6    -0.09  -0.08  -0.10    -0.01   0.01  -0.02    -0.03  -0.03  -0.05
    18   1    -0.05  -0.07  -0.07     0.01   0.02   0.04    -0.12  -0.05  -0.05
    19   1    -0.09  -0.10  -0.10    -0.01   0.01  -0.01     0.02   0.07   0.06
    20   1    -0.09  -0.10  -0.11    -0.03  -0.03  -0.03    -0.11  -0.04  -0.07
    21   6     0.05   0.23  -0.04    -0.16  -0.07   0.04     0.16  -0.02  -0.04
    22   1     0.03   0.24  -0.05    -0.21   0.02   0.06     0.23  -0.03  -0.03
    23   1     0.02   0.24  -0.01    -0.19  -0.02   0.03     0.17  -0.06  -0.02
    24   6    -0.02  -0.03  -0.01     0.17  -0.05  -0.02    -0.14   0.06   0.04
    25   8    -0.04  -0.01   0.02     0.06   0.12  -0.04    -0.05  -0.11   0.03
    26   8     0.04  -0.02   0.00    -0.07  -0.07   0.03     0.05   0.07  -0.03
                     25                     26                     27
                      A                      A                      A
 Frequencies --    923.9576               962.4894               991.8824
 Red. masses --      2.6302                 2.6339                 3.0236
 Frc consts  --      1.3229                 1.4376                 1.7527
 IR Inten    --     12.1428                14.3087                22.2981
  Atom  AN      X      Y      Z        X      Y      Z        X      Y      Z
     1   7     0.00   0.02   0.01     0.00   0.01   0.00     0.05   0.03   0.02
     2   1    -0.14   0.01  -0.04    -0.12  -0.05  -0.02    -0.21  -0.13  -0.02
     3   6     0.05  -0.04  -0.03     0.03   0.01  -0.04     0.02   0.10  -0.14
     4   1     0.05   0.04   0.26     0.04   0.05   0.08    -0.00   0.09  -0.06
     5   1    -0.11   0.17  -0.15    -0.04   0.05  -0.08    -0.03   0.11  -0.16
     6   6    -0.08  -0.01  -0.02    -0.03  -0.01   0.05    -0.09  -0.12   0.11
     7   1     0.13   0.05   0.03     0.10  -0.01   0.09    -0.08  -0.16   0.12
     8   1    -0.17  -0.14  -0.13    -0.04  -0.05  -0.06    -0.13  -0.18   0.02
     9   6    -0.08   0.03   0.09    -0.01  -0.01  -0.01    -0.03   0.03   0.02
    10   1    -0.04   0.12   0.11     0.13   0.02   0.01     0.23  -0.01   0.03
    11   1     0.07   0.01  -0.04    -0.03  -0.02  -0.06    -0.30   0.02   0.03
    12   7     0.14  -0.15   0.01    -0.03  -0.03  -0.13     0.14   0.14  -0.06
    13   6     0.04  -0.02  -0.03    -0.05  -0.04   0.11     0.03  -0.01   0.13
    14   1     0.04   0.16  -0.30    -0.04  -0.07   0.22    -0.03   0.01  -0.19
    15   1    -0.13  -0.03   0.25     0.03  -0.03   0.09    -0.08  -0.03  -0.07
    16   1    -0.08   0.08   0.00     0.07  -0.01  -0.02    -0.17  -0.13   0.41
    17   6     0.01  -0.05  -0.02     0.10   0.06   0.07    -0.04  -0.03  -0.11
    18   1    -0.28  -0.12  -0.21    -0.02   0.04   0.05     0.00  -0.00   0.10
    19   1     0.11   0.21   0.17     0.13   0.13   0.17     0.02  -0.00   0.13
    20   1    -0.08   0.09   0.01    -0.06   0.03   0.03    -0.26  -0.19  -0.21
    21   6    -0.11   0.18   0.01    -0.05  -0.01  -0.18    -0.02  -0.15   0.05
    22   1    -0.19   0.17  -0.01     0.35   0.43   0.06    -0.16  -0.04   0.04
    23   1    -0.15   0.23   0.00    -0.29  -0.37   0.30    -0.04   0.01  -0.04
    24   6     0.08  -0.04  -0.02     0.05   0.03   0.19    -0.00   0.01  -0.03
    25   8     0.03   0.06  -0.02    -0.01  -0.00  -0.05     0.02   0.00   0.00
    26   8    -0.02  -0.05   0.01    -0.01  -0.01  -0.04    -0.01   0.02   0.00
                     28                     29                     30
                      A                      A                      A
 Frequencies --   1014.2521              1034.4620              1065.2583
 Red. masses --      1.7853                 1.8801                 1.9291
 Frc consts  --      1.0820                 1.1854                 1.2898
 IR Inten    --      6.0020                10.7984                 7.5879
  Atom  AN      X      Y      Z        X      Y      Z        X      Y      Z
     1   7    -0.04  -0.00  -0.02    -0.04  -0.00  -0.02    -0.01  -0.01  -0.01
     2   1    -0.36  -0.10  -0.10    -0.22  -0.02  -0.08    -0.18  -0.14  -0.03
     3   6     0.11  -0.02  -0.02     0.08  -0.04   0.02     0.04   0.08  -0.05
     4   1     0.25   0.22   0.32     0.28   0.23   0.23    -0.04  -0.00  -0.05
     5   1    -0.23   0.08  -0.17    -0.15   0.02  -0.08    -0.03  -0.04  -0.03
     6   6    -0.06   0.05   0.07    -0.07   0.03  -0.03     0.07  -0.01   0.15
     7   1     0.15  -0.14   0.21    -0.01  -0.16   0.07    -0.04  -0.13   0.16
     8   1    -0.04  -0.02  -0.20     0.02   0.08  -0.19     0.02  -0.08   0.09
     9   6     0.05  -0.04  -0.06     0.09  -0.05   0.03    -0.07   0.05  -0.15
    10   1     0.19  -0.03  -0.04     0.01   0.15   0.05    -0.05  -0.40  -0.21
    11   1     0.08  -0.04  -0.02     0.13  -0.08  -0.13    -0.12   0.11   0.30
    12   7    -0.07  -0.01  -0.06     0.01   0.06   0.11    -0.02  -0.05   0.05
    13   6    -0.03  -0.03   0.02     0.03   0.07  -0.05     0.06  -0.00  -0.03
    14   1     0.00   0.02   0.16    -0.02  -0.11  -0.08     0.03   0.09  -0.31
    15   1     0.02  -0.01   0.15     0.03   0.05  -0.37    -0.14  -0.03   0.06
    16   1     0.08   0.09  -0.18    -0.08  -0.17   0.24    -0.14   0.01   0.13
    17   6     0.03   0.06   0.04    -0.08  -0.05  -0.02    -0.02  -0.02   0.05
    18   1     0.15   0.09   0.16     0.01  -0.04  -0.14    -0.01  -0.04  -0.20
    19   1    -0.02  -0.10  -0.02    -0.14  -0.09  -0.23    -0.10  -0.03  -0.25
    20   1     0.01  -0.08  -0.01     0.18   0.10   0.09     0.30   0.20   0.20
    21   6     0.02   0.02   0.08    -0.03  -0.04  -0.06     0.01   0.04  -0.03
    22   1    -0.22  -0.08  -0.03     0.19   0.00   0.03     0.15  -0.04  -0.01
    23   1     0.23   0.04  -0.13    -0.24   0.02   0.10     0.00  -0.03   0.02
    24   6    -0.02  -0.02  -0.09     0.02   0.01   0.08     0.00   0.00   0.02
    25   8     0.00   0.00   0.02     0.00   0.00  -0.02    -0.01  -0.01  -0.00
    26   8     0.01   0.00   0.02    -0.01  -0.00  -0.01     0.00  -0.00  -0.00
                     31                     32                     33
                      A                      A                      A
 Frequencies --   1083.1643              1099.1058              1140.3514
 Red. masses --      2.9157                 2.8492                 1.2414
 Frc consts  --      2.0155                 2.0279                 0.9512
 IR Inten    --      2.0301                20.4059                 2.7607
  Atom  AN      X      Y      Z        X      Y      Z        X      Y      Z
     1   7     0.16   0.08   0.08    -0.17  -0.09  -0.10    -0.01  -0.01   0.00
     2   1    -0.22  -0.13   0.03     0.26   0.10  -0.03     0.21   0.09   0.04
     3   6    -0.11  -0.03  -0.13     0.16   0.19   0.05     0.00   0.00  -0.00
     4   1    -0.24  -0.16  -0.07     0.17   0.18  -0.16    -0.12  -0.12  -0.00
     5   1    -0.16  -0.04  -0.14     0.40   0.23   0.10     0.14   0.13  -0.00
     6   6    -0.11  -0.12  -0.03    -0.05  -0.16  -0.02    -0.04  -0.00  -0.02
     7   1    -0.28  -0.29  -0.03    -0.35  -0.25  -0.10     0.13   0.12  -0.01
     8   1    -0.22  -0.22  -0.00    -0.16  -0.20   0.19    -0.11  -0.09  -0.06
     9   6     0.19   0.12   0.05     0.08   0.09   0.07     0.02  -0.01   0.03
    10   1     0.22  -0.01   0.04     0.09   0.02   0.06     0.20   0.09   0.06
    11   1     0.30   0.16   0.21     0.06   0.09   0.12     0.05  -0.02  -0.04
    12   7    -0.08  -0.04   0.04    -0.03  -0.02   0.01    -0.01   0.00  -0.00
    13   6    -0.03   0.01  -0.05    -0.02  -0.00  -0.03     0.05  -0.06  -0.00
    14   1     0.01  -0.02   0.19     0.01  -0.00   0.17     0.06   0.19  -0.29
    15   1     0.06   0.02   0.02     0.06   0.01   0.05    -0.18  -0.07   0.32
    16   1     0.09   0.05  -0.18     0.08   0.04  -0.15    -0.10   0.14  -0.01
    17   6    -0.02  -0.00   0.04     0.02  -0.01   0.00    -0.07   0.07   0.01
    18   1    -0.03  -0.02  -0.09    -0.11  -0.04  -0.05     0.36   0.16   0.21
    19   1    -0.05  -0.01  -0.10     0.06   0.09   0.08    -0.20  -0.29  -0.22
    20   1     0.13   0.11   0.11    -0.05   0.04   0.01     0.13  -0.15  -0.02
    21   6     0.02   0.05  -0.01     0.01   0.02  -0.00    -0.01  -0.01  -0.02
    22   1     0.09  -0.06  -0.02     0.06  -0.04  -0.00     0.11  -0.07  -0.01
    23   1     0.06  -0.01   0.00     0.05  -0.01  -0.01    -0.13   0.09   0.03
    24   6    -0.00  -0.00   0.00     0.00  -0.00  -0.00     0.01   0.00   0.03
    25   8    -0.01  -0.01   0.00    -0.01  -0.00   0.00    -0.00   0.00  -0.01
    26   8     0.00  -0.00  -0.00     0.00  -0.00  -0.00    -0.00  -0.00  -0.00
                     34                     35                     36
                      A                      A                      A
 Frequencies --   1148.7365              1192.2563              1241.1332
 Red. masses --      1.2249                 1.3939                 1.2691
 Frc consts  --      0.9524                 1.1674                 1.1518
 IR Inten    --      5.1716                 1.2937                16.6995
  Atom  AN      X      Y      Z        X      Y      Z        X      Y      Z
     1   7     0.02   0.01  -0.00     0.01   0.01  -0.00    -0.01   0.01   0.02
     2   1    -0.26  -0.10  -0.06    -0.16  -0.03  -0.04     0.21   0.13   0.05
     3   6    -0.01  -0.00   0.01    -0.04  -0.02   0.03    -0.04  -0.05  -0.02
     4   1     0.20   0.20  -0.01     0.35   0.35  -0.06     0.21   0.21   0.00
     5   1    -0.16  -0.17   0.02    -0.13  -0.14   0.04     0.05   0.12  -0.05
     6   6     0.04  -0.01   0.00     0.04  -0.05  -0.07    -0.03  -0.02   0.01
     7   1    -0.22  -0.18  -0.03    -0.23  -0.06  -0.16     0.22   0.26  -0.01
     8   1     0.15   0.13   0.08     0.20   0.19   0.16     0.07   0.07  -0.05
     9   6    -0.01   0.02   0.00    -0.00   0.03   0.07     0.03   0.00  -0.04
    10   1    -0.23  -0.05  -0.03     0.08   0.12   0.10     0.38  -0.02  -0.01
    11   1    -0.05   0.02   0.04    -0.14   0.01  -0.04    -0.37  -0.02  -0.03
    12   7     0.02   0.01   0.06    -0.04   0.00  -0.07    -0.03   0.07   0.01
    13   6    -0.01  -0.05  -0.04     0.06  -0.03   0.03    -0.01  -0.04  -0.01
    14   1     0.05   0.13   0.05     0.03   0.09  -0.27     0.02   0.08   0.01
    15   1    -0.02  -0.02   0.28    -0.16  -0.06   0.11    -0.03  -0.02   0.17
    16   1     0.05   0.15  -0.25    -0.14   0.04   0.16     0.02   0.10  -0.15
    17   6     0.01   0.02  -0.06    -0.01   0.01   0.04     0.02  -0.07   0.01
    18   1     0.06   0.06   0.21     0.03   0.00  -0.07    -0.23  -0.13  -0.19
    19   1     0.04  -0.04   0.15    -0.05  -0.02  -0.10     0.08   0.17   0.03
    20   1    -0.22  -0.19  -0.18     0.13   0.07   0.10    -0.00   0.18   0.09
    21   6    -0.01  -0.00  -0.02    -0.00   0.01  -0.00    -0.01   0.00   0.01
    22   1     0.24  -0.22   0.00    -0.10   0.19   0.01     0.24  -0.28   0.01
    23   1    -0.20   0.21   0.01     0.25  -0.29  -0.03    -0.02   0.12  -0.06
    24   6     0.01   0.01   0.05    -0.00  -0.01  -0.03     0.01   0.00   0.01
    25   8    -0.00  -0.00  -0.01    -0.01  -0.00   0.01    -0.01  -0.01   0.00
    26   8    -0.00  -0.00  -0.01     0.00   0.00   0.00     0.00   0.00  -0.00
                     37                     38                     39
                      A                      A                      A
 Frequencies --   1260.9197              1279.8441              1314.3215
 Red. masses --      1.5412                 1.4608                 1.3455
 Frc consts  --      1.4437                 1.4098                 1.3694
 IR Inten    --      8.4908                 8.2541                 5.6102
  Atom  AN      X      Y      Z        X      Y      Z        X      Y      Z
     1   7     0.00   0.00  -0.00    -0.01   0.01   0.02    -0.03   0.01   0.04
     2   1    -0.07  -0.02  -0.02     0.16   0.11   0.04     0.43   0.21   0.12
     3   6    -0.01   0.01   0.01    -0.07  -0.03  -0.03    -0.00  -0.07  -0.09
     4   1     0.12   0.13  -0.04     0.41   0.44  -0.09     0.10   0.07   0.10
     5   1    -0.03  -0.07   0.03     0.02   0.08  -0.04     0.05   0.23  -0.17
     6   6     0.01  -0.02  -0.00     0.01  -0.08   0.03    -0.03  -0.00   0.06
     7   1     0.01   0.08  -0.04     0.21   0.31  -0.04    -0.06  -0.17   0.10
     8   1     0.00  -0.02   0.03    -0.01  -0.09   0.07     0.18   0.19  -0.03
     9   6    -0.04   0.02   0.00    -0.02   0.04  -0.03     0.03   0.01  -0.02
    10   1    -0.00  -0.02   0.00     0.02  -0.12  -0.05    -0.38  -0.04  -0.06
    11   1    -0.05   0.02   0.01     0.24   0.08   0.11     0.07   0.03   0.09
    12   7     0.12   0.02  -0.03     0.03  -0.10   0.00     0.00   0.03   0.07
    13   6    -0.09  -0.04  -0.00    -0.02   0.07   0.01     0.01  -0.03  -0.03
    14   1    -0.02   0.04   0.26    -0.07  -0.16   0.05     0.05   0.10   0.02
    15   1     0.21   0.01   0.12     0.10   0.06  -0.26    -0.02  -0.02   0.14
    16   1     0.22   0.05  -0.35     0.06  -0.15   0.10    -0.03   0.08  -0.08
    17   6    -0.08  -0.03   0.05    -0.02   0.05  -0.01    -0.00  -0.00  -0.02
    18   1     0.15  -0.01  -0.18     0.17   0.10   0.16    -0.02  -0.00   0.05
    19   1    -0.15  -0.04  -0.23    -0.06  -0.13   0.00     0.01  -0.00   0.02
    20   1     0.34   0.11   0.19    -0.01  -0.16  -0.08    -0.05  -0.01  -0.03
    21   6     0.05  -0.06  -0.01    -0.03   0.03   0.01     0.01  -0.02  -0.04
    22   1    -0.30   0.30  -0.01     0.09  -0.10   0.01    -0.21   0.40   0.01
    23   1    -0.25   0.24   0.06     0.02   0.01  -0.03     0.11  -0.26   0.03
    24   6    -0.02   0.00   0.00     0.00  -0.00   0.00     0.00  -0.00  -0.02
    25   8     0.02   0.01  -0.01     0.00   0.00  -0.00    -0.00  -0.00   0.00
    26   8    -0.00   0.01  -0.00    -0.00   0.00  -0.00    -0.00   0.01   0.00
                     40                     41                     42
                      A                      A                      A
 Frequencies --   1338.4223              1339.5998              1362.8242
 Red. masses --      1.3629                 1.4515                 6.7310
 Frc consts  --      1.4385                 1.5347                 7.3656
 IR Inten    --      6.9995                 4.5912               247.3840
  Atom  AN      X      Y      Z        X      Y      Z        X      Y      Z
     1   7    -0.01   0.00   0.02    -0.01   0.00   0.01     0.01  -0.00  -0.01
     2   1     0.21   0.08   0.05     0.13   0.07   0.03    -0.08  -0.04  -0.02
     3   6     0.04  -0.04  -0.04     0.00  -0.03  -0.03     0.02   0.01   0.02
     4   1    -0.12  -0.16   0.13     0.05   0.03   0.05    -0.12  -0.13   0.02
     5   1     0.03   0.12  -0.10     0.03   0.08  -0.06    -0.01  -0.03   0.02
     6   6    -0.01   0.02   0.01     0.01  -0.01   0.01    -0.01   0.02  -0.02
     7   1    -0.30  -0.33   0.02    -0.14  -0.12  -0.00    -0.03  -0.04  -0.01
     8   1     0.34   0.39  -0.05     0.17   0.16  -0.04     0.04   0.08  -0.01
     9   6    -0.05   0.03   0.03    -0.01   0.02   0.01     0.00   0.01   0.00
    10   1     0.11   0.01   0.04     0.03   0.03   0.02     0.22  -0.02   0.01
    11   1    -0.14   0.02  -0.03     0.08   0.03   0.05    -0.37  -0.03  -0.07
    12   7     0.07  -0.04  -0.07    -0.10  -0.05  -0.06     0.04  -0.06   0.05
    13   6    -0.03   0.02   0.02     0.04   0.02   0.02    -0.04   0.01   0.01
    14   1    -0.03  -0.06   0.12    -0.01  -0.05  -0.13    -0.06   0.07  -0.11
    15   1     0.11   0.04  -0.07    -0.11  -0.01  -0.13     0.25   0.04  -0.14
    16   1     0.07  -0.10   0.01    -0.08  -0.00   0.14     0.18  -0.07  -0.13
    17   6    -0.03   0.01   0.03     0.04   0.00   0.02    -0.04   0.01  -0.03
    18   1     0.14   0.04  -0.06    -0.05  -0.01   0.00     0.22   0.07   0.09
    19   1    -0.07  -0.04  -0.07     0.07   0.08   0.05    -0.00   0.02   0.15
    20   1     0.15  -0.05   0.04    -0.04   0.04   0.01     0.15  -0.06  -0.01
    21   6    -0.05   0.03   0.03     0.10  -0.04   0.02    -0.04   0.00  -0.01
    22   1     0.29  -0.33   0.03    -0.28  -0.01  -0.08     0.00   0.19   0.06
    23   1     0.11   0.01  -0.09    -0.51   0.60   0.13     0.06  -0.03  -0.07
    24   6    -0.01   0.01   0.01     0.02  -0.00   0.01     0.43  -0.13  -0.08
    25   8     0.01   0.01  -0.00    -0.01  -0.01   0.00    -0.26  -0.20   0.10
    26   8     0.00  -0.02   0.00    -0.00   0.03  -0.01    -0.05   0.30  -0.04
                     43                     44                     45
                      A                      A                      A
 Frequencies --   1372.7009              1391.9281              1410.1699
 Red. masses --      1.3356                 1.3627                 1.2581
 Frc consts  --      1.4828                 1.5555                 1.4741
 IR Inten    --     25.9306                 7.0507                 7.0218
  Atom  AN      X      Y      Z        X      Y      Z        X      Y      Z
     1   7     0.03  -0.00  -0.03     0.01  -0.00  -0.01     0.03  -0.00  -0.03
     2   1    -0.31  -0.15  -0.09    -0.12  -0.05  -0.04    -0.28  -0.09  -0.10
     3   6     0.02   0.01   0.05    -0.01   0.00   0.01    -0.08  -0.07   0.03
     4   1    -0.14  -0.15   0.03    -0.01  -0.01  -0.03     0.10   0.09  -0.08
     5   1     0.25   0.14   0.08     0.14   0.13   0.02     0.57   0.60   0.01
     6   6    -0.08  -0.08  -0.00    -0.03  -0.05   0.02     0.04   0.07   0.01
     7   1     0.18   0.26  -0.03     0.13   0.08   0.03    -0.14  -0.25   0.07
     8   1     0.45   0.49  -0.07     0.11   0.11   0.04    -0.15  -0.13   0.04
     9   6    -0.02   0.03  -0.03    -0.02  -0.03   0.01    -0.01  -0.01  -0.00
    10   1     0.26   0.01  -0.01    -0.38   0.04  -0.01     0.04   0.05   0.02
    11   1     0.02   0.06   0.13     0.69   0.04   0.08    -0.09  -0.02   0.00
    12   7    -0.01  -0.02   0.06     0.00   0.09  -0.08     0.01  -0.01   0.00
    13   6    -0.00   0.01  -0.01     0.00  -0.03   0.04     0.00   0.01  -0.02
    14   1    -0.01  -0.00  -0.02     0.01   0.10  -0.09     0.02  -0.04   0.12
    15   1     0.03   0.01  -0.01    -0.02  -0.04  -0.02    -0.04   0.00   0.05
    16   1     0.03  -0.01  -0.03    -0.01   0.11  -0.06    -0.06  -0.01   0.05
    17   6     0.00   0.01  -0.02    -0.00  -0.04   0.03    -0.01  -0.00  -0.01
    18   1     0.00   0.02   0.09     0.03  -0.04  -0.12     0.04   0.01   0.01
    19   1     0.01  -0.03   0.07     0.02   0.18  -0.08     0.01   0.02   0.05
    20   1    -0.03  -0.02  -0.04     0.03   0.10   0.08     0.04  -0.00   0.00
    21   6     0.02  -0.00  -0.02    -0.04  -0.01   0.03     0.00  -0.00  -0.00
    22   1    -0.14   0.14  -0.03     0.24  -0.15   0.07    -0.01   0.02   0.00
    23   1    -0.00  -0.11   0.07     0.07   0.10  -0.15    -0.00   0.00  -0.00
    24   6    -0.02   0.01  -0.00     0.04  -0.00  -0.00    -0.00  -0.00  -0.00
    25   8     0.01   0.01  -0.00    -0.02  -0.02   0.01     0.00   0.00   0.00
    26   8     0.00  -0.01   0.00    -0.00   0.02  -0.00    -0.00   0.00  -0.00
                     46                     47                     48
                      A                      A                      A
 Frequencies --   1428.3996              1435.8848              1466.7401
 Red. masses --      1.1375                 1.2990                 1.1249
 Frc consts  --      1.3674                 1.5779                 1.4259
 IR Inten    --     10.3113                12.1196                 9.5135
  Atom  AN      X      Y      Z        X      Y      Z        X      Y      Z
     1   7    -0.01   0.00   0.01    -0.01   0.00   0.01     0.00  -0.00  -0.00
     2   1     0.05   0.02   0.02     0.10   0.04   0.03    -0.02  -0.01  -0.01
     3   6     0.01   0.01  -0.00    -0.00  -0.01  -0.02     0.00   0.00   0.01
     4   1    -0.01  -0.01   0.01     0.03   0.02  -0.02    -0.02  -0.03  -0.02
     5   1    -0.09  -0.10  -0.00    -0.08  -0.01  -0.05    -0.00   0.02  -0.00
     6   6     0.00  -0.01  -0.00     0.05   0.03  -0.02    -0.00  -0.00   0.01
     7   1     0.00   0.05  -0.02    -0.14  -0.23   0.01    -0.05   0.06  -0.04
     8   1     0.02   0.00  -0.01    -0.06  -0.05   0.12     0.01  -0.02  -0.11
     9   6    -0.03  -0.01  -0.01    -0.11  -0.03  -0.03     0.03   0.01   0.01
    10   1     0.12   0.05   0.01     0.61   0.08   0.06    -0.06  -0.07  -0.01
    11   1     0.13   0.01   0.05     0.45   0.02   0.03    -0.17  -0.02  -0.06
    12   7     0.00   0.01  -0.01    -0.01   0.03   0.06    -0.02  -0.04   0.00
    13   6     0.03   0.02  -0.06    -0.02  -0.02   0.02     0.00  -0.00   0.02
    14   1     0.06  -0.24   0.42    -0.00   0.22  -0.20    -0.02   0.02  -0.12
    15   1    -0.30  -0.01   0.27     0.21   0.01  -0.14    -0.00  -0.02  -0.17
    16   1    -0.23  -0.02   0.20     0.10   0.04  -0.14     0.03   0.08  -0.08
    17   6    -0.05  -0.04  -0.04     0.00  -0.02  -0.04    -0.01  -0.01  -0.03
    18   1     0.33   0.05   0.11     0.00  -0.00   0.15     0.07   0.03   0.25
    19   1     0.12   0.31   0.32     0.06   0.07   0.15     0.04   0.04   0.13
    20   1     0.27   0.10   0.08     0.03   0.13   0.03     0.09   0.19   0.07
    21   6    -0.00  -0.00   0.00    -0.00  -0.01  -0.01    -0.03  -0.05   0.01
    22   1     0.00   0.02   0.01    -0.02   0.08   0.01     0.31   0.46   0.23
    23   1     0.01  -0.01  -0.01     0.03  -0.07   0.00     0.18   0.37  -0.44
    24   6     0.01  -0.00  -0.00    -0.01   0.01  -0.00    -0.03   0.02   0.00
    25   8    -0.00  -0.00   0.00     0.00   0.00  -0.00     0.01   0.01  -0.00
    26   8    -0.00   0.00  -0.00     0.00  -0.01   0.00     0.00  -0.02   0.00
                     49                     50                     51
                      A                      A                      A
 Frequencies --   1476.3607              1482.3528              1493.9375
 Red. masses --      1.1724                 1.0647                 1.0813
 Frc consts  --      1.5056                 1.3784                 1.4219
 IR Inten    --     45.0864                 1.4137                 1.0781
  Atom  AN      X      Y      Z        X      Y      Z        X      Y      Z
     1   7     0.00   0.00  -0.00     0.00   0.00  -0.00    -0.00   0.00  -0.00
     2   1    -0.02  -0.01  -0.01    -0.01  -0.01  -0.00     0.01  -0.02   0.01
     3   6    -0.01  -0.00   0.00    -0.00   0.00  -0.00    -0.03   0.01  -0.05
     4   1     0.01   0.01   0.02     0.00   0.01   0.06    -0.02   0.11   0.46
     5   1     0.05   0.02   0.01     0.06  -0.02   0.03     0.35  -0.29   0.21
     6   6    -0.02   0.00   0.00     0.00  -0.01   0.02     0.03  -0.00   0.04
     7   1     0.08   0.01   0.04    -0.10   0.08  -0.06    -0.32   0.20  -0.18
     8   1    -0.03  -0.01   0.03     0.02  -0.03  -0.15     0.01  -0.13  -0.40
     9   6     0.05   0.02   0.02     0.00   0.01   0.02    -0.00  -0.03  -0.01
    10   1    -0.22  -0.18  -0.04    -0.06  -0.12  -0.01     0.01   0.22   0.03
    11   1    -0.16  -0.04  -0.17     0.07  -0.01  -0.13     0.01   0.01   0.20
    12   7    -0.03  -0.01  -0.01    -0.00   0.01  -0.03    -0.01   0.00   0.01
    13   6    -0.02  -0.01   0.04    -0.02   0.01  -0.04    -0.00  -0.01   0.00
    14   1    -0.03   0.22  -0.32     0.00   0.09  -0.03     0.01   0.08  -0.04
    15   1     0.26   0.02  -0.12     0.29   0.08   0.39     0.07   0.01  -0.01
    16   1     0.13  -0.06  -0.05     0.06  -0.41   0.22     0.01  -0.01  -0.00
    17   6    -0.05  -0.03  -0.03     0.02  -0.02  -0.02    -0.00   0.01   0.01
    18   1     0.38   0.05   0.03    -0.14  -0.00   0.42     0.05  -0.00  -0.16
    19   1     0.12   0.36   0.32    -0.03  -0.11  -0.13     0.02   0.06   0.05
    20   1     0.25   0.01   0.04    -0.08   0.43   0.11     0.02  -0.15  -0.04
    21   6     0.02   0.03  -0.00     0.00   0.00   0.00    -0.00   0.00   0.00
    22   1    -0.13  -0.22  -0.11    -0.02  -0.07  -0.02     0.01   0.01   0.01
    23   1    -0.07  -0.14   0.19    -0.02  -0.02   0.03     0.03  -0.02  -0.02
    24   6    -0.02   0.03  -0.00     0.01  -0.00  -0.00     0.00   0.00  -0.00
    25   8     0.01   0.00  -0.00    -0.00  -0.00   0.00    -0.00  -0.00   0.00
    26   8     0.01  -0.03   0.00    -0.00   0.01  -0.00     0.00  -0.00   0.00
                     52                     53                     54
                      A                      A                      A
 Frequencies --   1501.7739              1507.8964              1522.6329
 Red. masses --      1.0825                 1.0764                 1.0894
 Frc consts  --      1.4384                 1.4421                 1.4881
 IR Inten    --     12.1755                17.6451                15.0193
  Atom  AN      X      Y      Z        X      Y      Z        X      Y      Z
     1   7    -0.00   0.00  -0.00    -0.00   0.00   0.00    -0.00  -0.00   0.00
     2   1     0.01  -0.02   0.01     0.02  -0.00   0.01    -0.00   0.00  -0.00
     3   6    -0.03   0.01  -0.05    -0.01   0.01  -0.02     0.00  -0.00   0.01
     4   1    -0.03   0.10   0.45    -0.01   0.03   0.14     0.01  -0.01  -0.06
     5   1     0.34  -0.28   0.20     0.07  -0.12   0.06    -0.04   0.05  -0.03
     6   6    -0.01   0.01  -0.03    -0.01   0.01  -0.04     0.01   0.00   0.02
     7   1     0.21  -0.17   0.13     0.29  -0.21   0.16    -0.14   0.07  -0.07
     8   1    -0.04   0.07   0.30    -0.07   0.06   0.39     0.01  -0.05  -0.16
     9   6    -0.01   0.03   0.02     0.01  -0.03  -0.04     0.01  -0.02  -0.01
    10   1     0.04  -0.30  -0.03    -0.08   0.43   0.04    -0.08   0.23   0.02
    11   1     0.04  -0.02  -0.28    -0.15   0.05   0.43    -0.10   0.02   0.21
    12   7     0.02  -0.00  -0.00    -0.01  -0.01  -0.01     0.04  -0.01  -0.01
    13   6     0.01  -0.00   0.01    -0.01   0.02  -0.00     0.01   0.00   0.05
    14   1     0.01  -0.08   0.10    -0.08  -0.12  -0.18    -0.08  -0.27  -0.09
    15   1    -0.18  -0.04  -0.14     0.08   0.04   0.20    -0.29  -0.06  -0.22
    16   1    -0.07   0.19  -0.07     0.19  -0.24   0.02     0.13   0.25  -0.27
    17   6     0.00  -0.01  -0.01    -0.00  -0.01   0.00    -0.01  -0.03  -0.02
    18   1    -0.07  -0.00   0.17     0.07   0.01   0.04     0.03   0.02   0.38
    19   1    -0.03  -0.09  -0.04     0.01   0.09  -0.03    -0.03   0.03  -0.14
    20   1    -0.01   0.16   0.05    -0.04   0.04   0.00    -0.08   0.38   0.10
    21   6     0.00   0.00   0.00    -0.00  -0.01   0.00     0.00   0.03  -0.00
    22   1    -0.02  -0.03  -0.01     0.06   0.06   0.03    -0.09  -0.19  -0.09
    23   1    -0.01  -0.02   0.02     0.01   0.08  -0.07    -0.04  -0.17   0.16
    24   6     0.00  -0.01   0.00    -0.01   0.01   0.00     0.00  -0.01  -0.00
    25   8    -0.00   0.00   0.00     0.00   0.00  -0.00    -0.00   0.00   0.00
    26   8    -0.00   0.01  -0.00     0.00  -0.01   0.00    -0.00   0.00  -0.00
                     55                     56                     57
                      A                      A                      A
 Frequencies --   1531.3270              1551.5119              1793.7215
 Red. masses --      1.0611                 1.0532                11.1043
 Frc consts  --      1.4661                 1.4937                21.0499
 IR Inten    --     13.8329                35.7470               579.7390
  Atom  AN      X      Y      Z        X      Y      Z        X      Y      Z
     1   7     0.00  -0.00  -0.00    -0.00   0.00   0.00    -0.00  -0.00   0.00
     2   1    -0.00  -0.00  -0.00     0.00   0.00   0.00     0.00   0.00  -0.00
     3   6    -0.00  -0.00  -0.00     0.00   0.00   0.00    -0.00   0.00  -0.00
     4   1    -0.00  -0.00   0.01    -0.00  -0.00  -0.00     0.01   0.01   0.00
     5   1     0.02   0.01   0.00    -0.01  -0.02   0.00    -0.00  -0.00   0.00
     6   6     0.01   0.00   0.01    -0.00   0.00  -0.01     0.00  -0.00   0.00
     7   1    -0.08  -0.01  -0.02     0.06   0.00   0.02     0.00   0.00  -0.00
     8   1     0.01  -0.01  -0.05    -0.01   0.01   0.05    -0.00  -0.00   0.00
     9   6    -0.01   0.02   0.01     0.00  -0.00  -0.01    -0.01  -0.00   0.00
    10   1     0.13  -0.22  -0.01     0.02   0.10   0.01    -0.00   0.00   0.00
    11   1     0.07  -0.02  -0.23    -0.11   0.01   0.10     0.02   0.00  -0.00
    12   7    -0.01   0.00   0.03     0.01  -0.04   0.00     0.03  -0.01  -0.00
    13   6     0.01   0.03  -0.00    -0.00  -0.03  -0.02     0.01   0.01  -0.01
    14   1    -0.11  -0.31  -0.18     0.16   0.41   0.29    -0.02  -0.13   0.16
    15   1    -0.14   0.01   0.18     0.20  -0.00  -0.23    -0.09  -0.01   0.03
    16   1     0.23  -0.13  -0.10    -0.33   0.14   0.17    -0.03   0.02   0.01
    17   6     0.01  -0.02   0.03     0.01  -0.02   0.02     0.01   0.01   0.01
    18   1     0.31   0.03  -0.12     0.25   0.04   0.11    -0.10  -0.01   0.02
    19   1     0.01   0.41  -0.36    -0.02   0.30  -0.36    -0.08  -0.18  -0.09
    20   1    -0.38  -0.09  -0.09    -0.34   0.11  -0.03    -0.03   0.01  -0.00
    21   6    -0.00  -0.01  -0.00    -0.00   0.01  -0.00    -0.02  -0.01   0.01
    22   1     0.01   0.11   0.03    -0.00   0.00  -0.00    -0.15   0.05  -0.03
    23   1     0.03   0.00  -0.05    -0.01   0.01   0.00    -0.11   0.05   0.06
    24   6    -0.00   0.00  -0.00     0.00   0.00  -0.00     0.25   0.74  -0.19
    25   8     0.00  -0.00   0.00    -0.00  -0.00   0.00    -0.19  -0.18   0.08
    26   8     0.00  -0.00   0.00     0.00  -0.00   0.00     0.01  -0.35   0.06
                     58                     59                     60
                      A                      A                      A
 Frequencies --   3002.7383              3072.3327              3074.1393
 Red. masses --      1.0639                 1.0695                 1.0566
 Frc consts  --      5.6519                 5.9477                 5.8831
 IR Inten    --      6.0454                15.2690                 2.2093
  Atom  AN      X      Y      Z        X      Y      Z        X      Y      Z
     1   7    -0.00  -0.00  -0.00    -0.00   0.00   0.00    -0.00   0.00   0.00
     2   1     0.00  -0.00   0.00     0.01  -0.01  -0.02     0.01  -0.00  -0.02
     3   6    -0.04   0.05  -0.03     0.03  -0.03  -0.05     0.02  -0.02  -0.04
     4   1     0.67  -0.66   0.14    -0.14   0.14  -0.04    -0.11   0.11  -0.03
     5   1    -0.10   0.11   0.25    -0.20   0.22   0.60    -0.18   0.19   0.52
     6   6     0.00  -0.00   0.00     0.00   0.00   0.03    -0.01   0.01  -0.00
     7   1     0.00  -0.00  -0.00     0.14  -0.14  -0.35    -0.00   0.00  -0.00
     8   1    -0.04   0.03  -0.01    -0.13   0.12  -0.03     0.12  -0.11   0.03
     9   6    -0.00   0.00   0.00    -0.00   0.00   0.00     0.00  -0.01  -0.01
    10   1     0.00   0.00  -0.01     0.00   0.01  -0.04    -0.00  -0.01   0.08
    11   1     0.00  -0.01   0.00     0.00  -0.05   0.01    -0.01   0.09  -0.02
    12   7     0.00   0.00   0.00    -0.00   0.00   0.00     0.00  -0.00   0.00
    13   6    -0.00  -0.00   0.00     0.01   0.01  -0.02    -0.01  -0.01   0.02
    14   1     0.00  -0.00  -0.00    -0.28   0.07   0.05     0.32  -0.08  -0.06
    15   1    -0.00   0.00  -0.00     0.04  -0.30   0.02    -0.05   0.35  -0.02
    16   1    -0.00  -0.00  -0.00     0.14   0.12   0.15    -0.15  -0.13  -0.16
    17   6     0.00  -0.00  -0.00    -0.01  -0.01  -0.01     0.01   0.02   0.02
    18   1    -0.00   0.00  -0.00    -0.03   0.18  -0.02     0.06  -0.34   0.03
    19   1     0.00  -0.00  -0.00     0.14  -0.03  -0.03    -0.26   0.06   0.06
    20   1    -0.00  -0.00   0.00    -0.03  -0.05   0.14     0.06   0.10  -0.28
    21   6    -0.00  -0.00   0.00     0.00   0.00  -0.00     0.00   0.00  -0.00
    22   1     0.00   0.00  -0.01    -0.01  -0.00   0.02    -0.00  -0.00   0.01
    23   1     0.01   0.00   0.01    -0.01  -0.01  -0.01    -0.00  -0.00  -0.00
    24   6     0.00  -0.00   0.00    -0.00  -0.00   0.00     0.00   0.00   0.00
    25   8    -0.00   0.00   0.00     0.00   0.00  -0.00    -0.00  -0.00  -0.00
    26   8     0.00   0.00  -0.00     0.00   0.00   0.00    -0.00  -0.00  -0.00
                     61                     62                     63
                      A                      A                      A
 Frequencies --   3077.6414              3079.0107              3086.2329
 Red. masses --      1.0400                 1.0585                 1.0549
 Frc consts  --      5.8038                 5.9123                 5.9202
 IR Inten    --     29.7613                25.6508                30.4402
  Atom  AN      X      Y      Z        X      Y      Z        X      Y      Z
     1   7    -0.00   0.00   0.00    -0.00   0.00   0.00    -0.00   0.00  -0.00
     2   1     0.00  -0.00  -0.00     0.00   0.00  -0.01    -0.00  -0.00   0.00
     3   6     0.01  -0.01  -0.01     0.01  -0.01  -0.02    -0.00   0.00   0.00
     4   1    -0.03   0.03  -0.01    -0.01   0.01  -0.01     0.01  -0.01   0.00
     5   1    -0.05   0.05   0.14    -0.06   0.07   0.18     0.01  -0.02  -0.04
     6   6    -0.00   0.00  -0.01    -0.03   0.02  -0.05    -0.00   0.00   0.02
     7   1    -0.05   0.05   0.12    -0.19   0.18   0.46     0.09  -0.08  -0.22
     8   1     0.06  -0.05   0.01     0.49  -0.44   0.12    -0.06   0.05  -0.01
     9   6    -0.00   0.02   0.02     0.00  -0.02  -0.00     0.01  -0.04  -0.04
    10   1     0.03   0.06  -0.31    -0.01  -0.02   0.11    -0.06  -0.11   0.61
    11   1     0.02  -0.29   0.06    -0.02   0.26  -0.05    -0.04   0.53  -0.10
    12   7    -0.00  -0.00   0.00     0.00  -0.00  -0.00     0.00  -0.00  -0.00
    13   6    -0.01  -0.01   0.02     0.01   0.01  -0.01    -0.01  -0.01   0.01
    14   1     0.31  -0.08  -0.06    -0.19   0.05   0.04     0.17  -0.04  -0.03
    15   1    -0.05   0.35  -0.02     0.03  -0.22   0.01    -0.02   0.18  -0.01
    16   1    -0.16  -0.13  -0.17     0.08   0.06   0.08    -0.08  -0.06  -0.08
    17   6    -0.01  -0.02  -0.02    -0.00  -0.01  -0.01    -0.01  -0.01  -0.01
    18   1    -0.08   0.43  -0.04    -0.02   0.12  -0.01    -0.04   0.24  -0.02
    19   1     0.31  -0.07  -0.08     0.09  -0.02  -0.02     0.19  -0.04  -0.04
    20   1    -0.08  -0.13   0.37    -0.02  -0.03   0.10    -0.05  -0.07   0.21
    21   6    -0.00  -0.00   0.00     0.00   0.00   0.00    -0.01  -0.00   0.00
    22   1     0.01   0.01  -0.03     0.00  -0.00   0.00     0.02   0.02  -0.08
    23   1     0.01   0.01   0.01    -0.01  -0.01  -0.01     0.04   0.03   0.04
    24   6     0.00   0.00  -0.00    -0.00  -0.00   0.00     0.00   0.00  -0.00
    25   8    -0.00  -0.00   0.00     0.00   0.00  -0.00    -0.00   0.00   0.00
    26   8    -0.00  -0.00   0.00     0.00   0.00   0.00     0.00  -0.00   0.00
                     64                     65                     66
                      A                      A                      A
 Frequencies --   3106.3035              3120.7512              3135.4097
 Red. masses --      1.0586                 1.1023                 1.1065
 Frc consts  --      6.0182                 6.3251                 6.4087
 IR Inten    --     10.1031                14.6283                 8.9171
  Atom  AN      X      Y      Z        X      Y      Z        X      Y      Z
     1   7    -0.00   0.00  -0.00    -0.00   0.00   0.00     0.00  -0.00   0.00
     2   1     0.00  -0.00   0.00     0.01   0.00  -0.00    -0.00  -0.00  -0.00
     3   6    -0.00   0.00   0.00     0.01  -0.01  -0.01     0.00  -0.00   0.00
     4   1     0.01  -0.01   0.00    -0.06   0.06  -0.02    -0.01   0.01  -0.00
     5   1     0.00  -0.00  -0.01    -0.06   0.06   0.17     0.00  -0.00  -0.01
     6   6     0.00  -0.00  -0.00     0.06  -0.05  -0.04     0.01  -0.01   0.00
     7   1    -0.01   0.01   0.02    -0.22   0.22   0.60     0.00  -0.01  -0.01
     8   1    -0.05   0.04  -0.01    -0.48   0.44  -0.14    -0.11   0.10  -0.03
     9   6     0.00  -0.00  -0.00     0.00  -0.00  -0.01    -0.00  -0.07   0.06
    10   1    -0.01  -0.01   0.05    -0.01  -0.03   0.18     0.06   0.10  -0.66
    11   1    -0.01   0.07  -0.01    -0.00   0.04  -0.01    -0.05   0.70  -0.12
    12   7     0.00  -0.00  -0.00    -0.00  -0.00  -0.00    -0.00  -0.00   0.00
    13   6    -0.00  -0.00   0.00     0.00   0.01   0.00    -0.00   0.00   0.00
    14   1     0.04  -0.01  -0.01    -0.03   0.01   0.01     0.02  -0.00  -0.00
    15   1    -0.00   0.03  -0.00     0.01  -0.06   0.00     0.00   0.01  -0.00
    16   1    -0.01  -0.01  -0.02    -0.01  -0.01  -0.02    -0.02  -0.01  -0.02
    17   6    -0.00  -0.00  -0.00    -0.00  -0.00   0.00     0.00   0.01  -0.01
    18   1    -0.01   0.05  -0.00    -0.00   0.01  -0.00     0.01  -0.05   0.00
    19   1     0.03  -0.01  -0.01     0.01  -0.00  -0.00    -0.00   0.00  -0.00
    20   1    -0.01  -0.01   0.03     0.00  -0.00  -0.00    -0.01  -0.02   0.06
    21   6     0.05   0.04  -0.03    -0.00  -0.00   0.01    -0.00  -0.00  -0.00
    22   1    -0.21  -0.19   0.74     0.02   0.02  -0.07     0.00   0.00  -0.01
    23   1    -0.34  -0.26  -0.40     0.01   0.01   0.01     0.02   0.02   0.02
    24   6    -0.00   0.00  -0.00    -0.00  -0.00   0.00    -0.00   0.00   0.00
    25   8    -0.00  -0.00   0.00     0.00   0.00  -0.00     0.00   0.00  -0.00
    26   8    -0.00  -0.00   0.00     0.00   0.00  -0.00     0.00  -0.00   0.00
                     67                     68                     69
                      A                      A                      A
 Frequencies --   3171.4255              3174.1983              3178.2079
 Red. masses --      1.1068                 1.1077                 1.1077
 Frc consts  --      6.5588                 6.5754                 6.5922
 IR Inten    --      6.8597                 6.9546                 7.6008
  Atom  AN      X      Y      Z        X      Y      Z        X      Y      Z
     1   7     0.00  -0.00  -0.00     0.00  -0.00   0.00    -0.00  -0.00  -0.00
     2   1    -0.00   0.00   0.00     0.00   0.00  -0.00     0.00   0.00   0.00
     3   6    -0.00   0.00   0.00     0.00  -0.00  -0.00     0.00   0.00  -0.00
     4   1    -0.00   0.00  -0.00    -0.00   0.00  -0.00     0.00   0.00  -0.00
     5   1     0.00  -0.00  -0.00    -0.00   0.00   0.00    -0.00   0.00   0.00
     6   6     0.00   0.00   0.00     0.00  -0.00  -0.00     0.00  -0.00  -0.00
     7   1     0.00  -0.00  -0.01    -0.00   0.00   0.01    -0.01   0.01   0.02
     8   1    -0.00   0.00  -0.00    -0.01   0.01  -0.00    -0.01   0.01  -0.00
     9   6    -0.00  -0.00   0.00    -0.00  -0.00   0.00     0.00   0.00  -0.00
    10   1     0.01   0.01  -0.04     0.00   0.00  -0.03    -0.00  -0.00   0.03
    11   1    -0.00   0.04  -0.01    -0.00   0.04  -0.01     0.00  -0.02   0.00
    12   7    -0.00  -0.00   0.00     0.00  -0.00   0.00     0.00   0.00  -0.00
    13   6    -0.02   0.03   0.01     0.05  -0.06  -0.01     0.02  -0.01   0.00
    14   1     0.24  -0.05  -0.04    -0.60   0.13   0.11    -0.18   0.04   0.03
    15   1     0.04  -0.28   0.02    -0.10   0.62  -0.04    -0.01   0.10  -0.00
    16   1    -0.06  -0.04  -0.06     0.04   0.02   0.03    -0.05  -0.04  -0.05
    17   6     0.00  -0.07   0.05    -0.01  -0.03   0.03    -0.00   0.02  -0.01
    18   1    -0.12   0.60  -0.05    -0.05   0.24  -0.02     0.03  -0.15   0.01
    19   1    -0.08   0.00   0.03     0.07  -0.02  -0.01     0.04  -0.01  -0.01
    20   1     0.14   0.19  -0.57     0.08   0.11  -0.33    -0.03  -0.04   0.14
    21   6    -0.01  -0.01  -0.02     0.00   0.00   0.01    -0.02  -0.02  -0.09
    22   1    -0.05  -0.04   0.14     0.02   0.01  -0.05    -0.16  -0.14   0.51
    23   1     0.14   0.10   0.15    -0.05  -0.03  -0.05     0.46   0.34   0.50
    24   6     0.00   0.00  -0.00    -0.00  -0.00   0.00    -0.00  -0.00  -0.00
    25   8    -0.00   0.00  -0.00     0.00   0.00  -0.00     0.00   0.00  -0.00
    26   8    -0.00  -0.00   0.00     0.00   0.00  -0.00     0.00   0.00   0.00
                     70                     71                     72
                      A                      A                      A
 Frequencies --   3188.3527              3193.6535              3444.1226
 Red. masses --      1.1048                 1.1064                 1.0736
 Frc consts  --      6.6170                 6.6489                 7.5030
 IR Inten    --      5.2463                28.5704                 3.2554
  Atom  AN      X      Y      Z        X      Y      Z        X      Y      Z
     1   7    -0.00   0.00   0.00     0.00  -0.00  -0.00     0.02  -0.02  -0.07
     2   1     0.00   0.00   0.00     0.00  -0.00  -0.00    -0.28   0.25   0.92
     3   6     0.00  -0.00  -0.00     0.00  -0.00  -0.00     0.00  -0.00  -0.00
     4   1    -0.00   0.00  -0.00    -0.00   0.00  -0.00    -0.01   0.01  -0.00
     5   1    -0.00   0.00   0.01    -0.00   0.00   0.00    -0.01   0.01   0.02
     6   6     0.00  -0.00  -0.00     0.00  -0.00  -0.00     0.00   0.00   0.00
     7   1    -0.02   0.02   0.05    -0.01   0.01   0.02    -0.00  -0.00   0.00
     8   1    -0.01   0.01  -0.00    -0.00   0.00  -0.00    -0.00  -0.00  -0.00
     9   6    -0.00  -0.00  -0.00     0.00  -0.00   0.00    -0.00   0.00   0.00
    10   1     0.00  -0.00   0.00     0.00   0.00  -0.01     0.00   0.00  -0.00
    11   1    -0.00   0.01  -0.00     0.00   0.00  -0.00     0.00   0.00   0.00
    12   7    -0.00  -0.00  -0.00    -0.00   0.00   0.00     0.00  -0.00   0.00
    13   6    -0.06  -0.05  -0.04    -0.03  -0.01  -0.01    -0.00  -0.00   0.00
    14   1     0.28  -0.08  -0.06     0.22  -0.06  -0.04    -0.00   0.00   0.00
    15   1    -0.05   0.28  -0.02    -0.01   0.03  -0.00    -0.00   0.00   0.00
    16   1     0.49   0.40   0.52     0.19   0.15   0.20    -0.00  -0.00  -0.00
    17   6     0.03  -0.01  -0.01    -0.07   0.03   0.04     0.00  -0.00  -0.00
    18   1    -0.03   0.15  -0.02     0.05  -0.29   0.03    -0.00  -0.00   0.00
    19   1    -0.30   0.07   0.07     0.75  -0.17  -0.18     0.00   0.00   0.00
    20   1    -0.02  -0.04   0.11     0.07   0.12  -0.32    -0.00  -0.00   0.00
    21   6    -0.00  -0.00  -0.01    -0.00  -0.00  -0.00     0.00   0.00   0.00
    22   1    -0.02  -0.02   0.06    -0.01  -0.00   0.01     0.00   0.00  -0.00
    23   1     0.06   0.05   0.06     0.02   0.02   0.02    -0.00  -0.00  -0.00
    24   6    -0.00  -0.00  -0.00     0.00   0.00  -0.00    -0.00   0.00   0.00
    25   8     0.00  -0.00  -0.00    -0.00   0.00   0.00     0.00   0.00  -0.00
    26   8     0.00  -0.00  -0.00    -0.00  -0.00   0.00     0.00  -0.00   0.00

 -------------------
 - Thermochemistry -
 -------------------
 Temperature   298.150 Kelvin.  Pressure   1.00000 Atm.
 Atom     1 has atomic number  7 and mass  14.00307
 Atom     2 has atomic number  1 and mass   1.00783
 Atom     3 has atomic number  6 and mass  12.00000
 Atom     4 has atomic number  1 and mass   1.00783
 Atom     5 has atomic number  1 and mass   1.00783
 Atom     6 has atomic number  6 and mass  12.00000
 Atom     7 has atomic number  1 and mass   1.00783
 Atom     8 has atomic number  1 and mass   1.00783
 Atom     9 has atomic number  6 and mass  12.00000
 Atom    10 has atomic number  1 and mass   1.00783
 Atom    11 has atomic number  1 and mass   1.00783
 Atom    12 has atomic number  7 and mass  14.00307
 Atom    13 has atomic number  6 and mass  12.00000
 Atom    14 has atomic number  1 and mass   1.00783
 Atom    15 has atomic number  1 and mass   1.00783
 Atom    16 has atomic number  1 and mass   1.00783
 Atom    17 has atomic number  6 and mass  12.00000
 Atom    18 has atomic number  1 and mass   1.00783
 Atom    19 has atomic number  1 and mass   1.00783
 Atom    20 has atomic number  1 and mass   1.00783
 Atom    21 has atomic number  6 and mass  12.00000
 Atom    22 has atomic number  1 and mass   1.00783
 Atom    23 has atomic number  1 and mass   1.00783
 Atom    24 has atomic number  6 and mass  12.00000
 Atom    25 has atomic number  8 and mass  15.99491
 Atom    26 has atomic number  8 and mass  15.99491
 Molecular mass:   159.11335 amu.
 Principal axes and moments of inertia in atomic units:
                           1         2         3
     Eigenvalues --  1147.631932795.316263463.53717
           X            0.99970   0.02431   0.00362
           Y           -0.02433   0.99969   0.00470
           Z           -0.00351  -0.00479   0.99998
 This molecule is an asymmetric top.
 Rotational symmetry number  1.
 Warning -- assumption of classical behavior for rotation
           may cause significant error
 Rotational temperatures (Kelvin)      0.07547     0.03099     0.02501
 Rotational constants (GHZ):           1.57258     0.64563     0.52107
 Zero-point vibrational energy     597561.1 (Joules/Mol)
                                  142.82052 (Kcal/Mol)
 Warning -- explicit consideration of  19 degrees of freedom as
           vibrations may cause significant error
 Vibrational temperatures:     84.17   107.60   110.98   136.51   224.89
          (Kelvin)            257.41   288.27   368.34   381.85   433.61
                              456.42   483.86   505.46   534.26   614.86
                              675.34   743.03   808.97   878.70  1011.90
                             1092.35  1150.91  1243.43  1276.09  1329.37
                             1384.81  1427.10  1459.28  1488.36  1532.67
                             1558.43  1581.37  1640.71  1652.78  1715.39
                             1785.71  1814.18  1841.41  1891.02  1925.69
                             1927.39  1960.80  1975.01  2002.67  2028.92
                             2055.15  2065.92  2110.31  2124.15  2132.77
                             2149.44  2160.72  2169.53  2190.73  2203.24
                             2232.28  2580.77  4320.27  4420.40  4423.00
                             4428.04  4430.01  4440.40  4469.28  4490.06
                             4511.16  4562.97  4566.96  4572.73  4587.33
                             4594.96  4955.32
 
 Zero-point correction=                           0.227599 (Hartree/Particle)
 Thermal correction to Energy=                    0.240154
 Thermal correction to Enthalpy=                  0.241098
 Thermal correction to Gibbs Free Energy=         0.188186
 Sum of electronic and zero-point Energies=           -535.402192
 Sum of electronic and thermal Energies=              -535.389637
 Sum of electronic and thermal Enthalpies=            -535.388693
 Sum of electronic and thermal Free Energies=         -535.441606
 
                     E (Thermal)             CV                S
                      KCal/Mol        Cal/Mol-Kelvin    Cal/Mol-Kelvin
 Total                  150.699             46.058            111.364
 Electronic               0.000              0.000              1.377
 Translational            0.889              2.981             41.102
 Rotational               0.889              2.981             30.786
 Vibrational            148.921             40.096             38.098
 Vibration     1          0.596              1.974              4.507
 Vibration     2          0.599              1.966              4.023
 Vibration     3          0.599              1.964              3.963
 Vibration     4          0.603              1.953              3.557
 Vibration     5          0.620              1.896              2.594
 Vibration     6          0.629              1.868              2.340
 Vibration     7          0.638              1.839              2.130
 Vibration     8          0.666              1.753              1.689
 Vibration     9          0.671              1.736              1.626
 Vibration    10          0.693              1.671              1.409
 Vibration    11          0.704              1.641              1.324
 Vibration    12          0.717              1.603              1.230
 Vibration    13          0.728              1.573              1.160
 Vibration    14          0.743              1.531              1.074
 Vibration    15          0.789              1.411              0.867
 Vibration    16          0.826              1.318              0.739
 Vibration    17          0.871              1.214              0.618
 Vibration    18          0.918              1.113              0.519
 Vibration    19          0.970              1.009              0.432
                       Q            Log10(Q)             Ln(Q)
 Total Bot       0.275899D-86        -86.559249       -199.310037
 Total V=0       0.134563D+19         18.128926         41.743395
 Vib (Bot)       0.146550-100       -100.834016       -232.178901
 Vib (Bot)    1  0.353068D+01          0.547858          1.261490
 Vib (Bot)    2  0.275600D+01          0.440280          1.013782
 Vib (Bot)    3  0.267111D+01          0.426692          0.982496
 Vib (Bot)    4  0.216509D+01          0.335475          0.772460
 Vib (Bot)    5  0.129486D+01          0.112223          0.258403
 Vib (Bot)    6  0.112307D+01          0.050406          0.116064
 Vib (Bot)    7  0.995064D+00         -0.002149         -0.004948
 Vib (Bot)    8  0.760162D+00         -0.119094         -0.274223
 Vib (Bot)    9  0.729887D+00         -0.136745         -0.314866
 Vib (Bot)   10  0.630550D+00         -0.200280         -0.461162
 Vib (Bot)   11  0.593561D+00         -0.226535         -0.521616
 Vib (Bot)   12  0.553429D+00         -0.256938         -0.591622
 Vib (Bot)   13  0.524725D+00         -0.280068         -0.644880
 Vib (Bot)   14  0.489844D+00         -0.309942         -0.713669
 Vib (Bot)   15  0.408563D+00         -0.388741         -0.895109
 Vib (Bot)   16  0.359541D+00         -0.444252         -1.022928
 Vib (Bot)   17  0.313577D+00         -0.503656         -1.159711
 Vib (Bot)   18  0.275813D+00         -0.559386         -1.288034
 Vib (Bot)   19  0.241792D+00         -0.616558         -1.419678
 Vib (V=0)       0.714760D+04          3.854160          8.874531
 Vib (V=0)    1  0.406590D+01          0.609157          1.402636
 Vib (V=0)    2  0.330099D+01          0.518645          1.194223
 Vib (V=0)    3  0.321751D+01          0.507520          1.168607
 Vib (V=0)    4  0.272207D+01          0.434899          1.001393
 Vib (V=0)    5  0.188804D+01          0.276012          0.635541
 Vib (V=0)    6  0.172934D+01          0.237881          0.547741
 Vib (V=0)    7  0.161362D+01          0.207802          0.478481
 Vib (V=0)    8  0.140986D+01          0.149176          0.343491
 Vib (V=0)    9  0.138472D+01          0.141363          0.325500
 Vib (V=0)   10  0.130473D+01          0.115521          0.265998
 Vib (V=0)   11  0.127609D+01          0.105881          0.243800
 Vib (V=0)   12  0.124584D+01          0.095464          0.219813
 Vib (V=0)   13  0.122480D+01          0.088066          0.202779
 Vib (V=0)   14  0.119996D+01          0.079168          0.182290
 Vib (V=0)   15  0.114570D+01          0.059070          0.136013
 Vib (V=0)   16  0.111585D+01          0.047605          0.109615
 Vib (V=0)   17  0.109020D+01          0.037504          0.086357
 Vib (V=0)   18  0.107103D+01          0.029801          0.068619
 Vib (V=0)   19  0.105539D+01          0.023415          0.053915
 Electronic      0.200000D+01          0.301030          0.693147
 Translational   0.788885D+08          7.897014         18.183546
 Rotational      0.119322D+07          6.076722         13.992170
 ***** Axes restored to original set *****
 -------------------------------------------------------------------
 Center     Atomic                   Forces (Hartrees/Bohr)
 Number     Number              X              Y              Z
 -------------------------------------------------------------------
      1        7          -0.000038514    0.000004955    0.000029715
      2        1           0.000014637   -0.000009533   -0.000043109
      3        6           0.000025497    0.000007646    0.000004317
      4        1          -0.000001277   -0.000002805    0.000008361
      5        1           0.000003492    0.000000503    0.000002220
      6        6          -0.000009610   -0.000013920    0.000017108
      7        1          -0.000000087    0.000012647   -0.000010931
      8        1          -0.000003321    0.000005230   -0.000006733
      9        6           0.000003258    0.000017035   -0.000000955
     10        1           0.000000065   -0.000001603    0.000003114
     11        1           0.000000087   -0.000004694   -0.000001905
     12        7           0.000008086   -0.000012650    0.000015502
     13        6          -0.000004807   -0.000003921   -0.000008032
     14        1          -0.000002199    0.000007091   -0.000002641
     15        1           0.000005016    0.000001707   -0.000000625
     16        1           0.000002562    0.000001365    0.000002205
     17        6          -0.000014309    0.000004977   -0.000005834
     18        1           0.000000193   -0.000001612   -0.000000531
     19        1           0.000002711   -0.000004566   -0.000001591
     20        1           0.000000422   -0.000002288    0.000001542
     21        6           0.000001767    0.000002938   -0.000015313
     22        1           0.000006811   -0.000005103    0.000002069
     23        1           0.000002521   -0.000000607    0.000005055
     24        6          -0.000006905    0.000025580    0.000009452
     25        8           0.000008717   -0.000009069   -0.000001807
     26        8          -0.000004813   -0.000019302   -0.000000653
 -------------------------------------------------------------------
 Cartesian Forces:  Max     0.000043109 RMS     0.000010944
 FormGI is forming the generalized inverse of G from B-inverse, IUseBI=4.

 GradGradGradGradGradGradGradGradGradGradGradGradGradGradGradGradGradGrad
 Berny optimization.
 Internal  Forces:  Max     0.000047071 RMS     0.000006988
 Search for a local minimum.
 Step number   1 out of a maximum of    2
 All quantities printed in internal units (Hartrees-Bohrs-Radians)
 Second derivative matrix not updated -- analytic derivatives used.
 ITU=  0
     Eigenvalues ---    0.00114   0.00149   0.00191   0.00265   0.00303
     Eigenvalues ---    0.00461   0.00858   0.01559   0.03504   0.03885
     Eigenvalues ---    0.03945   0.04023   0.04102   0.04429   0.04737
     Eigenvalues ---    0.04768   0.04796   0.05023   0.05135   0.05171
     Eigenvalues ---    0.05562   0.05735   0.06040   0.07377   0.07766
     Eigenvalues ---    0.08122   0.08794   0.09396   0.11034   0.12403
     Eigenvalues ---    0.12740   0.13028   0.13679   0.14240   0.14959
     Eigenvalues ---    0.15874   0.16467   0.17211   0.17440   0.18385
     Eigenvalues ---    0.18580   0.19631   0.20611   0.21969   0.22492
     Eigenvalues ---    0.26078   0.27174   0.27242   0.27794   0.28710
     Eigenvalues ---    0.31201   0.31478   0.32903   0.33277   0.33803
     Eigenvalues ---    0.34036   0.34364   0.34628   0.34657   0.34799
     Eigenvalues ---    0.34891   0.35029   0.35148   0.35300   0.35601
     Eigenvalues ---    0.35797   0.36860   0.40274   0.42526   0.57177
     Eigenvalues ---    0.63727   0.81867
 Angle between quadratic step and forces=  80.04 degrees.
 Linear search not attempted -- first point.
 Iteration  1 RMS(Cart)=  0.00044269 RMS(Int)=  0.00000013
 Iteration  2 RMS(Cart)=  0.00000019 RMS(Int)=  0.00000000
 Variable       Old X    -DE/DX   Delta X   Delta X   Delta X     New X
                                 (Linear)    (Quad)   (Total)
    R1        1.93481  -0.00005   0.00000  -0.00011  -0.00011   1.93470
    R2        2.70960  -0.00003   0.00000  -0.00012  -0.00012   2.70949
    R3        2.07596  -0.00000   0.00000   0.00002   0.00002   2.07599
    R4        2.06428  -0.00000   0.00000  -0.00000  -0.00000   2.06428
    R5        2.90559  -0.00000   0.00000   0.00001   0.00001   2.90560
    R6        2.06110  -0.00001   0.00000  -0.00003  -0.00003   2.06107
    R7        2.06011  -0.00001   0.00000  -0.00003  -0.00003   2.06008
    R8        2.89039  -0.00001   0.00000   0.00001   0.00001   2.89039
    R9        2.05912  -0.00000   0.00000  -0.00001  -0.00001   2.05911
   R10        2.05805   0.00000   0.00000   0.00001   0.00001   2.05807
   R11        2.84421  -0.00001   0.00000  -0.00004  -0.00004   2.84417
   R12        2.82245  -0.00001   0.00000  -0.00002  -0.00002   2.82242
   R13        2.82618   0.00001   0.00000   0.00004   0.00004   2.82622
   R14        2.86284  -0.00000   0.00000   0.00003   0.00003   2.86288
   R15        2.05438   0.00000   0.00000   0.00001   0.00001   2.05439
   R16        2.05567  -0.00000   0.00000  -0.00000  -0.00000   2.05566
   R17        2.05141   0.00000   0.00000   0.00001   0.00001   2.05142
   R18        2.05568   0.00000   0.00000   0.00000   0.00000   2.05569
   R19        2.05318  -0.00000   0.00000  -0.00002  -0.00002   2.05317
   R20        2.05450  -0.00000   0.00000  -0.00001  -0.00001   2.05450
   R21        2.05651  -0.00000   0.00000  -0.00001  -0.00001   2.05651
   R22        2.05301   0.00001   0.00000   0.00002   0.00002   2.05303
   R23        2.97924   0.00000   0.00000   0.00005   0.00005   2.97929
   R24        2.35131  -0.00000   0.00000   0.00001   0.00001   2.35132
   R25        2.31958  -0.00002   0.00000  -0.00004  -0.00004   2.31954
    A1        1.87662   0.00000   0.00000   0.00006   0.00006   1.87668
    A2        1.89448  -0.00000   0.00000  -0.00008  -0.00008   1.89440
    A3        1.89904  -0.00000   0.00000   0.00001   0.00001   1.89905
    A4        1.97518   0.00000   0.00000   0.00014   0.00014   1.97532
    A5        1.86663   0.00000   0.00000   0.00002   0.00002   1.86665
    A6        1.91537  -0.00001   0.00000  -0.00017  -0.00017   1.91519
    A7        1.90993   0.00000   0.00000   0.00007   0.00007   1.91001
    A8        1.91743  -0.00001   0.00000  -0.00018  -0.00018   1.91726
    A9        1.88329  -0.00000   0.00000   0.00007   0.00007   1.88335
   A10        1.98724   0.00000   0.00000  -0.00013  -0.00013   1.98711
   A11        1.84832   0.00001   0.00000   0.00012   0.00012   1.84844
   A12        1.94372   0.00000   0.00000   0.00003   0.00003   1.94375
   A13        1.87708  -0.00000   0.00000   0.00012   0.00012   1.87721
   A14        1.92066   0.00000   0.00000   0.00002   0.00002   1.92068
   A15        1.92929   0.00000   0.00000   0.00006   0.00006   1.92936
   A16        2.03794  -0.00001   0.00000  -0.00007  -0.00007   2.03786
   A17        1.87621  -0.00000   0.00000  -0.00003  -0.00003   1.87618
   A18        1.85178   0.00000   0.00000  -0.00000  -0.00000   1.85178
   A19        1.83958  -0.00000   0.00000   0.00003   0.00003   1.83961
   A20        1.92933   0.00000   0.00000   0.00002   0.00002   1.92935
   A21        1.87740   0.00000   0.00000   0.00003   0.00003   1.87743
   A22        1.93943  -0.00000   0.00000  -0.00007  -0.00007   1.93936
   A23        1.89360  -0.00000   0.00000   0.00000   0.00000   1.89360
   A24        1.91772  -0.00000   0.00000   0.00004   0.00004   1.91776
   A25        1.90523   0.00000   0.00000  -0.00003  -0.00003   1.90520
   A26        1.86307  -0.00001   0.00000  -0.00004  -0.00004   1.86303
   A27        1.89536  -0.00000   0.00000  -0.00002  -0.00002   1.89534
   A28        1.90621   0.00000   0.00000  -0.00000  -0.00000   1.90621
   A29        1.95443   0.00001   0.00000   0.00009   0.00009   1.95451
   A30        1.92136   0.00000   0.00000  -0.00000  -0.00000   1.92136
   A31        1.92186  -0.00000   0.00000  -0.00003  -0.00003   1.92184
   A32        1.89613   0.00000   0.00000  -0.00001  -0.00001   1.89612
   A33        1.87123   0.00000   0.00000   0.00002   0.00002   1.87125
   A34        1.89089  -0.00000   0.00000  -0.00000  -0.00000   1.89089
   A35        1.95527  -0.00000   0.00000  -0.00002  -0.00002   1.95525
   A36        1.92213  -0.00000   0.00000  -0.00001  -0.00001   1.92212
   A37        1.92616  -0.00000   0.00000   0.00002   0.00002   1.92619
   A38        1.86220   0.00000   0.00000  -0.00003  -0.00003   1.86217
   A39        1.86915   0.00001   0.00000  -0.00000  -0.00000   1.86915
   A40        2.05065  -0.00003   0.00000  -0.00007  -0.00007   2.05058
   A41        1.90562  -0.00000   0.00000  -0.00002  -0.00002   1.90560
   A42        1.89714   0.00002   0.00000   0.00013   0.00013   1.89727
   A43        1.87580   0.00001   0.00000  -0.00001  -0.00001   1.87579
   A44        2.05055  -0.00002   0.00000  -0.00009  -0.00009   2.05046
   A45        1.92059   0.00001   0.00000   0.00007   0.00007   1.92067
   A46        2.31199   0.00001   0.00000   0.00001   0.00001   2.31200
    D1        1.20135  -0.00000   0.00000   0.00051   0.00051   1.20186
    D2       -3.05644   0.00000   0.00000   0.00050   0.00050  -3.05595
    D3       -0.92938   0.00000   0.00000   0.00069   0.00069  -0.92869
    D4        1.05068  -0.00000   0.00000  -0.00018  -0.00018   1.05050
    D5       -0.95668  -0.00000   0.00000  -0.00027  -0.00027  -0.95695
    D6       -3.03886  -0.00000   0.00000  -0.00038  -0.00038  -3.03924
    D7       -1.06833   0.00000   0.00000  -0.00005  -0.00005  -1.06838
    D8       -3.07569   0.00000   0.00000  -0.00014  -0.00014  -3.07582
    D9        1.12532   0.00000   0.00000  -0.00025  -0.00025   1.12507
   D10       -3.11156   0.00000   0.00000  -0.00001  -0.00001  -3.11157
   D11        1.16427  -0.00000   0.00000  -0.00010  -0.00010   1.16416
   D12       -0.91791  -0.00000   0.00000  -0.00022  -0.00022  -0.91813
   D13        0.38112  -0.00000   0.00000  -0.00089  -0.00089   0.38023
   D14        2.45089   0.00000   0.00000  -0.00088  -0.00088   2.45000
   D15       -1.73026  -0.00000   0.00000  -0.00085  -0.00085  -1.73111
   D16        2.56080  -0.00001   0.00000  -0.00121  -0.00121   2.55959
   D17       -1.65262  -0.00000   0.00000  -0.00120  -0.00120  -1.65382
   D18        0.44942  -0.00001   0.00000  -0.00117  -0.00117   0.44825
   D19       -1.70458   0.00000   0.00000  -0.00098  -0.00098  -1.70555
   D20        0.36519   0.00000   0.00000  -0.00097  -0.00097   0.36423
   D21        2.46723  -0.00000   0.00000  -0.00093  -0.00093   2.46629
   D22       -1.18231   0.00000   0.00000   0.00014   0.00014  -1.18217
   D23        3.03628  -0.00000   0.00000   0.00010   0.00010   3.03639
   D24        0.95181  -0.00000   0.00000   0.00016   0.00016   0.95197
   D25        2.95352   0.00000   0.00000   0.00016   0.00016   2.95368
   D26        0.88893  -0.00000   0.00000   0.00013   0.00013   0.88906
   D27       -1.19554  -0.00000   0.00000   0.00018   0.00018  -1.19536
   D28        0.96671   0.00000   0.00000   0.00019   0.00019   0.96690
   D29       -1.09788  -0.00000   0.00000   0.00016   0.00016  -1.09773
   D30        3.10083  -0.00000   0.00000   0.00021   0.00021   3.10104
   D31       -3.11943  -0.00000   0.00000  -0.00011  -0.00011  -3.11953
   D32       -1.00922  -0.00000   0.00000  -0.00004  -0.00004  -1.00925
   D33        1.08696  -0.00000   0.00000  -0.00008  -0.00008   1.08688
   D34       -1.06475   0.00000   0.00000  -0.00005  -0.00005  -1.06480
   D35        1.04546   0.00000   0.00000   0.00002   0.00002   1.04548
   D36       -3.14154   0.00000   0.00000  -0.00003  -0.00003  -3.14157
   D37        1.01696  -0.00000   0.00000  -0.00006  -0.00006   1.01690
   D38        3.12717   0.00000   0.00000   0.00001   0.00001   3.12719
   D39       -1.05983   0.00000   0.00000  -0.00003  -0.00003  -1.05987
   D40        1.00697   0.00000   0.00000  -0.00002  -0.00002   1.00695
   D41        3.12333   0.00000   0.00000  -0.00004  -0.00004   3.12330
   D42       -1.08104   0.00000   0.00000   0.00000   0.00000  -1.08104
   D43       -1.08053  -0.00000   0.00000  -0.00006  -0.00006  -1.08059
   D44        1.03584  -0.00000   0.00000  -0.00008  -0.00008   1.03575
   D45        3.11465  -0.00000   0.00000  -0.00005  -0.00005   3.11460
   D46        3.11312   0.00000   0.00000  -0.00010  -0.00010   3.11302
   D47       -1.05370   0.00000   0.00000  -0.00012  -0.00012  -1.05382
   D48        1.02511   0.00000   0.00000  -0.00008  -0.00008   1.02503
   D49        0.94749   0.00000   0.00000  -0.00007  -0.00007   0.94742
   D50       -1.09138  -0.00000   0.00000  -0.00004  -0.00004  -1.09141
   D51        3.08090   0.00000   0.00000   0.00002   0.00002   3.08093
   D52        3.08833   0.00000   0.00000  -0.00006  -0.00006   3.08826
   D53        1.04946  -0.00000   0.00000  -0.00003  -0.00003   1.04943
   D54       -1.06144   0.00000   0.00000   0.00003   0.00003  -1.06141
   D55       -1.12028  -0.00000   0.00000  -0.00005  -0.00005  -1.12034
   D56        3.12404  -0.00000   0.00000  -0.00002  -0.00002   3.12402
   D57        1.01313   0.00000   0.00000   0.00004   0.00004   1.01317
   D58        0.05382  -0.00000   0.00000   0.00019   0.00019   0.05401
   D59       -3.09740   0.00000   0.00000   0.00020   0.00020  -3.09719
   D60        2.16919  -0.00000   0.00000   0.00021   0.00021   2.16940
   D61       -0.98202  -0.00000   0.00000   0.00022   0.00022  -0.98181
   D62       -2.05362   0.00000   0.00000   0.00025   0.00025  -2.05337
   D63        1.07835   0.00001   0.00000   0.00026   0.00026   1.07861
         Item               Value     Threshold  Converged?
 Maximum Force            0.000047     0.000450     YES
 RMS     Force            0.000007     0.000300     YES
 Maximum Displacement     0.001833     0.001800     NO 
 RMS     Displacement     0.000443     0.001200     YES
 Predicted change in Energy=-2.380470D-08
                           ----------------------------
                           ! Non-Optimized Parameters !
                           ! (Angstroms and Degrees)  !
 --------------------------                            --------------------------
 ! Name  Definition              Value          Derivative Info.                !
 --------------------------------------------------------------------------------
 ! R1    R(1,2)                  1.0238         -DE/DX =    0.0                 !
 ! R2    R(1,3)                  1.4338         -DE/DX =    0.0                 !
 ! R3    R(3,4)                  1.0986         -DE/DX =    0.0                 !
 ! R4    R(3,5)                  1.0924         -DE/DX =    0.0                 !
 ! R5    R(3,6)                  1.5376         -DE/DX =    0.0                 !
 ! R6    R(6,7)                  1.0907         -DE/DX =    0.0                 !
 ! R7    R(6,8)                  1.0901         -DE/DX =    0.0                 !
 ! R8    R(6,9)                  1.5295         -DE/DX =    0.0                 !
 ! R9    R(9,10)                 1.0896         -DE/DX =    0.0                 !
 ! R10   R(9,11)                 1.0891         -DE/DX =    0.0                 !
 ! R11   R(9,12)                 1.5051         -DE/DX =    0.0                 !
 ! R12   R(12,13)                1.4936         -DE/DX =    0.0                 !
 ! R13   R(12,17)                1.4956         -DE/DX =    0.0                 !
 ! R14   R(12,21)                1.515          -DE/DX =    0.0                 !
 ! R15   R(13,14)                1.0871         -DE/DX =    0.0                 !
 ! R16   R(13,15)                1.0878         -DE/DX =    0.0                 !
 ! R17   R(13,16)                1.0856         -DE/DX =    0.0                 !
 ! R18   R(17,18)                1.0878         -DE/DX =    0.0                 !
 ! R19   R(17,19)                1.0865         -DE/DX =    0.0                 !
 ! R20   R(17,20)                1.0872         -DE/DX =    0.0                 !
 ! R21   R(21,22)                1.0883         -DE/DX =    0.0                 !
 ! R22   R(21,23)                1.0864         -DE/DX =    0.0                 !
 ! R23   R(21,24)                1.5766         -DE/DX =    0.0                 !
 ! R24   R(24,25)                1.2443         -DE/DX =    0.0                 !
 ! R25   R(24,26)                1.2274         -DE/DX =    0.0                 !
 ! A1    A(2,1,3)              107.526          -DE/DX =    0.0                 !
 ! A2    A(1,3,4)              108.5409         -DE/DX =    0.0                 !
 ! A3    A(1,3,5)              108.8076         -DE/DX =    0.0                 !
 ! A4    A(1,3,6)              113.1777         -DE/DX =    0.0                 !
 ! A5    A(4,3,5)              106.9512         -DE/DX =    0.0                 !
 ! A6    A(4,3,6)              109.7325         -DE/DX =    0.0                 !
 ! A7    A(5,3,6)              109.4353         -DE/DX =    0.0                 !
 ! A8    A(3,6,7)              109.8507         -DE/DX =    0.0                 !
 ! A9    A(3,6,8)              107.908          -DE/DX =    0.0                 !
 ! A10   A(3,6,9)              113.8532         -DE/DX =    0.0                 !
 ! A11   A(7,6,8)              105.9079         -DE/DX =    0.0                 !
 ! A12   A(7,6,9)              111.3684         -DE/DX =    0.0                 !
 ! A13   A(8,6,9)              107.5559         -DE/DX =    0.0                 !
 ! A14   A(6,9,10)             110.0469         -DE/DX =    0.0                 !
 ! A15   A(6,9,11)             110.544          -DE/DX =    0.0                 !
 ! A16   A(6,9,12)             116.761          -DE/DX =    0.0                 !
 ! A17   A(10,9,11)            107.497          -DE/DX =    0.0                 !
 ! A18   A(10,9,12)            106.099          -DE/DX =    0.0                 !
 ! A19   A(11,9,12)            105.4017         -DE/DX =    0.0                 !
 ! A20   A(9,12,13)            110.5439         -DE/DX =    0.0                 !
 ! A21   A(9,12,17)            107.5691         -DE/DX =    0.0                 !
 ! A22   A(9,12,21)            111.1169         -DE/DX =    0.0                 !
 ! A23   A(13,12,17)           108.495          -DE/DX =    0.0                 !
 ! A24   A(13,12,21)           109.8798         -DE/DX =    0.0                 !
 ! A25   A(17,12,21)           109.1602         -DE/DX =    0.0                 !
 ! A26   A(12,13,14)           106.7436         -DE/DX =    0.0                 !
 ! A27   A(12,13,15)           108.595          -DE/DX =    0.0                 !
 ! A28   A(12,13,16)           109.2177         -DE/DX =    0.0                 !
 ! A29   A(14,13,15)           111.9855         -DE/DX =    0.0                 !
 ! A30   A(14,13,16)           110.0856         -DE/DX =    0.0                 !
 ! A31   A(15,13,16)           110.113          -DE/DX =    0.0                 !
 ! A32   A(12,17,18)           108.6398         -DE/DX =    0.0                 !
 ! A33   A(12,17,19)           107.2149         -DE/DX =    0.0                 !
 ! A34   A(12,17,20)           108.3398         -DE/DX =    0.0                 !
 ! A35   A(18,17,19)           112.0274         -DE/DX =    0.0                 !
 ! A36   A(18,17,20)           110.1296         -DE/DX =    0.0                 !
 ! A37   A(19,17,20)           110.3624         -DE/DX =    0.0                 !
 ! A38   A(12,21,22)           106.6942         -DE/DX =    0.0                 !
 ! A39   A(12,21,23)           107.0944         -DE/DX =    0.0                 !
 ! A40   A(12,21,24)           117.4896         -DE/DX =    0.0                 !
 ! A41   A(22,21,23)           109.1831         -DE/DX =    0.0                 !
 ! A42   A(22,21,24)           108.7056         -DE/DX =    0.0                 !
 ! A43   A(23,21,24)           107.4751         -DE/DX =    0.0                 !
 ! A44   A(21,24,25)           117.4829         -DE/DX =    0.0                 !
 ! A45   A(21,24,26)           110.0461         -DE/DX =    0.0                 !
 ! A46   A(25,24,26)           132.468          -DE/DX =    0.0                 !
 ! D1    D(2,1,3,4)             68.8614         -DE/DX =    0.0                 !
 ! D2    D(2,1,3,5)           -175.0928         -DE/DX =    0.0                 !
 ! D3    D(2,1,3,6)            -53.2098         -DE/DX =    0.0                 !
 ! D4    D(1,3,6,7)             60.1892         -DE/DX =    0.0                 !
 ! D5    D(1,3,6,8)            -54.829          -DE/DX =    0.0                 !
 ! D6    D(1,3,6,9)           -174.1356         -DE/DX =    0.0                 !
 ! D7    D(4,3,6,7)            -61.2135         -DE/DX =    0.0                 !
 ! D8    D(4,3,6,8)           -176.2317         -DE/DX =    0.0                 !
 ! D9    D(4,3,6,9)             64.4617         -DE/DX =    0.0                 !
 ! D10   D(5,3,6,7)           -178.2801         -DE/DX =    0.0                 !
 ! D11   D(5,3,6,8)             66.7017         -DE/DX =    0.0                 !
 ! D12   D(5,3,6,9)            -52.6049         -DE/DX =    0.0                 !
 ! D13   D(3,6,9,10)            21.7854         -DE/DX =    0.0                 !
 ! D14   D(3,6,9,11)           140.3749         -DE/DX =    0.0                 !
 ! D15   D(3,6,9,12)           -99.1855         -DE/DX =    0.0                 !
 ! D16   D(7,6,9,10)           146.6536         -DE/DX =    0.0                 !
 ! D17   D(7,6,9,11)           -94.7568         -DE/DX =    0.0                 !
 ! D18   D(7,6,9,12)            25.6828         -DE/DX =    0.0                 !
 ! D19   D(8,6,9,10)           -97.7209         -DE/DX =    0.0                 !
 ! D20   D(8,6,9,11)            20.8686         -DE/DX =    0.0                 !
 ! D21   D(8,6,9,12)           141.3082         -DE/DX =    0.0                 !
 ! D22   D(6,9,12,13)          -67.7335         -DE/DX =    0.0                 !
 ! D23   D(6,9,12,17)          173.9722         -DE/DX =    0.0                 !
 ! D24   D(6,9,12,21)           54.5439         -DE/DX =    0.0                 !
 ! D25   D(10,9,12,13)         169.2335         -DE/DX =    0.0                 !
 ! D26   D(10,9,12,17)          50.9392         -DE/DX =    0.0                 !
 ! D27   D(10,9,12,21)         -68.4891         -DE/DX =    0.0                 !
 ! D28   D(11,9,12,13)          55.3992         -DE/DX =    0.0                 !
 ! D29   D(11,9,12,17)         -62.895          -DE/DX =    0.0                 !
 ! D30   D(11,9,12,21)         177.6766         -DE/DX =    0.0                 !
 ! D31   D(9,12,13,14)        -178.7361         -DE/DX =    0.0                 !
 ! D32   D(9,12,13,15)         -57.8259         -DE/DX =    0.0                 !
 ! D33   D(9,12,13,16)          62.2736         -DE/DX =    0.0                 !
 ! D34   D(17,12,13,14)        -61.0085         -DE/DX =    0.0                 !
 ! D35   D(17,12,13,15)         59.9018         -DE/DX =    0.0                 !
 ! D36   D(17,12,13,16)       -179.9988         -DE/DX =    0.0                 !
 ! D37   D(21,12,13,14)         58.2644         -DE/DX =    0.0                 !
 ! D38   D(21,12,13,15)        179.1746         -DE/DX =    0.0                 !
 ! D39   D(21,12,13,16)        -60.7259         -DE/DX =    0.0                 !
 ! D40   D(9,12,17,18)          57.694          -DE/DX =    0.0                 !
 ! D41   D(9,12,17,19)         178.9517         -DE/DX =    0.0                 !
 ! D42   D(9,12,17,20)         -61.9392         -DE/DX =    0.0                 !
 ! D43   D(13,12,17,18)        -61.9133         -DE/DX =    0.0                 !
 ! D44   D(13,12,17,19)         59.3443         -DE/DX =    0.0                 !
 ! D45   D(13,12,17,20)        178.4535         -DE/DX =    0.0                 !
 ! D46   D(21,12,17,18)        178.3629         -DE/DX =    0.0                 !
 ! D47   D(21,12,17,19)        -60.3795         -DE/DX =    0.0                 !
 ! D48   D(21,12,17,20)         58.7297         -DE/DX =    0.0                 !
 ! D49   D(9,12,21,22)          54.2829         -DE/DX =    0.0                 !
 ! D50   D(9,12,21,23)         -62.5335         -DE/DX =    0.0                 !
 ! D51   D(9,12,21,24)         176.524          -DE/DX =    0.0                 !
 ! D52   D(13,12,21,22)        176.9445         -DE/DX =    0.0                 !
 ! D53   D(13,12,21,23)         60.1281         -DE/DX =    0.0                 !
 ! D54   D(13,12,21,24)        -60.8144         -DE/DX =    0.0                 !
 ! D55   D(17,12,21,22)        -64.1906         -DE/DX =    0.0                 !
 ! D56   D(17,12,21,23)        178.993          -DE/DX =    0.0                 !
 ! D57   D(17,12,21,24)         58.0505         -DE/DX =    0.0                 !
 ! D58   D(12,21,24,25)          3.0948         -DE/DX =    0.0                 !
 ! D59   D(12,21,24,26)       -177.4561         -DE/DX =    0.0                 !
 ! D60   D(22,21,24,25)        124.2973         -DE/DX =    0.0                 !
 ! D61   D(22,21,24,26)        -56.2535         -DE/DX =    0.0                 !
 ! D62   D(23,21,24,25)       -117.6494         -DE/DX =    0.0                 !
 ! D63   D(23,21,24,26)         61.7998         -DE/DX =    0.0                 !
 --------------------------------------------------------------------------------
 GradGradGradGradGradGradGradGradGradGradGradGradGradGradGradGradGradGrad


 ----------------------------------------------------------------------

 Electric dipole moment (input orientation):
 (Debye = 10**-18 statcoulomb cm , SI units = C m)
                  (au)            (Debye)         (10**-30 SI)
   Tot        0.423152D+01      0.107555D+02      0.358764D+02
   x          0.244068D+01      0.620359D+01      0.206929D+02
   y         -0.345170D+01     -0.877335D+01     -0.292647D+02
   z         -0.186093D+00     -0.473000D+00     -0.157776D+01

 Dipole polarizability, Alpha (input orientation).
 (esu units = cm**3 , SI units = C**2 m**2 J**-1)
 Alpha(0;0):
               (au)            (10**-24 esu)      (10**-40 SI)
   iso        0.106958D+03      0.158495D+02      0.176350D+02
   aniso      0.259799D+02      0.384982D+01      0.428350D+01
   xx         0.120187D+03      0.178099D+02      0.198162D+02
   yx         0.126004D+01      0.186719D+00      0.207753D+00
   yy         0.109896D+03      0.162849D+02      0.181194D+02
   zx         0.839107D+00      0.124343D+00      0.138350D+00
   zy         0.419122D+00      0.621074D-01      0.691038D-01
   zz         0.907904D+02      0.134538D+02      0.149693D+02

 ----------------------------------------------------------------------

 Dipole orientation:
     7          3.50368774          3.42194641          1.06891338
     1          2.27284869          4.71959119          0.33090760
     6          2.43929760          0.96381667          0.66070924
     1          2.47813271          0.55717412         -1.37466602
     1          3.64030000         -0.44217444          1.57834169
     6         -0.27768132          0.71421510          1.65979202
     1         -1.50079524          2.07421783          0.70978079
     1         -0.27313011          1.25207652          3.64844382
     6         -1.34643484         -1.96557424          1.48419847
     1          0.18977813         -3.33236114          1.37504833
     1         -2.45436257         -2.41237312          3.16004162
     7         -3.05471492         -2.52129906         -0.72090899
     6         -5.47493189         -1.08851307         -0.48452889
     1         -6.62957336         -1.60584724         -2.10306243
     1         -6.36925883         -1.60124607          1.29396830
     1         -5.07479121          0.92319997         -0.51877262
     6         -3.64074816         -5.28559374         -0.67049818
     1         -4.50506972         -5.74113831          1.13816446
     1         -4.90198329         -5.66813943         -2.24482555
     1         -1.88195817         -6.32348181         -0.89505442
     6         -1.77988036         -1.87608461         -3.20170724
     1          0.01124338         -2.88630376         -3.22583593
     1         -1.41480686          0.14413700         -3.18509188
     6         -3.26054949         -2.49706301         -5.71126455
     8         -5.43109742         -3.37646893         -5.50140125
     8         -1.95950781         -1.96096015         -7.55526744

 Electric dipole moment (dipole orientation):
 (Debye = 10**-18 statcoulomb cm , SI units = C m)
                  (au)            (Debye)         (10**-30 SI)
   Tot        0.423152D+01      0.107555D+02      0.358764D+02
   x          0.000000D+00      0.000000D+00      0.000000D+00
   y          0.000000D+00      0.000000D+00      0.000000D+00
   z          0.423152D+01      0.107555D+02      0.358764D+02

 Dipole polarizability, Alpha (dipole orientation).
 (esu units = cm**3 , SI units = C**2 m**2 J**-1)
 Alpha(0;0):
               (au)            (10**-24 esu)      (10**-40 SI)
   iso        0.106958D+03      0.158495D+02      0.176350D+02
   aniso      0.259799D+02      0.384982D+01      0.428350D+01
   xx         0.107855D+03      0.159824D+02      0.177828D+02
   yx         0.131490D+02      0.194848D+01      0.216798D+01
   yy         0.100934D+03      0.149569D+02      0.166419D+02
   zx         0.295808D+01      0.438343D+00      0.487722D+00
   zy         0.341388D+01      0.505885D+00      0.562873D+00
   zz         0.112084D+03      0.166092D+02      0.184802D+02

 ----------------------------------------------------------------------
 1\1\GINC-CCLEARNI\Freq\UwB97XD\6-311+G(2d,2p)\C7H15N2O2(2)\TROUPPER\28
 -Sep-2026\0\\#N Geom=AllCheck Guess=TCheck SCRF=Check GenChk UwB97XD/6
 -311+G(2d,2p) Freq\\opt freq\\0,2\N,2.4263010355,1.001547586,0.3828266
 197\H,2.1143071372,1.2083268222,1.3358159781\C,1.2943002036,0.50510896
 82,-0.343864985\H,0.5805591541,1.3283862454,-0.483880708\H,1.622609283
 ,0.1955925514,-1.3386961508\C,0.5967952043,-0.6738759604,0.3544227747\
 H,0.2389977009,-0.3635397663,1.3369052251\H,1.3454176527,-1.4445762397
 ,0.5389248023\C,-0.5234392002,-1.3075177892,-0.4720309999\H,-0.3826581
 876,-1.0802131811,-1.528357648\H,-0.5105638991,-2.3913160721,-0.365731
 1818\N,-1.9306211665,-0.8899514295,-0.1391918337\C,-2.3203904374,-1.39
 17753153,1.2124798387\H,-3.3475166445,-1.0770493392,1.3792574075\H,-2.
 2196547971,-2.4748647652,1.2227342911\H,-1.6688796612,-0.9491556346,1.
 9595129189\C,-2.8373277215,-1.5090313413,-1.1547190158\H,-2.7021387978
 ,-2.5881276149,-1.1296391405\H,-3.8526370861,-1.2194630379,-0.89825329
 62\H,-2.5693213373,-1.1210351697,-2.1343241152\C,-2.0799254379,0.61669
 70365,-0.1920550561\H,-1.7323823934,0.9310492161,-1.1742500095\H,-1.42
 27748117,1.0295995087,0.5681704607\C,-3.5184927466,1.2144590878,0.0502
 304176\O,-4.4323656184,0.417131129,0.3282436662\O,-3.492806537,2.43550
 29551,-0.0725499301\\Version=EM64M-G16RevA.03\State=2-A\HF=-535.629791
 2\S2=0.754278\S2-1=0.\S2A=0.750014\RMSD=1.554e-09\RMSF=1.094e-05\ZeroP
 oint=0.227599\Thermal=0.240154\Dipole=2.4406797,-3.451702,-0.1860926\D
 ipoleDeriv=-0.2249501,-0.0076244,-0.1188813,0.0295052,-0.4882435,0.049
 0563,-0.0842115,0.0829746,-0.1539175,0.1786576,0.0394334,0.1683704,0.0
 089298,0.250373,-0.0040091,0.0956144,-0.041369,0.001846,-0.0062491,-0.
 0671953,-0.0432299,0.0138318,0.3036946,0.0405642,0.0265144,0.0193396,0
 .2503029,0.0521413,0.0443071,-0.0283656,0.0622091,-0.0396538,0.0103958
 ,-0.0438499,-0.0294626,0.0422412,0.0279709,-0.01074,0.0241001,-0.03081
 02,-0.001933,-0.076428,0.0125894,-0.045473,-0.1124019,0.0196247,-0.010
 7967,-0.0338777,-0.0250836,0.072663,-0.0304083,-0.0882297,-0.0060795,-
 0.0004524,0.0446622,-0.0089736,0.0554133,-0.0196326,0.0251095,-0.05871
 57,0.0628047,-0.0244552,-0.064728,-0.0462228,0.056575,-0.0292846,0.034
 1118,-0.0399788,0.0280774,0.0002026,0.0175324,0.0719504,0.5160894,-0.0
 547436,-0.0141778,-0.0888679,0.1275508,0.018492,-0.0165202,0.0437392,0
 .140338,0.0245337,0.006838,0.0017323,0.011727,0.0724737,0.0618643,0.00
 72999,0.0096723,-0.0618424,-0.0420973,-0.0298216,-0.0022527,-0.0069244
 ,-0.1055248,-0.0099634,-0.0135733,0.0211296,0.0754271,-0.410815,0.0615
 665,-0.026147,0.071782,-0.5208395,-0.0152615,-0.0181979,-0.0304758,-0.
 3388961,-0.0583894,0.0978018,-0.0580392,0.0816732,0.1408884,-0.0755089
 ,-0.015023,-0.0909127,0.2899986,0.1382979,-0.1109329,0.0578091,-0.0650
 976,0.1862494,-0.0354097,0.0113457,-0.0377061,0.092673,0.0916132,0.049
 4419,0.0001152,0.0225199,-0.0898601,0.022611,0.0114644,-0.040282,0.044
 9319,0.0390078,-0.0382114,-0.0799806,-0.073663,0.03681,-0.0344544,-0.0
 52685,-0.0100345,0.0034499,0.0398462,0.1254442,0.1478143,0.1156103,0.1
 671088,0.0635811,0.1571082,0.0641695,0.2349037,0.0768653,0.0673779,-0.
 0169262,0.0192247,-0.0881574,-0.0173154,-0.0336894,0.0294613,0.05489,0
 .0938067,-0.0914248,-0.053112,-0.0380822,0.1917553,0.0373969,-0.020801
 1,0.0606382,0.0993667,0.0598723,-0.0332694,0.0543576,-0.051039,0.04981
 62,0.0564123,0.0123926,0.0167656,-0.0301416,-0.3285439,0.0903535,0.065
 46,-0.0181934,0.5140413,-0.0227208,0.0966652,-0.0375329,0.141026,0.066
 9365,-0.0024795,0.0496068,0.0203164,0.0023707,-0.007746,0.1065918,-0.0
 01145,-0.0334868,0.0317366,-0.019189,-0.0552909,-0.0099678,-0.0031862,
 -0.00473,-0.1324974,-0.0016579,0.0016708,1.5811729,0.0460119,-0.277345
 1,-0.0535661,2.1316646,-0.2078692,-0.3131479,-0.2047449,0.2288422,-1.2
 337858,-0.3775688,0.178799,-0.1684584,-1.1886792,0.1042732,0.1852209,0
 .1519845,-0.5216204,-0.7317821,0.1778198,0.0333325,0.1579451,-1.706513
 1,0.1078156,0.0466123,0.0839243,-0.4563713\Polar=120.1871996,1.2600404
 ,109.8958639,0.8391071,0.4191216,90.7904163\Quadrupole=-16.5478204,2.7
 223252,13.8254952,8.2442059,3.1898504,1.1924916\PG=C01 [X(C7H15N2O2)]\
 NImag=0\\0.28526028,0.06305835,0.07720992,-0.02930522,0.13564411,0.489
 96886,-0.07732973,0.02131684,0.14209949,0.07700909,0.00694333,-0.01773
 214,-0.07301025,-0.01056531,0.02650167,0.09230268,-0.08364935,-0.35268
 994,-0.10023751,0.08589868,0.37404614,-0.15928907,-0.05876134,-0.07472
 765,0.00168618,0.00668654,0.01234432,0.46991226,-0.05197127,-0.0455488
 0,-0.05645319,-0.00816322,-0.01387277,-0.00114831,-0.04855308,0.467938
 79,-0.03389877,-0.04796703,-0.12328581,-0.03967085,-0.00775576,-0.0260
 8960,-0.02068401,0.06032142,0.57756880,-0.02693057,0.00488723,-0.00875
 218,-0.00007375,0.00223015,-0.00074915,-0.14343115,0.13239342,-0.01891
 870,0.16864043,-0.00347948,0.00414888,0.00315808,-0.00036899,0.0030625
 9,0.00018372,0.11515146,-0.17974556,0.01186455,-0.13264936,0.20049860,
 -0.01557883,0.00968167,-0.00290377,-0.00013247,0.00038264,0.00044975,-
 0.01865580,0.01925423,-0.05254073,0.02263707,-0.02338561,0.05359060,0.
 00588652,-0.01069035,-0.03284243,-0.00329793,-0.00290970,-0.00502854,-
 0.07747092,0.02689435,0.08331757,-0.00599926,0.00594677,0.01892578,0.0
 8707106,0.00110568,-0.00685672,-0.01214396,-0.00264399,0.00289326,-0.0
 0166723,0.02491085,-0.07199858,-0.06565212,0.00802034,-0.00698962,-0.0
 2187001,-0.01989004,0.07908056,-0.00345833,-0.00640269,-0.02021465,-0.
 00249963,-0.00263286,-0.00033868,0.07803205,-0.06454170,-0.25465127,-0
 .00032358,0.00123288,0.00369580,-0.07766644,0.07372912,0.28412539,-0.0
 2917418,-0.01937192,0.00084450,0.00269051,-0.00124713,0.00173717,-0.07
 851942,-0.02984230,0.02703193,0.01115289,0.01723558,-0.00790352,-0.005
 76539,-0.01078583,0.00604224,0.51128213,-0.01502587,-0.01240861,-0.000
 77775,-0.00020098,0.00073200,0.00038657,-0.02098739,-0.12957012,0.0407
 2570,-0.01355306,-0.02094941,0.01423329,0.00340659,0.00497406,-0.00364
 356,-0.06917497,0.51085840,-0.00959580,-0.00653274,0.00716441,-0.00067
 493,-0.00379867,0.00394457,0.01794740,0.02990371,-0.10851698,0.0047121
 1,0.00535026,-0.00209841,0.01247456,0.02434730,-0.01375733,-0.01872649
 ,0.02757493,0.55132202,0.00082683,0.00063130,0.00084187,-0.00048929,-0
 .00063861,-0.00072874,-0.00606407,0.00349751,0.01280156,0.00042141,0.0
 0003066,-0.00088736,-0.00071213,-0.00260604,0.00066360,-0.07642264,0.0
 2614980,0.07926659,0.08776472,0.00174209,0.00113741,0.00100426,-0.0001
 6537,0.00008375,-0.00128141,-0.01072974,0.00743499,0.02534304,0.000687
 86,0.00128751,-0.00035421,-0.00277340,-0.00374476,0.00232207,0.0244998
 3,-0.07013771,-0.07270113,-0.02555024,0.07549792,-0.00094888,-0.000420
 64,0.00175153,0.00075788,0.00036815,0.00054539,0.00561848,-0.00383755,
 -0.01573138,-0.00039091,-0.00020097,0.00050495,0.00082581,0.00266467,-
 0.00034363,0.07777268,-0.07138853,-0.25832448,-0.08760033,0.07621881,0
 .28243013,0.00159331,0.00059703,0.00046466,-0.00006230,-0.00002735,-0.
 00008184,0.01053095,-0.01312660,0.00264933,-0.00129118,-0.00306008,0.0
 0116725,0.00066283,0.00072865,-0.00046409,-0.17415710,0.13008349,-0.02
 949334,-0.00742366,0.00728738,-0.00143773,0.19138189,0.00170743,0.0016
 0985,0.00049671,0.00018871,-0.00047492,-0.00002339,0.01429864,-0.02138
 153,0.00383478,-0.00295091,-0.00305668,0.00234199,-0.00005873,0.001173
 50,0.00008728,0.13317577,-0.18086556,0.02949696,0.00645731,-0.00698417
 ,0.00152486,-0.13606898,0.20099906,-0.00112376,-0.00101446,-0.00017864
 ,0.00032262,-0.00016553,-0.00005838,-0.00967891,0.01398782,-0.00232841
 ,0.00175989,0.00268618,-0.00070570,-0.00069401,-0.00032177,0.00009830,
 -0.02920765,0.02947743,-0.05561051,0.02095795,-0.02159804,0.00535290,0
 .03293252,-0.03268531,0.05755172,0.00032407,-0.00124125,0.00047755,-0.
 00046958,-0.00040920,-0.00005915,-0.01274413,-0.00972951,-0.00635136,0
 .00090275,0.00089469,0.00004887,0.00041893,0.00085631,-0.00093560,-0.1
 3079739,-0.03254860,-0.03974986,0.00954207,0.00628631,0.00436203,-0.01
 748306,-0.01180628,-0.01392029,0.43595462,-0.00385562,-0.00112999,0.00
 167507,0.00056125,-0.00114562,0.00113420,-0.01983023,-0.01387822,-0.01
 734584,0.00129907,0.00107425,-0.00031225,0.00044917,0.00121909,-0.0003
 3374,-0.03520163,-0.10148807,-0.02902335,-0.00680368,-0.00418969,-0.00
 404969,0.01609424,0.00795036,0.01140459,0.02948801,0.60032272,0.002873
 00,0.00009595,-0.00056039,-0.00063714,0.00096815,-0.00028145,0.0077302
 4,0.00144738,0.00816136,-0.00070521,-0.00040221,0.00021540,0.00204405,
 0.00162055,0.00004684,-0.03815338,-0.02971941,-0.11739701,-0.02416889,
 -0.00996241,-0.01608086,-0.00206414,-0.00252372,-0.00303804,0.00194974
 ,-0.04386044,0.59303168,0.00029457,0.00011814,0.00045965,0.00003560,0.
 00008826,0.00025056,0.00095579,-0.00018127,-0.00234999,0.00004172,-0.0
 0024406,0.00022349,-0.00076261,0.00007112,0.00066757,0.00355715,0.0018
 6271,-0.02241305,-0.00331496,-0.00113409,-0.00183692,-0.00050917,0.000
 14130,-0.00006600,-0.05073177,-0.00289890,0.02338635,0.06930324,0.0002
 0919,-0.00006690,0.00025663,-0.00003136,0.00008872,0.00012016,0.000036
 68,0.00041851,-0.00138081,0.00022461,-0.00006047,-0.00013542,-0.000395
 57,0.00023202,0.00024260,0.00070724,0.00304252,-0.01538731,-0.00188580
 ,-0.00093475,-0.00164885,-0.00038681,-0.00011645,-0.00040475,-0.007773
 26,-0.06484030,0.06139292,0.00849160,0.06536680,-0.00020019,0.00047614
 ,0.00032617,0.00028823,0.00007625,0.00011144,0.00209351,0.00148105,0.0
 0086998,-0.00013583,-0.00032123,0.00000643,-0.00072026,-0.00071277,0.0
 0073506,-0.00022420,0.00134568,-0.01626562,-0.00229547,-0.00011384,-0.
 00082426,-0.00050635,-0.00047088,-0.00076843,0.03477478,0.05702759,-0.
 29954911,-0.03428475,-0.06046512,0.32414892,-0.00098414,-0.00016314,0.
 00033244,0.00021360,-0.00021038,0.00025719,-0.00178222,-0.00172282,-0.
 00339972,0.00029392,0.00023234,0.00002592,0.00003803,0.00013085,-0.000
 00786,-0.00325488,-0.02162313,0.00157504,-0.00047850,-0.00070372,-0.00
 050171,0.00018637,-0.00144893,-0.00012632,-0.04565703,-0.00583396,0.00
 290758,0.00083191,-0.00463008,-0.00027796,0.06619277,-0.00044385,-0.00
 018818,0.00022733,0.00010683,-0.00008022,0.00012605,-0.00100739,0.0001
 7404,-0.00215595,0.00023807,0.00025847,-0.00002884,0.00005155,0.000063
 86,0.00000742,-0.00085014,-0.00985356,0.00241685,-0.00029809,-0.000314
 62,-0.00013480,-0.00017885,0.00158216,0.00008803,0.00374803,-0.3148150
 3,0.02962984,-0.00039314,-0.00544431,0.00043998,-0.00411332,0.33890862
 ,-0.00083942,0.00004056,0.00024438,0.00020665,-0.00022798,0.00024607,-
 0.00064883,-0.00068175,-0.00221503,0.00012991,-0.00003157,-0.00008964,
 -0.00022898,0.00003772,0.00024066,-0.00214436,-0.01939207,0.00287504,-
 0.00011857,-0.00028878,-0.00058237,0.00051760,0.00010689,0.00154006,-0
 .00080103,0.03306463,-0.05480446,-0.00152467,0.03137209,-0.00178924,0.
 00044248,-0.03126973,0.05433131,-0.00012611,-0.00029796,-0.00004706,0.
 00008706,0.00002505,0.00005596,-0.00060556,0.00057540,-0.00054252,0.00
 018334,-0.00021384,0.00009205,0.00003310,0.00013618,-0.00001016,-0.024
 12847,0.00843856,0.00077220,0.00095343,0.00004046,0.00149509,-0.002581
 02,-0.00319919,-0.00089035,-0.13858585,0.02346685,0.01968370,-0.013769
 27,0.00468052,0.00370676,-0.01143936,0.00367984,0.00417070,0.51791452,
 -0.00020082,-0.00008802,-0.00012561,0.00005979,-0.00016736,0.00003625,
 -0.00130618,-0.00058504,-0.00061040,0.00000907,0.00005139,0.00010572,0
 .00013437,0.00011777,-0.00009672,-0.00978176,0.00523021,0.00848152,0.0
 0102950,0.00077621,-0.00010209,-0.00168152,-0.00015553,-0.00121180,0.0
 0868325,-0.09724251,-0.00511191,-0.00690016,0.00123847,0.00233779,0.03
 726469,-0.01443410,-0.01171485,0.01122607,0.51034886,-0.00029401,0.000
 00146,0.00042072,0.00018081,-0.00003336,0.00016118,0.00037458,0.000013
 64,-0.00124237,-0.00003892,-0.00004861,-0.00009349,-0.00037360,0.00002
 819,0.00040677,-0.01703160,0.01054411,0.00629771,0.00117473,0.00051383
 ,0.00002998,-0.00348946,-0.00240953,-0.00246254,0.01217478,-0.00732701
 ,-0.09601239,0.03421114,-0.01278052,-0.01043607,-0.00202475,0.00090663
 ,-0.00059498,-0.00407371,0.00113540,0.55103385,0.00000233,-0.00008141,
 -0.00013242,-0.00001446,0.00001779,-0.00004286,-0.00031397,0.00037434,
 0.00068145,-0.00003309,-0.00005076,0.00000512,0.00000675,-0.00022383,-
 0.00019241,0.00016218,-0.00129957,0.00042490,-0.00142330,0.00015751,0.
 00083973,0.00022193,0.00015159,0.00012848,-0.01354406,-0.00951353,0.03
 603112,-0.00609664,0.00093037,0.00155295,0.00112988,-0.00177750,0.0001
 6401,-0.09821366,-0.00393693,0.01691245,0.61826975,0.00009524,0.000067
 02,0.00004618,-0.00006067,-0.00002183,-0.00002762,0.00010326,-0.000354
 57,-0.00015610,0.00003608,0.00003676,0.00004796,-0.00000729,0.00008101
 ,0.00000976,-0.00007138,0.00022467,-0.00003868,-0.00041220,-0.00008738
 ,0.00000097,0.00032111,0.00009428,0.00007733,-0.00039713,0.00394362,-0
 .00781527,0.00283359,-0.00083345,-0.00129868,0.00172141,0.00042004,-0.
 00191889,-0.00841320,-0.09989692,0.02668013,-0.02327452,0.61209387,-0.
 00022133,-0.00010132,-0.00002372,-0.00000365,-0.00005612,0.00002536,-0
 .00007883,-0.00043450,-0.00086589,0.00011678,0.00013517,0.00004626,0.0
 0019696,0.00027807,-0.00020666,0.00000037,0.00159695,0.00062853,-0.000
 73668,-0.00108475,-0.00012695,-0.00062429,-0.00030971,-0.00016550,0.01
 454125,0.00015619,-0.01061941,-0.00047865,0.00047076,0.00106938,-0.001
 68775,0.00090381,0.00056849,0.01813976,0.01918508,-0.15560093,0.051232
 70,0.05842311,0.48269345,0.00001356,0.00002544,-0.00000791,-0.00000701
 ,-0.00001233,-0.00000463,-0.00001067,-0.00001768,0.00006010,0.00000366
 ,0.00001916,-0.00000730,-0.00001125,-0.00001072,-0.00001991,0.00011561
 ,0.00006016,0.00012370,0.00007531,0.00000074,-0.00000447,-0.00003024,0
 .00001255,0.00000272,0.00066309,-0.00050682,0.00026345,-0.00000917,0.0
 0023615,-0.00017310,-0.00008488,0.00020340,0.00004114,-0.00885578,0.00
 109000,0.00343073,-0.29913792,0.06961562,0.04539877,0.31860931,-0.0000
 2911,-0.00004336,-0.00001532,0.00002619,0.00002644,0.00000237,-0.00005
 126,0.00022849,0.00021109,-0.00001112,-0.00004235,-0.00000150,-0.00003
 556,-0.00010943,0.00000170,0.00000973,-0.00002802,0.00029715,0.0003390
 9,0.00024727,0.00003275,-0.00006061,-0.00003703,-0.00001383,-0.0000703
 2,-0.00152615,0.00217824,-0.00079536,0.00059462,0.00039892,0.00000352,
 0.00031764,0.00002410,-0.01429407,0.00243242,0.00392635,0.07764449,-0.
 07383906,-0.01712578,-0.07537639,0.07427618,0.00003021,0.00005451,0.00
 003777,0.00002131,0.00001668,0.00000436,0.00002855,0.00009324,0.000193
 89,0.,0.00000954,-0.00001909,-0.00009711,-0.00007667,0.00009442,-0.000
 40266,-0.00047211,-0.00026773,0.00010146,0.00029679,0.00037154,0.00005
 451,0.00007422,0.00004325,-0.00049966,0.00266772,-0.00616279,0.0019995
 0,-0.00038382,-0.00048793,-0.00025554,0.00008673,0.00004987,0.03557209
 ,-0.00808757,-0.01267166,0.03138406,-0.01162407,-0.05470027,-0.0488030
 0,0.01336985,0.06749592,0.00002316,0.00002133,-0.00000612,-0.00000399,
 -0.00000571,-0.00000400,-0.00002946,-0.00000022,0.00003435,0.00001937,
 0.00003156,-0.00001420,0.00000733,0.00001640,0.00001009,-0.00017901,0.
 00013943,-0.00013383,0.00022442,-0.00003373,-0.00001133,-0.00011658,0.
 00000751,0.00005679,0.00053958,-0.00207108,0.00010029,0.00009511,0.000
 16459,-0.00014777,-0.00030776,0.00018937,0.00068893,-0.00170148,-0.011
 00397,0.00197239,-0.05268016,0.03055797,-0.00025651,0.00458174,0.02826
 698,-0.00026851,0.04904809,0.00000717,0.00002915,-0.00000518,0.0000110
 6,-0.00000124,0.00000559,0.00001765,0.00000094,0.00003306,0.00003583,0
 .00004974,-0.00002594,-0.00001506,0.00000563,0.00001093,-0.00018627,-0
 .00008606,-0.00015036,0.00009159,-0.00006149,0.00012270,-0.00012966,0.
 00000104,0.00007899,0.00107477,-0.00008959,-0.00112046,-0.00005639,0.0
 0052099,-0.00006014,-0.00051734,0.00072924,0.00026330,0.00077186,-0.01
 334635,0.00151117,0.02529894,-0.32012453,-0.00029818,-0.00122336,-0.00
 542015,-0.00074583,-0.02752833,0.34546265,-0.00001742,0.00000076,-0.00
 000106,0.00001917,-0.00000436,0.00001058,-0.00004851,0.00003313,-0.000
 00726,-0.00002309,-0.00001961,-0.00001969,-0.00000042,-0.00000994,0.00
 001524,0.00003132,-0.00022959,-0.00022785,0.00010117,0.00001064,0.0000
 2401,0.00000279,0.00002337,0.00011212,-0.00158661,0.00155709,0.0009636
 9,-0.00019550,-0.00015002,0.00012566,0.00052625,-0.00040129,-0.0001521
 1,-0.00189541,0.03644255,-0.00706134,0.00056972,-0.01191755,-0.0504692
 3,-0.00175092,-0.00495817,-0.00004634,-0.00302001,-0.00154931,0.058357
 96,0.00002510,0.00003715,-0.00000732,-0.00002379,-0.00002745,-0.000016
 70,-0.00005621,-0.00000465,0.00006153,0.00002150,0.00003685,-0.0000195
 7,0.00000280,0.00000302,0.00000643,-0.00150295,-0.00057724,0.00133070,
 -0.00240999,-0.00082618,0.00122935,0.00006654,0.00002327,-0.00018259,0
 .00047660,0.00042272,-0.00025279,0.00005344,-0.00005018,-0.00016463,0.
 00000517,0.00008488,-0.00001675,0.00596042,0.00466153,0.00952531,-0.15
 446220,-0.07290559,-0.12002751,-0.01299200,-0.01540257,-0.02066552,0.0
 0238971,0.00266100,0.00420291,0.16235284,0.00000750,-0.00001224,0.0000
 0858,-0.00000049,0.00002385,-0.00000948,-0.00001698,0.00023362,0.00023
 039,-0.00001298,-0.00004222,0.00002873,-0.00005417,-0.00010534,0.00004
 726,-0.00060769,-0.00045280,0.00041535,-0.00089543,0.00054464,0.000485
 70,0.00011804,-0.00002738,-0.00017735,-0.00017770,0.00004477,-0.000804
 88,0.00008766,-0.00008176,0.00005087,-0.00019844,-0.00012084,-0.000020
 96,0.00928185,0.00336109,0.01057076,-0.07290217,-0.09997862,-0.0815399
 9,0.00493405,0.00458219,0.00712162,-0.01973386,-0.00994845,-0.02142512
 ,0.08020320,0.10123962,-0.00001629,0.00002400,0.00002229,0.00006460,0.
 00002725,0.00002231,-0.00008067,0.00027726,0.00035189,0.00001610,-0.00
 002159,-0.00003656,-0.00013318,-0.00017307,0.00007769,0.00000565,-0.00
 040292,-0.00005135,0.00094918,0.00049396,0.00066195,-0.00003828,0.0001
 0871,0.00019607,-0.00211465,-0.00038671,0.00006053,0.00001056,-0.00000
 954,0.00011580,0.00019109,-0.00002673,-0.00010405,-0.01917960,-0.01184
 934,-0.02730090,-0.10925078,-0.07381599,-0.17351550,0.00266267,0.00322
 733,0.00560530,0.00115914,0.00033197,0.00222355,0.12328072,0.08150402,
 0.19561311,-0.00021324,-0.00007401,0.00006612,0.00004162,-0.00005062,0
 .00005661,-0.00017202,0.00004645,-0.00055169,-0.00005830,-0.00009434,0
 .00012108,0.00001697,-0.00002009,0.00002538,-0.00324675,0.00250693,0.0
 0187080,0.00011909,-0.00002180,-0.00021314,-0.00088303,-0.00052809,-0.
 00068164,-0.03849678,-0.01423133,-0.02422763,0.00066794,-0.00059788,-0
 .00260298,0.00106007,-0.00151073,-0.00053196,-0.11904854,-0.01501242,-
 0.02918376,0.00723697,0.00468660,-0.00034761,0.00066286,0.00014162,0.0
 0195070,-0.00002918,-0.00029993,0.00078718,-0.00058742,-0.00076208,0.0
 0320808,0.56595996,0.00018865,0.00008898,0.00002122,-0.00005887,-0.000
 00991,-0.00003659,0.00012162,-0.00030850,0.00022857,0.00000512,0.00005
 446,-0.00009488,-0.00004427,0.00007806,-0.00000726,0.00202909,-0.00117
 866,-0.00063724,-0.00022332,-0.00009305,0.00011079,0.00061265,0.000325
 07,0.00027723,0.00171489,0.00569417,0.00596549,-0.00003121,0.00013157,
 -0.00004659,0.00243958,0.00017485,0.00080004,-0.02098934,-0.10301789,-
 0.02250081,0.00739010,0.00643372,0.00481891,0.00032378,-0.00044776,-0.
 00026932,0.00060117,0.00013402,0.00224477,-0.00038406,-0.00108192,0.00
 343258,-0.05348244,0.60123810,0.00022790,0.00008794,-0.00007576,-0.000
 10978,-0.00002028,-0.00009205,-0.00001982,-0.00010221,0.00041572,-0.00
 010625,-0.00001432,0.00004863,0.00007413,-0.00003398,-0.00004242,0.002
 60295,-0.00136908,-0.00067759,-0.00009903,0.00020746,-0.00018246,0.000
 71057,0.00037074,0.00034788,-0.00381213,0.00426057,0.00506330,0.003361
 16,-0.00007388,0.00065363,0.00103637,-0.00015812,-0.00025460,-0.033321
 20,-0.01873970,-0.12537067,-0.02001505,-0.01123417,-0.03662882,-0.0005
 8789,-0.00097550,0.00117149,-0.00063336,-0.00135673,0.00145292,0.00157
 337,0.00164682,-0.00420421,-0.08140716,-0.05042292,0.54612489,0.000050
 49,0.00002295,0.00000140,-0.00000897,0.00000270,-0.00000736,0.00004406
 ,-0.00001535,0.00008814,0.00000963,0.00002402,-0.00002099,-0.00002041,
 0.00000469,0.00001053,0.00006314,0.00017117,0.00001065,0.00008163,0.00
 002508,0.00009289,-0.00002301,0.00001634,0.00000375,0.00100786,-0.0022
 4363,-0.00033585,-0.00010174,-0.00001832,0.00019213,-0.00082644,0.0001
 0570,-0.00067291,-0.00129233,-0.02498026,-0.00175293,0.00008520,-0.000
 25245,0.00123256,-0.00008230,0.00032586,-0.00011545,0.00032607,0.00015
 259,-0.00004903,-0.00009978,-0.00004828,0.00014218,-0.05562373,0.04446
 083,-0.00173040,0.05616013,0.00004449,0.00003058,-0.00001117,-0.000002
 80,0.00000916,-0.00000831,0.00007984,0.00000520,0.00012316,0.00002247,
 0.00004758,-0.00002493,-0.00001516,0.00000667,0.00000571,-0.00021140,0
 .00052547,-0.00015747,0.00009176,0.00001817,0.00010366,-0.00009672,-0.
 00003418,-0.00002814,0.00190785,-0.00002717,0.00055379,-0.00010432,-0.
 00021444,0.00002632,-0.00060458,0.00077338,-0.00008308,0.00048864,-0.0
 1635203,-0.00075054,0.00025969,0.00008720,0.00153062,0.00009467,-0.000
 19934,0.00002078,0.00000472,0.00064493,-0.00044112,-0.00004806,0.00042
 952,-0.00006671,0.03470298,-0.31661736,0.00847753,-0.03689165,0.343216
 03,0.00001225,-0.00000501,0.00000106,0.00000481,0.00000602,0.00000112,
 0.00003197,0.00000423,0.00003907,0.00001501,0.00000972,-0.00003010,-0.
 00000881,0.00002181,-0.00000701,0.00012434,0.00008550,-0.00018724,-0.0
 0001681,-0.00006741,-0.00000332,-0.00001387,0.00000380,0.00002097,0.00
 129313,-0.00076665,0.00011431,-0.00017540,0.00037552,-0.00010564,-0.00
 029714,0.00024807,0.00032243,0.00102537,-0.02747404,-0.00383854,-0.000
 12590,-0.00214539,0.00145696,0.00018613,-0.00001882,-0.00008782,-0.000
 38529,0.00029324,-0.00073143,0.00005988,0.00025558,0.00014829,-0.00195
 185,0.01671013,-0.05109652,0.00745452,-0.00737059,0.05379899,-0.000020
 68,-0.00000221,0.00001836,0.00000787,-0.00000658,0.00001172,0.00000159
 ,0.00000719,-0.00008385,0.00000775,-0.00000260,0.00000472,-0.00001276,
 0.00000357,0.00001290,-0.00038331,0.00081090,0.00047856,0.00005459,-0.
 00000561,0.00002336,-0.00021557,-0.00014069,-0.00013320,-0.00078493,-0
 .00204138,-0.00260908,0.00005831,-0.00014663,-0.00002944,-0.00003987,0
 .00020866,-0.00007819,-0.02380105,0.00372707,0.00203189,0.00016818,0.0
 0046680,0.00095144,0.00069996,-0.00018515,-0.00025900,-0.00010784,0.00
 007668,-0.00019263,0.00023106,-0.00010324,0.00025108,-0.29327358,0.063
 45217,0.05771331,0.00335830,-0.00039006,0.00006138,0.32156549,-0.00003
 676,-0.00004794,-0.00001313,0.00000976,0.00001207,0.00000248,0.0000469
 0,0.00013314,0.00001163,-0.00002133,-0.00004012,0.00003876,0.00002512,
 -0.00002845,-0.00001254,-0.00085157,0.00098231,-0.00003276,0.00004194,
 0.00000618,-0.00004000,-0.00029200,-0.00020830,-0.00019615,-0.00134584
 ,-0.00211324,-0.00216514,0.00023307,-0.00013442,-0.00035637,-0.0001160
 9,0.00035061,-0.00013249,-0.01744222,0.00217584,0.00262484,0.00036261,
 -0.00022421,0.00098100,-0.00032923,0.00102917,-0.00027604,0.00033207,-
 0.00022746,-0.00011357,-0.00008064,-0.00010997,-0.00007313,0.07411268,
 -0.07033316,-0.01478277,0.02796493,-0.00470086,-0.00699645,-0.07023194
 ,0.07323685,-0.00010617,-0.00004344,0.00002220,0.00002832,-0.00001151,
 0.00002623,-0.00010289,0.00001312,-0.00023799,0.00000196,-0.00002074,0
 .00002401,-0.00000756,-0.00000641,0.00000604,-0.00128773,0.00047045,0.
 00092367,0.00015854,0.00000534,0.00004811,-0.00029546,-0.00017819,-0.0
 0014865,-0.00173452,-0.00264923,-0.00402754,-0.00012729,-0.00019029,0.
 00034237,0.00021092,-0.00014542,-0.00011252,-0.02822913,0.00557063,0.0
 0208468,-0.00151392,0.00025201,0.00146788,-0.00075665,0.00007416,-0.00
 151624,0.00008623,-0.00002008,-0.00002128,0.00027614,0.00001411,0.0000
 2504,0.07058672,-0.01557972,-0.06755370,-0.00372972,0.00144443,0.00045
 962,-0.06155865,0.01853487,0.07290673,0.00002063,0.00002170,0.00002030
 ,-0.00000538,-0.00000248,-0.00000168,0.00002173,-0.00002841,-0.0000105
 0,0.00000753,-0.00000062,-0.00000494,-0.00003477,0.00000174,0.00002273
 ,0.00003914,-0.00000553,0.00013492,0.00010778,0.00006958,0.00000503,0.
 00002471,0.00000311,0.00001487,0.00115046,0.00024393,-0.00237745,-0.00
 109925,-0.00024282,-0.00028533,-0.00009880,0.00006860,0.00006848,0.001
 39261,0.00704275,-0.02318679,-0.00273869,-0.00173985,-0.00197069,-0.00
 003006,-0.00008443,-0.00024473,-0.00016638,0.00003012,0.00003019,0.000
 55470,0.00027622,-0.00115051,-0.06927397,-0.02946096,0.07158007,0.0006
 2748,0.00237870,-0.00448487,-0.00232169,-0.01373085,0.02579575,0.07148
 593,-0.00000833,-0.00002711,-0.00000941,0.00000297,0.00000552,-0.00000
 092,-0.00001799,0.00007133,0.00003007,-0.00000484,-0.00002357,-0.00000
 554,0.00001859,0.00000037,-0.00001085,0.00022216,-0.00007215,-0.000218
 76,-0.00006513,-0.00002242,-0.00010072,0.00001390,0.00000487,0.0000178
 2,0.00042580,-0.00028823,-0.00006606,0.00033522,0.00050027,0.00002963,
 -0.00016803,-0.00001353,0.00019633,0.00283450,0.00317324,-0.01677307,-
 0.00167185,-0.00157259,-0.00130853,-0.00013813,-0.00008462,0.00004973,
 -0.00015504,0.00041958,-0.00022526,0.00005888,0.00086683,-0.00085264,-
 0.02700520,-0.08870322,0.09543425,-0.00855506,-0.00827285,0.02831403,0
 .00142226,0.00367590,-0.00803901,0.03255753,0.08976577,0.00000923,0.00
 000459,0.00001189,-0.00000092,-0.00000149,0.00000009,-0.00004275,0.000
 01915,-0.00000065,-0.00000483,-0.00001981,-0.00001483,-0.00003716,-0.0
 0001452,0.00002351,-0.00022820,-0.00023730,0.00036936,0.00018539,0.000
 08926,0.00014362,0.00002470,-0.00000635,0.00003875,0.00239317,0.000195
 73,-0.00015781,-0.00077283,0.00001254,0.00082558,-0.00009119,-0.000052
 41,0.00003476,0.00418514,0.00689387,-0.02567390,-0.00369825,-0.0030218
 5,-0.00149600,-0.00022543,0.00013403,0.00023716,0.00000669,0.00002114,
 0.00022499,0.00040250,0.00055357,-0.00122173,0.06074002,0.08733565,-0.
 26692468,0.00029027,-0.00050871,0.00230941,0.00087923,0.00280937,-0.00
 390066,-0.06443077,-0.09498787,0.29414873,-0.00025992,-0.00015836,0.00
 021115,0.00002564,0.00024558,-0.00002164,-0.00141848,-0.00086611,-0.00
 030804,-0.00199224,0.00113880,-0.00005061,-0.00010850,0.00026208,0.000
 02195,0.00002716,0.00041183,0.00004142,-0.00052361,0.00004528,-0.00007
 032,0.00019656,0.00001874,0.00023746,-0.00330868,0.03667959,-0.0008769
 8,0.00069011,0.00017666,-0.00090563,-0.00644761,0.00335418,0.00148094,
 -0.09462547,-0.01138698,0.00228360,0.00263345,-0.01073636,-0.00009122,
 -0.00074325,-0.00068569,-0.00005147,-0.00063575,-0.00077955,0.00183639
 ,0.00016220,0.00086235,-0.00041496,0.00383346,-0.02334389,-0.00041352,
 -0.00288212,-0.00195309,-0.00269291,-0.00087373,-0.00047580,0.00097847
 ,0.00051822,0.00024475,0.00044139,0.47440194,-0.00009916,-0.00029440,-
 0.00011714,-0.00007308,-0.00005532,-0.00001360,0.00029886,0.00072641,0
 .00002241,-0.00057785,-0.00073718,0.00033648,0.00016350,-0.00019609,-0
 .00013927,-0.00073914,0.00108206,0.00083406,0.00007514,0.00024446,-0.0
 0064772,-0.00062289,-0.00089656,-0.00074927,0.01678045,-0.01447514,-0.
 00235948,-0.00237409,0.00118778,0.00103367,-0.00110010,0.00112216,0.00
 072441,0.00069760,-0.12239949,0.00043733,-0.00332338,-0.01812382,0.014
 64818,-0.00057522,0.00140180,-0.00148832,-0.00042118,0.00157625,-0.000
 65802,0.00038777,0.00130664,-0.00271638,-0.00812900,-0.02340417,-0.010
 79282,-0.00044590,0.00106821,0.00032891,-0.00016532,0.00151574,0.00152
 157,0.00137063,0.00127767,0.00231819,0.07434138,0.40473546,0.00011600,
 0.00014491,-0.00021659,-0.00017585,-0.00003687,-0.00010346,0.00040160,
 -0.00036634,-0.00019765,0.00019347,-0.00020828,0.00092596,0.00043774,-
 0.00027366,-0.00009652,-0.00025814,0.00071238,0.00025350,-0.00033171,0
 .00052432,-0.00043125,0.00014804,-0.00014332,-0.00024255,0.00010426,-0
 .00689137,0.00114203,0.00045824,-0.00141280,0.00003941,0.00154032,-0.0
 0081960,-0.00035304,0.00109287,0.00336988,-0.09254042,-0.00296588,0.03
 411250,-0.00310109,0.00042438,-0.00036655,0.00125599,0.00200909,0.0021
 5594,-0.00571512,-0.00038309,0.00109981,0.00058527,0.00200766,-0.02478
 496,0.00004247,-0.00315702,-0.00245064,-0.00322200,0.00031533,0.000659
 09,0.00076879,0.00006962,-0.00176552,0.00019648,0.01977607,-0.00066528
 ,0.61555409,0.00003196,0.00001891,0.00001204,0.00001164,-0.00003656,0.
 00002107,-0.00024606,0.00001838,-0.00019436,-0.00105090,-0.00029646,-0
 .00045916,0.00001645,-0.00003127,0.00005821,0.00001199,0.00013044,-0.0
 0024578,0.00004744,0.00000427,0.00010840,-0.00005188,-0.00005207,0.000
 12929,0.00048343,0.00073948,-0.00113519,0.00012448,0.00032127,0.000089
 73,0.00005663,-0.00019449,-0.00002079,-0.00101569,0.00264142,-0.003214
 76,0.00004123,0.00115273,-0.00034140,-0.00021068,0.00032292,-0.0002420
 9,0.00036919,0.00015677,-0.00009909,0.00008845,-0.00000210,0.00015226,
 -0.00016986,-0.00046256,0.00083850,-0.00000318,0.00010785,-0.00028032,
 -0.00012967,0.00000364,0.00017048,0.00012997,-0.00049434,-0.00038598,-
 0.06907969,-0.02578062,0.08740425,0.07514584,0.00001873,-0.00001329,-0
 .00001190,0.00001002,0.00001432,-0.00000119,-0.00006451,0.00001407,-0.
 00003703,-0.00012759,0.00019251,-0.00012364,0.00004332,-0.00001068,-0.
 00001104,0.00028139,-0.00011164,-0.00011851,-0.00009282,-0.00006190,-0
 .00001214,0.00000211,0.00003919,0.00008071,-0.00159620,0.00083784,0.00
 162271,0.00050762,-0.00034762,-0.00056181,-0.00007880,0.00022139,-0.00
 033360,-0.01030236,-0.02027918,0.03315383,0.00095061,-0.00600706,-0.00
 215392,0.00026972,-0.00020488,-0.00002380,-0.00051875,-0.00056061,0.00
 196511,0.00017778,0.00006706,0.00004089,0.00071825,0.00094691,0.002459
 38,0.00008090,0.00026681,-0.00028236,-0.00006880,-0.00006033,-0.000118
 72,-0.00018324,-0.00036525,-0.00080260,-0.02317505,-0.06477436,0.05919
 637,0.02429875,0.08319834,0.00011945,-0.00003766,-0.00004811,0.0000267
 5,-0.00009416,0.00001846,0.00023019,0.00062921,0.00030826,-0.00009500,
 -0.00052366,-0.00011821,-0.00004697,-0.00008233,-0.00002766,-0.0002017
 7,0.00019665,-0.00066446,0.00005967,0.00002569,0.00020606,-0.00005951,
 -0.00004837,0.00013231,0.00023478,-0.00035760,0.00017327,-0.00032086,0
 .00020734,0.00040067,-0.00019289,-0.00011621,0.00033869,-0.00037407,-0
 .00139249,-0.00093010,-0.00037961,-0.00022061,0.00090966,-0.00003596,-
 0.00024207,0.00006074,0.00011668,0.00019881,0.00033595,0.00015019,-0.0
 0011972,0.00029652,-0.00026560,-0.00086255,0.00071106,0.00000614,0.000
 01803,0.00028159,0.00004705,-0.00010973,-0.00016799,0.00012095,-0.0000
 6911,0.00037524,0.07742460,0.07175948,-0.27800370,-0.08526242,-0.07575
 227,0.29334891,-0.00003062,-0.00001790,0.00000970,-0.00004292,-0.00004
 029,-0.00008404,-0.00125040,0.00060701,0.00009744,-0.00070444,-0.00019
 054,0.00052637,0.00008516,-0.00006692,-0.00000282,-0.00124380,0.001086
 89,0.00015959,-0.00085005,0.00095914,-0.00023324,-0.00007622,-0.000012
 89,0.00015876,0.00032826,0.00001334,0.00034332,-0.00002116,-0.00002535
 ,0.00006400,0.00006522,-0.00016406,-0.00009271,0.00139835,0.00324086,0
 .00332581,-0.00011383,-0.00029418,-0.00029759,-0.00020837,-0.00008592,
 -0.00014543,0.00012007,0.00010960,0.00027307,0.00031926,-0.00032498,0.
 00033110,0.00011037,0.00093530,0.00028478,0.00022484,0.00018180,0.0000
 1971,-0.00004260,0.00035641,0.00020211,0.00001722,0.00004412,-0.000038
 52,-0.14640603,-0.06709373,-0.13060161,0.00626569,0.00467226,0.0085775
 9,0.15887607,0.00000186,-0.00003447,0.00006934,0.00003850,0.00007987,-
 0.00003173,-0.00011008,0.00035850,0.00018892,-0.00023134,0.00036167,0.
 00009944,-0.00014570,-0.00005915,0.00006670,0.00076330,-0.00029316,-0.
 00053006,0.00094709,-0.00054202,0.00072689,-0.00015569,0.00014254,0.00
 026427,-0.00194530,0.00045008,-0.00039034,0.00016073,-0.00008200,0.000
 07119,0.00001700,0.00010269,0.00008305,-0.02126124,-0.02242188,-0.0250
 1973,-0.00027649,0.00107058,-0.00251324,-0.00005333,-0.00003102,0.0001
 3391,0.00020044,0.00028543,0.00015803,0.00016630,-0.00027500,0.0008256
 8,0.00217209,-0.00575145,0.00213704,-0.00124749,-0.00078922,-0.0014357
 5,0.00021236,-0.00015564,-0.00006353,0.00017605,0.00008936,-0.00008571
 ,-0.05775429,-0.08067302,-0.06406769,0.00612319,0.00478099,0.00625889,
 0.06540264,0.10042252,-0.00011850,-0.00004299,0.00016423,0.00006282,0.
 00010322,-0.00000407,-0.00006133,-0.00016087,-0.00009114,0.00058103,0.
 00061025,-0.00055817,-0.00025453,0.00025356,0.00005007,-0.00060514,0.0
 0018515,0.00037614,-0.00048937,0.00039340,0.00026724,-0.00009169,0.000
 25609,0.00016211,-0.00079258,-0.00070817,-0.00058300,-0.00009372,-0.00
 000057,0.00000833,0.00013123,0.00006509,0.00003568,0.00305679,0.002833
 24,0.00088370,0.00066031,0.00089480,0.00093746,-0.00003762,0.00007926,
 -0.00007483,0.00005889,-0.00005352,0.00011921,-0.00013434,0.00021092,0
 .00018831,0.00027691,0.00042845,0.00014153,-0.00002187,-0.00007123,0.0
 0056565,0.00007752,0.00007390,-0.00006576,-0.00002884,0.00012239,0.000
 45017,-0.12014747,-0.07505764,-0.18733510,-0.01797062,-0.01091823,-0.0
 1757523,0.13093099,0.07793057,0.19756033,0.00038137,0.00010946,-0.0001
 6628,-0.00032136,-0.00022926,-0.00015844,0.00040149,0.00031634,0.00055
 855,-0.00065856,-0.00082215,0.00030171,0.00010218,-0.00017926,-0.00004
 391,-0.00068130,-0.00025308,-0.00044361,-0.00027228,0.00055577,-0.0003
 6714,0.00031486,-0.00018307,-0.00019572,-0.00234480,-0.00825892,0.0011
 3322,-0.00049173,0.00041935,0.00063137,0.00319951,-0.00284987,-0.00029
 518,0.02085773,-0.00260372,-0.00484492,-0.00119716,0.00596951,-0.00746
 197,0.00582438,-0.00535863,0.00383666,-0.00174922,-0.00045512,0.001482
 35,-0.00102196,0.00021931,-0.00021083,0.00270115,0.00618027,0.00612257
 ,-0.00224202,-0.00061467,-0.00056413,0.00305456,-0.00593615,-0.0047666
 7,-0.00070541,0.00023036,0.00075166,-0.09719954,0.00766522,0.00101898,
 -0.00614565,0.00050164,-0.00035722,-0.01620649,0.00402308,0.00493571,0
 .54829737,-0.00038844,-0.00056158,0.00024614,0.00016252,0.00044257,-0.
 00000879,-0.00100124,0.00057159,-0.00041201,0.00023959,0.00094684,-0.0
 0021227,-0.00010535,-0.00004985,0.00006448,0.00006612,-0.00004939,0.00
 030454,0.00022840,0.00003783,0.00040768,-0.00032163,0.00001620,0.00010
 327,0.00002449,-0.00331808,0.00010461,-0.00007045,0.00009643,-0.000196
 34,0.00059737,-0.00019203,-0.00038210,0.02364034,-0.02159089,-0.003375
 92,0.00087426,0.00230993,-0.00105644,0.00258457,-0.00605482,0.00349327
 ,-0.00149738,0.00063854,0.00059378,-0.00048355,-0.00009365,0.00006566,
 0.00161223,0.00238872,0.00018328,-0.00164605,0.00071769,0.00010762,0.0
 0096964,-0.00703065,-0.00363554,-0.00051923,-0.00009322,0.00010998,-0.
 00507607,-0.04258637,-0.00198986,-0.00900075,0.00276703,0.00282726,-0.
 01145721,0.00329326,0.00105683,0.19159482,0.93447063,-0.00006083,-0.00
 001483,0.00006624,0.00011132,0.00002311,0.00006070,-0.00002024,0.00011
 283,0.00004947,0.00019298,0.00015671,-0.00031009,-0.00016631,0.0001285
 2,0.00002604,0.00018156,0.00023491,0.00008259,0.00019325,-0.00023755,0
 .00030768,-0.00010129,0.00017369,0.00015690,0.00001618,0.00121943,-0.0
 0025119,-0.00009066,0.00000985,0.00020402,-0.00053296,0.00050353,0.000
 55349,-0.00578755,0.00144543,-0.00210425,-0.00090273,-0.00040573,0.001
 63085,-0.00097282,0.00266822,-0.00103735,0.00044483,-0.00003573,-0.000
 46568,-0.00009318,-0.00004113,0.00003027,0.00047959,-0.00273890,-0.001
 55598,0.00071852,0.00015519,-0.00006146,-0.00098506,0.00070448,0.00174
 607,0.00056845,-0.00007383,-0.00040190,0.00216981,-0.00460950,-0.08540
 861,0.02751687,-0.00766293,-0.00191195,-0.02209140,0.00687959,0.005840
 97,-0.08440887,-0.10875514,0.26830757,-0.00023550,0.00001630,0.0001001
 6,0.00019774,0.00012976,0.00010370,-0.00021348,-0.00035524,-0.00027464
 ,0.00027086,0.00061686,-0.00022427,-0.00010355,0.00013234,0.00004646,0
 .00024071,-0.00010564,0.00010635,0.00009644,-0.00022623,0.00037357,-0.
 00015820,0.00022412,0.00015079,0.00134578,0.00109355,-0.00029253,0.000
 14841,-0.00028646,-0.00036382,-0.00067064,0.00092511,-0.00013512,0.001
 69198,-0.00105398,-0.00007207,-0.00001017,0.00259176,-0.00004886,-0.00
 719754,0.00400706,-0.00175485,-0.00049480,0.00049489,-0.00042913,0.000
 14374,-0.00008901,0.00020621,-0.00000076,-0.00025379,-0.00154970,0.000
 57781,0.00030580,0.00041154,-0.00640978,0.00606650,0.00437475,0.000148
 33,-0.00009212,-0.00023831,-0.05129704,-0.02213748,0.01846127,-0.00604
 429,0.00198658,0.00065365,-0.00334725,0.00141109,0.00066000,-0.3563205
 6,-0.20711585,0.08128123,0.41377219,0.00009180,0.00026486,-0.00002625,
 -0.00000755,-0.00011641,0.00002944,0.00022018,-0.00052404,0.00000892,0
 .00003874,0.00004316,-0.00006072,-0.00002198,0.00013948,0.00000756,0.0
 0020994,0.00004021,0.00009396,0.00000470,-0.00022311,-0.00000948,0.000
 07621,0.00015180,0.00005021,-0.00038782,0.00221885,-0.00005729,0.00019
 896,-0.00022747,-0.00018285,-0.00068504,0.00084137,0.00008991,-0.00612
 923,0.00538762,0.00094307,0.00303688,-0.00531986,0.00588471,0.00079843
 ,0.00033442,-0.00238566,0.00185772,-0.00022911,-0.00080955,0.00144999,
 -0.00035459,-0.00003730,-0.00000091,-0.00657079,-0.00592296,0.00236872
 ,-0.00021821,-0.00008518,0.00320711,-0.00030679,0.00086763,0.00135990,
 -0.00029569,-0.00056521,-0.00499769,0.00088547,0.00275203,0.00083582,0
 .00051301,-0.00061033,0.00149329,0.00039801,0.00004356,-0.19698363,-0.
 26112873,0.06112153,0.25871783,0.34323652,0.00007444,-0.00001456,-0.00
 002134,-0.00005247,-0.00000503,-0.00003020,0.00004452,0.00012720,0.000
 09936,-0.00007421,-0.00016504,0.00010404,0.00002462,-0.00009035,0.0000
 1536,0.00003332,-0.00007329,-0.00009437,0.00005973,0.00022254,-0.00001
 579,0.00008660,-0.00006459,-0.00004305,0.00006284,-0.00022219,0.000675
 53,-0.00032189,-0.00008829,0.00028038,0.00015228,-0.00026835,-0.000248
 02,-0.00007018,-0.00006426,-0.00033353,-0.00152615,0.00533596,-0.00351
 085,0.00062371,-0.00277672,0.00029773,-0.00178620,0.00045263,0.0007482
 1,-0.00018069,-0.00007459,0.00020455,-0.00018835,-0.00533501,-0.002001
 29,0.00160186,-0.00052686,-0.00021327,0.00257170,-0.00017263,-0.002258
 43,0.00000271,0.00021209,0.00027539,0.01629637,0.00649382,0.01833781,-
 0.00243989,0.00017916,0.00023404,0.00439281,-0.00102289,-0.00125502,0.
 08018611,0.06343503,-0.10049183,-0.10909163,-0.08599538,0.06557253,-0.
 00014039,-0.00002228,0.00003522,0.00014396,0.00004979,0.00008531,0.000
 06323,-0.00015267,-0.00014296,0.00024666,0.00011451,-0.00012039,-0.000
 04864,0.00007417,0.00000459,0.00011397,0.00009613,0.00004720,0.0000693
 1,-0.00019120,0.00011184,-0.00011771,0.00002345,0.00004455,0.00181055,
 0.00273950,-0.00060981,0.00004966,-0.00012770,-0.00007576,-0.00120097,
 0.00081717,0.00023863,-0.01068289,0.00903834,0.00198309,0.00002146,-0.
 00158688,0.00286396,-0.00163834,0.00143872,-0.00117403,0.00045780,0.00
 020050,-0.00055475,0.00030276,-0.00006060,-0.00004087,-0.00133331,-0.0
 0172051,-0.00232038,0.00058940,0.00026125,0.00029727,-0.00079064,0.001
 33478,0.00134594,0.00022797,-0.00003498,-0.00011426,-0.00468710,0.0318
 7758,0.00189409,0.00132313,0.00168844,-0.00017580,0.00273367,0.0013652
 2,-0.00058459,-0.09757653,0.01608883,0.00233933,0.01386956,-0.06675237
 ,0.00951804,0.09619341,0.00031720,0.00046712,-0.00013341,-0.00015180,-
 0.00029805,-0.00001759,0.00046493,-0.00054191,0.00029532,-0.00022727,-
 0.00042721,0.00008484,0.00002900,0.00008331,-0.00000324,-0.00027703,-0
 .00014695,-0.00018955,-0.00014444,0.00008072,-0.00017442,0.00027456,0.
 00014836,-0.00002748,-0.00245643,-0.00318871,0.00077939,0.00005345,-0.
 00003435,-0.00000848,0.00151113,-0.00058411,-0.00032521,0.01255893,-0.
 00231592,-0.00197164,0.00088276,-0.00047880,-0.00103008,-0.00202525,0.
 00259734,-0.00165535,0.00057798,-0.00040309,-0.00011673,0.00041582,-0.
 00001502,0.00007273,0.00112106,-0.00017080,0.00073444,0.00061796,-0.00
 042096,-0.00011653,-0.00107421,0.00260373,0.00193350,0.00039783,-0.000
 01623,-0.00019324,0.02360769,-0.04951420,0.00151551,-0.00052461,-0.001
 06268,-0.00148248,0.00067128,-0.00072748,0.00147253,0.00694240,-0.6059
 4801,0.04903825,-0.04700373,-0.07893998,0.02050161,0.00344080,0.739253
 88,0.00001862,-0.00000988,0.00001800,0.00000043,-0.00001589,0.00001407
 ,-0.00002715,0.00000780,-0.00005565,-0.00003844,-0.00001384,-0.0000733
 4,-0.00001493,0.00001929,0.00002864,-0.00003321,-0.00006410,-0.0000965
 9,-0.00004173,0.00001813,0.00000165,0.00000275,-0.00003671,-0.00000294
 ,-0.00007592,-0.00012857,-0.00012253,0.00002396,0.00005156,-0.00003692
 ,0.00006670,-0.00007193,-0.00008086,0.00137247,-0.00125656,0.00294951,
 0.00015896,-0.00024010,-0.00040345,0.00017009,-0.00013126,0.00015263,-
 0.00007726,-0.00005800,0.00020430,0.00004563,-0.00003090,0.00000554,-0
 .00002347,0.00094292,0.00048724,-0.00025201,0.00004026,0.00006486,0.00
 047957,-0.00096752,-0.00084066,-0.00025696,0.00010077,0.00012701,0.002
 84514,-0.00044406,0.01786532,-0.00420924,0.00022751,0.00131597,0.00389
 021,-0.00073284,-0.00020878,0.00332598,0.04692097,-0.08506259,0.007545
 23,0.02485564,0.02367207,-0.01489542,-0.06898268,0.04007751\\0.0000385
 1,-0.00000495,-0.00002972,-0.00001464,0.00000953,0.00004311,-0.0000255
 0,-0.00000765,-0.00000432,0.00000128,0.00000281,-0.00000836,-0.0000034
 9,-0.00000050,-0.00000222,0.00000961,0.00001392,-0.00001711,0.00000009
 ,-0.00001265,0.00001093,0.00000332,-0.00000523,0.00000673,-0.00000326,
 -0.00001704,0.00000096,-0.00000006,0.00000160,-0.00000311,-0.00000009,
 0.00000469,0.00000190,-0.00000809,0.00001265,-0.00001550,0.00000481,0.
 00000392,0.00000803,0.00000220,-0.00000709,0.00000264,-0.00000502,-0.0
 0000171,0.00000063,-0.00000256,-0.00000136,-0.00000220,0.00001431,-0.0
 0000498,0.00000583,-0.00000019,0.00000161,0.00000053,-0.00000271,0.000
 00457,0.00000159,-0.00000042,0.00000229,-0.00000154,-0.00000177,-0.000
 00294,0.00001531,-0.00000681,0.00000510,-0.00000207,-0.00000252,0.0000
 0061,-0.00000506,0.00000690,-0.00002558,-0.00000945,-0.00000872,0.0000
 0907,0.00000181,0.00000481,0.00001930,0.00000065\\\@


 You don't have to suffer to be a poet.
 Adolescence is enough suffering for anyone.
                             -- John Ciardi
 Job cpu time:       0 days 23 hours 35 minutes 28.5 seconds.
 Elapsed time:       0 days  1 hours  4 minutes 57.3 seconds.
 File lengths (MBytes):  RWF=    733 Int=      0 D2E=      0 Chk=     22 Scr=      1
 Normal termination of Gaussian 16 at Mon Sep 28 19:44:39 2026.
