Job Start Time: Fri Sep 18 08:00:26 MDT 2026
SLURM Job ID: 831825
SLURM Job Name: aminopropyl
 Entering Gaussian System, Link 0=/opt/apps/Gaussian/G16C/g16/g16
 Initial command:
 /opt/apps/Gaussian/G16C/g16/l1.exe "/tmp/831825/Gau-564462.inp" -scrdir="/tmp/831825/"
 Entering Link 1 = /opt/apps/Gaussian/G16C/g16/l1.exe PID=    564463.
  
 Copyright (c) 1988-2019, Gaussian, Inc.  All Rights Reserved.
  
 This is part of the Gaussian(R) 16 program.  It is based on
 the Gaussian(R) 09 system (copyright 2009, Gaussian, Inc.),
 the Gaussian(R) 03 system (copyright 2003, Gaussian, Inc.),
 the Gaussian(R) 98 system (copyright 1998, Gaussian, Inc.),
 the Gaussian(R) 94 system (copyright 1995, Gaussian, Inc.),
 the Gaussian 92(TM) system (copyright 1992, Gaussian, Inc.),
 the Gaussian 90(TM) system (copyright 1990, Gaussian, Inc.),
 the Gaussian 88(TM) system (copyright 1988, Gaussian, Inc.),
 the Gaussian 86(TM) system (copyright 1986, Carnegie Mellon
 University), and the Gaussian 82(TM) system (copyright 1983,
 Carnegie Mellon University). Gaussian is a federally registered
 trademark of Gaussian, Inc.
  
 This software contains proprietary and confidential information,
 including trade secrets, belonging to Gaussian, Inc.
  
 This software is provided under written license and may be
 used, copied, transmitted, or stored only in accord with that
 written license.
  
 The following legend is applicable only to US Government
 contracts under FAR:
  
                    RESTRICTED RIGHTS LEGEND
  
 Use, reproduction and disclosure by the US Government is
 subject to restrictions as set forth in subparagraphs (a)
 and (c) of the Commercial Computer Software - Restricted
 Rights clause in FAR 52.227-19.
  
 Gaussian, Inc.
 340 Quinnipiac St., Bldg. 40, Wallingford CT 06492
  
  
 ---------------------------------------------------------------
 Warning -- This program may not be used in any manner that
 competes with the business of Gaussian, Inc. or will provide
 assistance to any competitor of Gaussian, Inc.  The licensee
 of this program is prohibited from giving any competitor of
 Gaussian, Inc. access to this program.  By using this program,
 the user acknowledges that Gaussian, Inc. is engaged in the
 business of creating and licensing software in the field of
 computational chemistry and represents and warrants to the
 licensee that it is not a competitor of Gaussian, Inc. and that
 it will not use this program in any manner prohibited above.
 ---------------------------------------------------------------
  

 Cite this work as:
 Gaussian 16, Revision C.01,
 M. J. Frisch, G. W. Trucks, H. B. Schlegel, G. E. Scuseria, 
 M. A. Robb, J. R. Cheeseman, G. Scalmani, V. Barone, 
 G. A. Petersson, H. Nakatsuji, X. Li, M. Caricato, A. V. Marenich, 
 J. Bloino, B. G. Janesko, R. Gomperts, B. Mennucci, H. P. Hratchian, 
 J. V. Ortiz, A. F. Izmaylov, J. L. Sonnenberg, D. Williams-Young, 
 F. Ding, F. Lipparini, F. Egidi, J. Goings, B. Peng, A. Petrone, 
 T. Henderson, D. Ranasinghe, V. G. Zakrzewski, J. Gao, N. Rega, 
 G. Zheng, W. Liang, M. Hada, M. Ehara, K. Toyota, R. Fukuda, 
 J. Hasegawa, M. Ishida, T. Nakajima, Y. Honda, O. Kitao, H. Nakai, 
 T. Vreven, K. Throssell, J. A. Montgomery, Jr., J. E. Peralta, 
 F. Ogliaro, M. J. Bearpark, J. J. Heyd, E. N. Brothers, K. N. Kudin, 
 V. N. Staroverov, T. A. Keith, R. Kobayashi, J. Normand, 
 K. Raghavachari, A. P. Rendell, J. C. Burant, S. S. Iyengar, 
 J. Tomasi, M. Cossi, J. M. Millam, M. Klene, C. Adamo, R. Cammi, 
 J. W. Ochterski, R. L. Martin, K. Morokuma, O. Farkas, 
 J. B. Foresman, and D. J. Fox, Gaussian, Inc., Wallingford CT, 2019.
 
 ******************************************
 Gaussian 16:  AS64L-G16RevC.01  3-Jul-2019
                18-Sep-2026 
 ******************************************
 %nprocshared=16
 Will use up to   16 processors via shared memory.
 %mem=32GB
 %chk=aminopropyl.chk
 -----------------------------------------
 #p opt freq wb97xd/6-311+g(2d,2p) scf=xqc
 -----------------------------------------
 1/18=20,19=15,26=3,38=1/1,3;
 2/9=110,12=2,17=6,18=5,40=1/2;
 3/5=4,6=6,7=212,11=2,25=1,30=1,71=1,74=-58/1,2,3;
 4//1;
 5/5=2,8=3,13=1,38=5/2,8;
 6/7=2,8=2,9=2,10=2,28=1/1;
 7//1,2,3,16;
 1/18=20,19=15,26=3/3(2);
 2/9=110/2;
 99//99;
 2/9=110/2;
 3/5=4,6=6,7=212,11=2,25=1,30=1,71=1,74=-58/1,2,3;
 4/5=5,16=3,69=1/1;
 5/5=2,8=3,13=1,38=5/2,8;
 7//1,2,3,16;
 1/18=20,19=15,26=3/3(-5);
 2/9=110/2;
 6/7=2,8=2,9=2,10=2,19=2,28=1/1;
 99/9=1/99;
 Leave Link    1 at Fri Sep 18 08:00:26 2026, MaxMem=  4294967296 cpu:               0.0 elap:               0.0
 (Enter /opt/apps/Gaussian/G16C/g16/l101.exe)
 --------
 opt+freq
 --------
 Symbolic Z-matrix:
 Charge =  0 Multiplicity = 1
 C                    -6.87144  -0.53389  -2.24892 
 H                    -5.84797  -0.2578   -2.39445 
 H                    -7.39693  -0.45788  -3.17789 
 C                    -6.94393  -1.98391  -1.7353 
 H                    -7.9674   -2.26     -1.58977 
 H                    -6.4963   -2.63928  -2.45295 
 N                    -6.222    -2.08834  -0.45905 
 C                    -4.81593  -1.70904  -0.65899 
 H                    -4.29044  -1.78505   0.26998 
 H                    -4.3683   -2.36441  -1.37664 
 H                    -4.76556  -0.70156  -1.01585 
 C                    -6.29119  -3.47245   0.03121 
 H                    -5.84357  -4.12782  -0.68643 
 H                    -5.76571  -3.54846   0.96019 
 H                    -7.31467  -3.74853   0.17675 
 C                    -7.51569   0.40936  -1.21605 
 H                    -7.46533   1.41684  -1.57291 
 H                    -8.53917   0.13327  -1.07051 
 H                    -6.99021   0.33334  -0.28707 
 
 ITRead=  0  0  0  0  0  0  0  0  0  0  0  0  0  0  0  0  0  0  0
 MicOpt= -1 -1 -1 -1 -1 -1 -1 -1 -1 -1 -1 -1 -1 -1 -1 -1 -1 -1 -1
 NAtoms=     19 NQM=       19 NQMF=       0 NMMI=      0 NMMIF=      0
                NMic=       0 NMicF=      0.
                    Isotopes and Nuclear Properties:
 (Nuclear quadrupole moments (NQMom) in fm**2, nuclear magnetic moments (NMagM)
  in nuclear magnetons)

  Atom         1           2           3           4           5           6           7           8           9          10
 IAtWgt=          12           1           1          12           1           1          14          12           1           1
 AtmWgt=  12.0000000   1.0078250   1.0078250  12.0000000   1.0078250   1.0078250  14.0030740  12.0000000   1.0078250   1.0078250
 NucSpn=           0           1           1           0           1           1           2           0           1           1
 AtZEff=  -0.0000000  -0.0000000  -0.0000000  -0.0000000  -0.0000000  -0.0000000  -0.0000000  -0.0000000  -0.0000000  -0.0000000
 NQMom=    0.0000000   0.0000000   0.0000000   0.0000000   0.0000000   0.0000000   2.0440000   0.0000000   0.0000000   0.0000000
 NMagM=    0.0000000   2.7928460   2.7928460   0.0000000   2.7928460   2.7928460   0.4037610   0.0000000   2.7928460   2.7928460
 AtZNuc=   6.0000000   1.0000000   1.0000000   6.0000000   1.0000000   1.0000000   7.0000000   6.0000000   1.0000000   1.0000000

  Atom        11          12          13          14          15          16          17          18          19
 IAtWgt=           1          12           1           1           1          12           1           1           1
 AtmWgt=   1.0078250  12.0000000   1.0078250   1.0078250   1.0078250  12.0000000   1.0078250   1.0078250   1.0078250
 NucSpn=           1           0           1           1           1           0           1           1           1
 AtZEff=  -0.0000000  -0.0000000  -0.0000000  -0.0000000  -0.0000000  -0.0000000  -0.0000000  -0.0000000  -0.0000000
 NQMom=    0.0000000   0.0000000   0.0000000   0.0000000   0.0000000   0.0000000   0.0000000   0.0000000   0.0000000
 NMagM=    2.7928460   0.0000000   2.7928460   2.7928460   2.7928460   0.0000000   2.7928460   2.7928460   2.7928460
 AtZNuc=   1.0000000   6.0000000   1.0000000   1.0000000   1.0000000   6.0000000   1.0000000   1.0000000   1.0000000
 Leave Link  101 at Fri Sep 18 08:00:26 2026, MaxMem=  4294967296 cpu:               0.2 elap:               0.1
 (Enter /opt/apps/Gaussian/G16C/g16/l103.exe)

 GradGradGradGradGradGradGradGradGradGradGradGradGradGradGradGradGradGrad
 Berny optimization.
 Initialization pass.
                           ----------------------------
                           !    Initial Parameters    !
                           ! (Angstroms and Degrees)  !
 --------------------------                            --------------------------
 ! Name  Definition              Value          Derivative Info.                !
 --------------------------------------------------------------------------------
 ! R1    R(1,2)                  1.07           estimate D2E/DX2                !
 ! R2    R(1,3)                  1.07           estimate D2E/DX2                !
 ! R3    R(1,4)                  1.54           estimate D2E/DX2                !
 ! R4    R(1,16)                 1.54           estimate D2E/DX2                !
 ! R5    R(4,5)                  1.07           estimate D2E/DX2                !
 ! R6    R(4,6)                  1.07           estimate D2E/DX2                !
 ! R7    R(4,7)                  1.47           estimate D2E/DX2                !
 ! R8    R(7,8)                  1.47           estimate D2E/DX2                !
 ! R9    R(7,12)                 1.47           estimate D2E/DX2                !
 ! R10   R(8,9)                  1.07           estimate D2E/DX2                !
 ! R11   R(8,10)                 1.07           estimate D2E/DX2                !
 ! R12   R(8,11)                 1.07           estimate D2E/DX2                !
 ! R13   R(12,13)                1.07           estimate D2E/DX2                !
 ! R14   R(12,14)                1.07           estimate D2E/DX2                !
 ! R15   R(12,15)                1.07           estimate D2E/DX2                !
 ! R16   R(16,17)                1.07           estimate D2E/DX2                !
 ! R17   R(16,18)                1.07           estimate D2E/DX2                !
 ! R18   R(16,19)                1.07           estimate D2E/DX2                !
 ! A1    A(2,1,3)              109.4712         estimate D2E/DX2                !
 ! A2    A(2,1,4)              109.4712         estimate D2E/DX2                !
 ! A3    A(2,1,16)             109.4712         estimate D2E/DX2                !
 ! A4    A(3,1,4)              109.4712         estimate D2E/DX2                !
 ! A5    A(3,1,16)             109.4712         estimate D2E/DX2                !
 ! A6    A(4,1,16)             109.4712         estimate D2E/DX2                !
 ! A7    A(1,4,5)              109.4712         estimate D2E/DX2                !
 ! A8    A(1,4,6)              109.4712         estimate D2E/DX2                !
 ! A9    A(1,4,7)              109.4712         estimate D2E/DX2                !
 ! A10   A(5,4,6)              109.4712         estimate D2E/DX2                !
 ! A11   A(5,4,7)              109.4712         estimate D2E/DX2                !
 ! A12   A(6,4,7)              109.4712         estimate D2E/DX2                !
 ! A13   A(4,7,8)              109.4712         estimate D2E/DX2                !
 ! A14   A(4,7,12)             109.4712         estimate D2E/DX2                !
 ! A15   A(8,7,12)             109.4712         estimate D2E/DX2                !
 ! A16   A(7,8,9)              109.4712         estimate D2E/DX2                !
 ! A17   A(7,8,10)             109.4712         estimate D2E/DX2                !
 ! A18   A(7,8,11)             109.4712         estimate D2E/DX2                !
 ! A19   A(9,8,10)             109.4712         estimate D2E/DX2                !
 ! A20   A(9,8,11)             109.4712         estimate D2E/DX2                !
 ! A21   A(10,8,11)            109.4712         estimate D2E/DX2                !
 ! A22   A(7,12,13)            109.4712         estimate D2E/DX2                !
 ! A23   A(7,12,14)            109.4712         estimate D2E/DX2                !
 ! A24   A(7,12,15)            109.4712         estimate D2E/DX2                !
 ! A25   A(13,12,14)           109.4712         estimate D2E/DX2                !
 ! A26   A(13,12,15)           109.4712         estimate D2E/DX2                !
 ! A27   A(14,12,15)           109.4712         estimate D2E/DX2                !
 ! A28   A(1,16,17)            109.4712         estimate D2E/DX2                !
 ! A29   A(1,16,18)            109.4712         estimate D2E/DX2                !
 ! A30   A(1,16,19)            109.4712         estimate D2E/DX2                !
 ! A31   A(17,16,18)           109.4712         estimate D2E/DX2                !
 ! A32   A(17,16,19)           109.4712         estimate D2E/DX2                !
 ! A33   A(18,16,19)           109.4712         estimate D2E/DX2                !
 ! D1    D(2,1,4,5)           -180.0            estimate D2E/DX2                !
 ! D2    D(2,1,4,6)            -60.0            estimate D2E/DX2                !
 ! D3    D(2,1,4,7)             60.0            estimate D2E/DX2                !
 ! D4    D(3,1,4,5)            -60.0            estimate D2E/DX2                !
 ! D5    D(3,1,4,6)             60.0            estimate D2E/DX2                !
 ! D6    D(3,1,4,7)            180.0            estimate D2E/DX2                !
 ! D7    D(16,1,4,5)            60.0            estimate D2E/DX2                !
 ! D8    D(16,1,4,6)           180.0            estimate D2E/DX2                !
 ! D9    D(16,1,4,7)           -60.0            estimate D2E/DX2                !
 ! D10   D(2,1,16,17)           60.0            estimate D2E/DX2                !
 ! D11   D(2,1,16,18)          180.0            estimate D2E/DX2                !
 ! D12   D(2,1,16,19)          -60.0            estimate D2E/DX2                !
 ! D13   D(3,1,16,17)          -60.0            estimate D2E/DX2                !
 ! D14   D(3,1,16,18)           60.0            estimate D2E/DX2                !
 ! D15   D(3,1,16,19)          180.0            estimate D2E/DX2                !
 ! D16   D(4,1,16,17)          180.0            estimate D2E/DX2                !
 ! D17   D(4,1,16,18)          -60.0            estimate D2E/DX2                !
 ! D18   D(4,1,16,19)           60.0            estimate D2E/DX2                !
 ! D19   D(1,4,7,8)            -60.0            estimate D2E/DX2                !
 ! D20   D(1,4,7,12)           180.0            estimate D2E/DX2                !
 ! D21   D(5,4,7,8)            180.0            estimate D2E/DX2                !
 ! D22   D(5,4,7,12)            60.0            estimate D2E/DX2                !
 ! D23   D(6,4,7,8)             60.0            estimate D2E/DX2                !
 ! D24   D(6,4,7,12)           -60.0            estimate D2E/DX2                !
 ! D25   D(4,7,8,9)            180.0            estimate D2E/DX2                !
 ! D26   D(4,7,8,10)           -60.0            estimate D2E/DX2                !
 ! D27   D(4,7,8,11)            60.0            estimate D2E/DX2                !
 ! D28   D(12,7,8,9)           -60.0            estimate D2E/DX2                !
 ! D29   D(12,7,8,10)           60.0            estimate D2E/DX2                !
 ! D30   D(12,7,8,11)         -180.0            estimate D2E/DX2                !
 ! D31   D(4,7,12,13)           60.0            estimate D2E/DX2                !
 ! D32   D(4,7,12,14)          180.0            estimate D2E/DX2                !
 ! D33   D(4,7,12,15)          -60.0            estimate D2E/DX2                !
 ! D34   D(8,7,12,13)          -60.0            estimate D2E/DX2                !
 ! D35   D(8,7,12,14)           60.0            estimate D2E/DX2                !
 ! D36   D(8,7,12,15)          180.0            estimate D2E/DX2                !
 --------------------------------------------------------------------------------
 Trust Radius=3.00D-01 FncErr=1.00D-07 GrdErr=1.00D-06 EigMax=2.50D+02 EigMin=1.00D-04
 Number of steps in this run=     97 maximum allowed number of steps=    114.
 GradGradGradGradGradGradGradGradGradGradGradGradGradGradGradGradGradGrad

 Leave Link  103 at Fri Sep 18 08:00:26 2026, MaxMem=  4294967296 cpu:               0.0 elap:               0.0
 (Enter /opt/apps/Gaussian/G16C/g16/l202.exe)
                          Input orientation:                          
 ---------------------------------------------------------------------
 Center     Atomic      Atomic             Coordinates (Angstroms)
 Number     Number       Type             X           Y           Z
 ---------------------------------------------------------------------
      1          6           0       -6.871445   -0.533891   -2.248918
      2          1           0       -5.847973   -0.257803   -2.394452
      3          1           0       -7.396928   -0.457876   -3.177891
      4          6           0       -6.943929   -1.983908   -1.735305
      5          1           0       -7.967401   -2.259996   -1.589771
      6          1           0       -6.496302   -2.639283   -2.452949
      7          7           0       -6.222004   -2.088339   -0.459053
      8          6           0       -4.815926   -1.709040   -0.658991
      9          1           0       -4.290443   -1.785055    0.269981
     10          1           0       -4.368299   -2.364415   -1.376636
     11          1           0       -4.765564   -0.701561   -1.015853
     12          6           0       -6.291194   -3.472446    0.031215
     13          1           0       -5.843567   -4.127821   -0.686430
     14          1           0       -5.765711   -3.548461    0.960187
     15          1           0       -7.314666   -3.748535    0.176748
     16          6           0       -7.515693    0.409359   -1.216047
     17          1           0       -7.465331    1.416838   -1.572908
     18          1           0       -8.539165    0.133270   -1.070514
     19          1           0       -6.990211    0.333344   -0.287074
 ---------------------------------------------------------------------
                    Distance matrix (angstroms):
                    1          2          3          4          5
     1  C    0.000000
     2  H    1.070000   0.000000
     3  H    1.070000   1.747303   0.000000
     4  C    1.540000   2.148263   2.148263   0.000000
     5  H    2.148263   3.024610   2.468846   1.070000   0.000000
     6  H    2.148263   2.468846   2.468846   1.070000   1.747303
     7  N    2.457987   2.690081   3.380966   1.470000   2.086720
     8  C    2.852017   2.486571   3.817307   2.400500   3.331921
     9  H    3.817307   3.443487   4.826952   3.331921   4.147803
    10  H    3.221402   2.768249   4.006495   2.628174   3.606919
    11  H    2.446078   1.808056   3.414362   2.628174   3.606919
    12  C    3.764412   4.051448   4.539673   2.400500   2.628174
    13  H    4.051448   4.230177   4.699872   2.628174   2.969085
    14  H    4.539673   4.699872   5.416296   3.331921   3.606919
    15  H    4.051448   4.576840   4.699872   2.628174   2.400500
    16  C    1.540000   2.148263   2.148263   2.514809   2.732978
    17  H    2.148263   2.468846   2.468846   3.444314   3.710993
    18  H    2.148263   3.024610   2.468846   2.732978   2.514809
    19  H    2.148263   2.468846   3.024610   2.732978   3.062243
                    6          7          8          9         10
     6  H    0.000000
     7  N    2.086720   0.000000
     8  C    2.628174   1.470000   0.000000
     9  H    3.606919   2.086720   1.070000   0.000000
    10  H    2.400500   2.086720   1.070000   1.747303   0.000000
    11  H    2.969085   2.086720   1.070000   1.747303   1.747303
    12  C    2.628174   1.470000   2.400500   2.628174   2.628174
    13  H    2.400500   2.086720   2.628174   2.969085   2.400500
    14  H    3.606919   2.086720   2.628174   2.400500   2.969085
    15  H    2.969085   2.086720   3.331921   3.606919   3.606919
    16  C    3.444314   2.912931   3.476588   4.174442   4.198297
    17  H    4.262112   3.882370   4.198297   4.871167   4.891625
    18  H    3.710993   3.267823   4.174442   4.850622   4.871167
    19  H    3.710993   2.546422   3.006188   3.476588   3.916563
                   11         12         13         14         15
    11  H    0.000000
    12  C    3.331921   0.000000
    13  H    3.606919   1.070000   0.000000
    14  H    3.606919   1.070000   1.747303   0.000000
    15  H    4.147803   1.070000   1.747303   1.747303   0.000000
    16  C    2.972782   4.257167   4.864412   4.843838   4.389575
    17  H    3.476588   5.277964   5.844587   5.827475   5.455737
    18  H    3.865230   4.389575   5.056745   5.036957   4.257167
    19  H    2.559531   3.882521   4.623447   4.257167   4.120938
                   16         17         18         19
    16  C    0.000000
    17  H    1.070000   0.000000
    18  H    1.070000   1.747303   0.000000
    19  H    1.070000   1.747303   1.747303   0.000000
 Stoichiometry    C5H13N
 Framework group  C1[X(C5H13N)]
 Deg. of freedom    51
 Full point group                 C1      NOp   1
 Largest Abelian subgroup         C1      NOp   1
 Largest concise Abelian subgroup C1      NOp   1
                         Standard orientation:                         
 ---------------------------------------------------------------------
 Center     Atomic      Atomic             Coordinates (Angstroms)
 Number     Number       Type             X           Y           Z
 ---------------------------------------------------------------------
      1          6           0        1.518244   -0.002848    0.636161
      2          1           0        1.396256    1.016911    0.936344
      3          1           0        2.171033   -0.500947    1.322211
      4          6           0        0.147129   -0.704004    0.631112
      5          1           0        0.269117   -1.723763    0.330930
      6          1           0       -0.274727   -0.669510    1.613837
      7          7           0       -0.749692   -0.019699   -0.311404
      8          6           0       -0.917283    1.381279    0.100997
      9          1           0       -1.570072    1.879378   -0.585053
     10          1           0       -1.339140    1.415772    1.083721
     11          1           0        0.035374    1.868445    0.104505
     12          6           0       -2.058484   -0.688984   -0.316224
     13          1           0       -2.480340   -0.654491    0.666501
     14          1           0       -2.711272   -0.190885   -1.002273
     15          1           0       -1.936496   -1.708744   -0.616407
     16          6           0        2.125402   -0.052493   -0.778227
     17          1           0        3.078059    0.434674   -0.774719
     18          1           0        2.247390   -1.072252   -1.078410
     19          1           0        1.472613    0.445607   -1.464277
 ---------------------------------------------------------------------
 Rotational constants (GHZ):           5.9009486           2.2108345           2.0239348
 Leave Link  202 at Fri Sep 18 08:00:26 2026, MaxMem=  4294967296 cpu:               0.0 elap:               0.0
 (Enter /opt/apps/Gaussian/G16C/g16/l301.exe)
 Standard basis: 6-311+G(2d,2p) (5D, 7F)
 Ernie: Thresh=  0.10000D-02 Tol=  0.10000D-05 Strict=F.
 There are   291 symmetry adapted cartesian basis functions of A   symmetry.
 There are   279 symmetry adapted basis functions of A   symmetry.
   279 basis functions,   395 primitive gaussians,   291 cartesian basis functions
    25 alpha electrons       25 beta electrons
       nuclear repulsion energy       267.3993294902 Hartrees.
 IExCor= 4639 DFT=T Ex+Corr=wB97XD ExCW=0 ScaHFX=  1.000000
 ScaDFX=  1.000000  1.000000  1.000000  1.000000 ScalE2=  1.000000  1.000000
 IRadAn=      5 IRanWt=     -1 IRanGd=            0 ICorTp=0 IEmpDi=121
 HFx  wShort=  0.000000 wLong=  0.200000 cFull=  0.222036 cShort=  0.000000 cLong=  0.777964
 DFx  wShort=  0.000000 wLong=  0.200000 cFull=  0.000000 cShort=  0.000000 cLong=  1.000000
 NAtoms=   19 NActive=   19 NUniq=   19 SFac= 1.00D+00 NAtFMM=   60 NAOKFM=F Big=F
 Integral buffers will be    131072 words long.
 Raffenetti 2 integral format.
 Two-electron integral symmetry is turned on.
 R6Disp:  Grimme-D2 Dispersion energy=       -0.0113983217 Hartrees.
 Nuclear repulsion after empirical dispersion term =      267.3879311685 Hartrees.
 Leave Link  301 at Fri Sep 18 08:00:26 2026, MaxMem=  4294967296 cpu:               0.0 elap:               0.0
 (Enter /opt/apps/Gaussian/G16C/g16/l302.exe)
 NPDir=0 NMtPBC=     1 NCelOv=     1 NCel=       1 NClECP=     1 NCelD=      1
         NCelK=      1 NCelE2=     1 NClLst=     1 CellRange=     0.0.
 One-electron integrals computed using PRISM.
 One-electron integral symmetry used in STVInt
 NBasis=   279 RedAO= T EigKep=  3.60D-05  NBF=   279
 NBsUse=   279 1.00D-06 EigRej= -1.00D+00 NBFU=   279
 Precomputing XC quadrature grid using
 IXCGrd= 4 IRadAn=           5 IRanWt=          -1 IRanGd=           0 AccXCQ= 0.00D+00.
 Generated NRdTot=       0 NPtTot=           0 NUsed=           0 NTot=          32
 NSgBfM=   291   291   291   291   291 MxSgAt=    19 MxSgA2=    19.
 Leave Link  302 at Fri Sep 18 08:00:26 2026, MaxMem=  4294967296 cpu:               1.6 elap:               0.2
 (Enter /opt/apps/Gaussian/G16C/g16/l303.exe)
 DipDrv:  MaxL=1.
 Leave Link  303 at Fri Sep 18 08:00:26 2026, MaxMem=  4294967296 cpu:               0.1 elap:               0.0
 (Enter /opt/apps/Gaussian/G16C/g16/l401.exe)
 ExpMin= 4.38D-02 ExpMax= 6.29D+03 ExpMxC= 9.49D+02 IAcc=3 IRadAn=         5 AccDes= 0.00D+00
 Harris functional with IExCor= 4639 and IRadAn=       5 diagonalized for initial guess.
 HarFok:  IExCor= 4639 AccDes= 0.00D+00 IRadAn=         5 IDoV= 1 UseB2=F ITyADJ=14
 ICtDFT=  3500011 ScaDFX=  1.000000  1.000000  1.000000  1.000000
 FoFCou: FMM=F IPFlag=           0 FMFlag=      100000 FMFlg1=           0
         NFxFlg=           0 DoJE=T BraDBF=F KetDBF=T FulRan=T
         wScrn=  0.000000 ICntrl=       500 IOpCl=  0 I1Cent=   200000004 NGrid=           0
         NMat0=    1 NMatS0=      1 NMatT0=    0 NMatD0=    1 NMtDS0=    0 NMtDT0=    0
 Petite list used in FoFCou.
 Harris En= -240.780210766965    
 JPrj=0 DoOrth=F DoCkMO=F.
 Leave Link  401 at Fri Sep 18 08:00:27 2026, MaxMem=  4294967296 cpu:               9.8 elap:               0.7
 (Enter /opt/apps/Gaussian/G16C/g16/l502.exe)
 Integral symmetry usage will be decided dynamically.
 Closed shell SCF:
 Using DIIS extrapolation, IDIIS=  1040.
 NGot=  4294967296 LenX=  4294789954 LenY=  4294704832
 Requested convergence on RMS density matrix=1.00D-08 within  32 cycles.
 Requested convergence on MAX density matrix=1.00D-06.
 Requested convergence on             energy=1.00D-06.
 No special actions if energy rises.
 Fock matrices will be formed incrementally for  20 cycles.

 Cycle   1  Pass 1  IDiag  1:
 FoFJK:  IHMeth= 1 ICntrl=       0 DoSepK=T KAlg= 0 I1Cent=           0 FoldK=F
 IRaf=         1 NMat=       1 IRICut=       1 DoRegI=T DoRafI=F ISym2E= 0 IDoP0=0 IntGTp=1.
 FoFCou: FMM=F IPFlag=           0 FMFlag=      100000 FMFlg1=           0
         NFxFlg=           0 DoJE=T BraDBF=F KetDBF=F FulRan=T
         wScrn=  0.000000 ICntrl=       500 IOpCl=  0 I1Cent=           0 NGrid=           0
         NMat0=    1 NMatS0=      1 NMatT0=    0 NMatD0=    1 NMtDS0=    0 NMtDT0=    0
 Symmetry not used in FoFCou.
 E= -253.001900415972    
 DIIS: error= 5.47D-02 at cycle   1 NSaved=   1.
 NSaved= 1 IEnMin= 1 EnMin= -253.001900415972     IErMin= 1 ErrMin= 5.47D-02
 ErrMax= 5.47D-02  0.00D+00 EMaxC= 1.00D-01 BMatC= 5.50D-01 BMatP= 5.50D-01
 IDIUse=3 WtCom= 4.53D-01 WtEn= 5.47D-01
 Coeff-Com:  0.100D+01
 Coeff-En:   0.100D+01
 Coeff:      0.100D+01
 Gap=     0.404 Goal=   None    Shift=    0.000
 GapD=    0.404 DampG=2.000 DampE=0.500 DampFc=1.0000 IDamp=-1.
 RMSDP=1.63D-03 MaxDP=8.45D-02              OVMax= 7.90D-02

 Cycle   2  Pass 1  IDiag  1:
 RMSU=  1.59D-03    CP:  9.54D-01
 E= -253.054583433464     Delta-E=       -0.052683017492 Rises=F Damp=F
 DIIS: error= 9.41D-03 at cycle   2 NSaved=   2.
 NSaved= 2 IEnMin= 2 EnMin= -253.054583433464     IErMin= 2 ErrMin= 9.41D-03
 ErrMax= 9.41D-03  0.00D+00 EMaxC= 1.00D-01 BMatC= 5.21D-02 BMatP= 5.50D-01
 IDIUse=3 WtCom= 9.06D-01 WtEn= 9.41D-02
 Coeff-Com:  0.159D+00 0.841D+00
 Coeff-En:   0.166D+00 0.834D+00
 Coeff:      0.160D+00 0.840D+00
 Gap=     0.341 Goal=   None    Shift=    0.000
 RMSDP=7.67D-04 MaxDP=6.46D-02 DE=-5.27D-02 OVMax= 7.08D-02

 Cycle   3  Pass 1  IDiag  1:
 RMSU=  6.72D-04    CP:  9.63D-01  7.73D-01
 E= -253.073418726264     Delta-E=       -0.018835292800 Rises=F Damp=F
 DIIS: error= 7.17D-03 at cycle   3 NSaved=   3.
 NSaved= 3 IEnMin= 3 EnMin= -253.073418726264     IErMin= 3 ErrMin= 7.17D-03
 ErrMax= 7.17D-03  0.00D+00 EMaxC= 1.00D-01 BMatC= 2.62D-02 BMatP= 5.21D-02
 IDIUse=3 WtCom= 9.28D-01 WtEn= 7.17D-02
 Coeff-Com:  0.220D-01 0.418D+00 0.560D+00
 Coeff-En:   0.000D+00 0.339D+00 0.661D+00
 Coeff:      0.204D-01 0.412D+00 0.568D+00
 Gap=     0.371 Goal=   None    Shift=    0.000
 RMSDP=4.40D-04 MaxDP=3.07D-02 DE=-1.88D-02 OVMax= 3.99D-02

 Cycle   4  Pass 1  IDiag  1:
 RMSU=  2.12D-04    CP:  9.54D-01  9.80D-01  7.23D-01
 E= -253.093714444643     Delta-E=       -0.020295718379 Rises=F Damp=F
 DIIS: error= 1.11D-03 at cycle   4 NSaved=   4.
 NSaved= 4 IEnMin= 4 EnMin= -253.093714444643     IErMin= 4 ErrMin= 1.11D-03
 ErrMax= 1.11D-03  0.00D+00 EMaxC= 1.00D-01 BMatC= 3.71D-04 BMatP= 2.62D-02
 IDIUse=3 WtCom= 9.89D-01 WtEn= 1.11D-02
 Coeff-Com:  0.868D-02 0.157D+00 0.245D+00 0.589D+00
 Coeff-En:   0.000D+00 0.000D+00 0.000D+00 0.100D+01
 Coeff:      0.858D-02 0.155D+00 0.242D+00 0.594D+00
 Gap=     0.362 Goal=   None    Shift=    0.000
 RMSDP=5.60D-05 MaxDP=2.87D-03 DE=-2.03D-02 OVMax= 3.94D-03

 Cycle   5  Pass 1  IDiag  1:
 RMSU=  4.83D-05    CP:  9.53D-01  9.87D-01  7.55D-01  9.44D-01
 E= -253.094033479429     Delta-E=       -0.000319034786 Rises=F Damp=F
 DIIS: error= 2.02D-04 at cycle   5 NSaved=   5.
 NSaved= 5 IEnMin= 5 EnMin= -253.094033479429     IErMin= 5 ErrMin= 2.02D-04
 ErrMax= 2.02D-04  0.00D+00 EMaxC= 1.00D-01 BMatC= 8.32D-06 BMatP= 3.71D-04
 IDIUse=3 WtCom= 9.98D-01 WtEn= 2.02D-03
 Coeff-Com: -0.138D-02-0.229D-01-0.189D-01 0.838D-01 0.959D+00
 Coeff-En:   0.000D+00 0.000D+00 0.000D+00 0.000D+00 0.100D+01
 Coeff:     -0.138D-02-0.228D-01-0.189D-01 0.837D-01 0.959D+00
 Gap=     0.362 Goal=   None    Shift=    0.000
 RMSDP=5.37D-05 MaxDP=3.22D-03 DE=-3.19D-04 OVMax= 1.48D-03

 Cycle   6  Pass 1  IDiag  1:
 RMSU=  1.02D-05    CP:  9.52D-01  1.01D+00  7.86D-01  1.10D+00  1.30D+00
 E= -253.094044800053     Delta-E=       -0.000011320624 Rises=F Damp=F
 DIIS: error= 2.36D-05 at cycle   6 NSaved=   6.
 NSaved= 6 IEnMin= 6 EnMin= -253.094044800053     IErMin= 6 ErrMin= 2.36D-05
 ErrMax= 2.36D-05  0.00D+00 EMaxC= 1.00D-01 BMatC= 3.33D-07 BMatP= 8.32D-06
 IDIUse=1 WtCom= 1.00D+00 WtEn= 0.00D+00
 Coeff-Com: -0.527D-03-0.932D-02-0.108D-01-0.228D-02 0.161D+00 0.862D+00
 Coeff:     -0.527D-03-0.932D-02-0.108D-01-0.228D-02 0.161D+00 0.862D+00
 Gap=     0.362 Goal=   None    Shift=    0.000
 RMSDP=1.52D-05 MaxDP=9.19D-04 DE=-1.13D-05 OVMax= 4.36D-04

 Cycle   7  Pass 1  IDiag  1:
 RMSU=  2.84D-06    CP:  9.52D-01  1.01D+00  7.94D-01  1.13D+00  1.42D+00
                    CP:  1.23D+00
 E= -253.094045309555     Delta-E=       -0.000000509501 Rises=F Damp=F
 DIIS: error= 1.25D-05 at cycle   7 NSaved=   7.
 NSaved= 7 IEnMin= 7 EnMin= -253.094045309555     IErMin= 7 ErrMin= 1.25D-05
 ErrMax= 1.25D-05  0.00D+00 EMaxC= 1.00D-01 BMatC= 6.33D-08 BMatP= 3.33D-07
 IDIUse=1 WtCom= 1.00D+00 WtEn= 0.00D+00
 Coeff-Com: -0.168D-04-0.565D-03-0.132D-02-0.102D-01-0.544D-01 0.279D+00
 Coeff-Com:  0.787D+00
 Coeff:     -0.168D-04-0.565D-03-0.132D-02-0.102D-01-0.544D-01 0.279D+00
 Coeff:      0.787D+00
 Gap=     0.362 Goal=   None    Shift=    0.000
 RMSDP=5.78D-06 MaxDP=3.54D-04 DE=-5.10D-07 OVMax= 1.71D-04

 Cycle   8  Pass 1  IDiag  1:
 RMSU=  8.74D-07    CP:  9.51D-01  1.02D+00  7.97D-01  1.15D+00  1.46D+00
                    CP:  1.38D+00  1.17D+00
 E= -253.094045403568     Delta-E=       -0.000000094014 Rises=F Damp=F
 DIIS: error= 2.38D-06 at cycle   8 NSaved=   8.
 NSaved= 8 IEnMin= 8 EnMin= -253.094045403568     IErMin= 8 ErrMin= 2.38D-06
 ErrMax= 2.38D-06  0.00D+00 EMaxC= 1.00D-01 BMatC= 3.17D-09 BMatP= 6.33D-08
 IDIUse=1 WtCom= 1.00D+00 WtEn= 0.00D+00
 Coeff-Com:  0.313D-04 0.524D-03 0.517D-03-0.243D-02-0.218D-01-0.480D-02
 Coeff-Com:  0.149D+00 0.879D+00
 Coeff:      0.313D-04 0.524D-03 0.517D-03-0.243D-02-0.218D-01-0.480D-02
 Coeff:      0.149D+00 0.879D+00
 Gap=     0.362 Goal=   None    Shift=    0.000
 RMSDP=1.82D-06 MaxDP=1.09D-04 DE=-9.40D-08 OVMax= 6.62D-05

 Cycle   9  Pass 1  IDiag  1:
 RMSU=  2.54D-07    CP:  9.51D-01  1.02D+00  7.98D-01  1.15D+00  1.48D+00
                    CP:  1.43D+00  1.34D+00  1.29D+00
 E= -253.094045410830     Delta-E=       -0.000000007262 Rises=F Damp=F
 DIIS: error= 1.08D-06 at cycle   9 NSaved=   9.
 NSaved= 9 IEnMin= 9 EnMin= -253.094045410830     IErMin= 9 ErrMin= 1.08D-06
 ErrMax= 1.08D-06  0.00D+00 EMaxC= 1.00D-01 BMatC= 2.99D-10 BMatP= 3.17D-09
 IDIUse=1 WtCom= 1.00D+00 WtEn= 0.00D+00
 Coeff-Com:  0.392D-05 0.109D-03 0.195D-03 0.529D-03 0.360D-02-0.260D-01
 Coeff-Com: -0.647D-01 0.842D-01 0.100D+01
 Coeff:      0.392D-05 0.109D-03 0.195D-03 0.529D-03 0.360D-02-0.260D-01
 Coeff:     -0.647D-01 0.842D-01 0.100D+01
 Gap=     0.362 Goal=   None    Shift=    0.000
 RMSDP=6.50D-07 MaxDP=3.73D-05 DE=-7.26D-09 OVMax= 2.91D-05

 Cycle  10  Pass 1  IDiag  1:
 RMSU=  8.61D-08    CP:  9.51D-01  1.02D+00  7.98D-01  1.15D+00  1.48D+00
                    CP:  1.45D+00  1.41D+00  1.50D+00  1.29D+00
 E= -253.094045411748     Delta-E=       -0.000000000918 Rises=F Damp=F
 DIIS: error= 3.04D-07 at cycle  10 NSaved=  10.
 NSaved=10 IEnMin=10 EnMin= -253.094045411748     IErMin=10 ErrMin= 3.04D-07
 ErrMax= 3.04D-07  0.00D+00 EMaxC= 1.00D-01 BMatC= 3.49D-11 BMatP= 2.99D-10
 IDIUse=1 WtCom= 1.00D+00 WtEn= 0.00D+00
 Coeff-Com: -0.152D-05-0.173D-04 0.694D-05 0.332D-03 0.287D-02-0.590D-02
 Coeff-Com: -0.306D-01-0.629D-01 0.259D+00 0.837D+00
 Coeff:     -0.152D-05-0.173D-04 0.694D-05 0.332D-03 0.287D-02-0.590D-02
 Coeff:     -0.306D-01-0.629D-01 0.259D+00 0.837D+00
 Gap=     0.362 Goal=   None    Shift=    0.000
 RMSDP=1.28D-07 MaxDP=6.31D-06 DE=-9.18D-10 OVMax= 7.46D-06

 Cycle  11  Pass 1  IDiag  1:
 RMSU=  2.59D-08    CP:  9.51D-01  1.02D+00  7.98D-01  1.15D+00  1.48D+00
                    CP:  1.45D+00  1.43D+00  1.55D+00  1.40D+00  1.29D+00
 E= -253.094045411829     Delta-E=       -0.000000000080 Rises=F Damp=F
 DIIS: error= 1.12D-07 at cycle  11 NSaved=  11.
 NSaved=11 IEnMin=11 EnMin= -253.094045411829     IErMin=11 ErrMin= 1.12D-07
 ErrMax= 1.12D-07  0.00D+00 EMaxC= 1.00D-01 BMatC= 3.03D-12 BMatP= 3.49D-11
 IDIUse=1 WtCom= 1.00D+00 WtEn= 0.00D+00
 Coeff-Com: -0.635D-06-0.125D-04-0.157D-04 0.103D-04 0.138D-03 0.150D-02
 Coeff-Com:  0.504D-03-0.218D-01-0.366D-01 0.191D+00 0.866D+00
 Coeff:     -0.635D-06-0.125D-04-0.157D-04 0.103D-04 0.138D-03 0.150D-02
 Coeff:      0.504D-03-0.218D-01-0.366D-01 0.191D+00 0.866D+00
 Gap=     0.362 Goal=   None    Shift=    0.000
 RMSDP=2.23D-08 MaxDP=7.73D-07 DE=-8.03D-11 OVMax= 2.11D-06

 Cycle  12  Pass 1  IDiag  1:
 RMSU=  8.48D-09    CP:  9.51D-01  1.02D+00  7.98D-01  1.15D+00  1.48D+00
                    CP:  1.45D+00  1.43D+00  1.56D+00  1.43D+00  1.45D+00
                    CP:  1.27D+00
 E= -253.094045411834     Delta-E=       -0.000000000005 Rises=F Damp=F
 DIIS: error= 3.50D-08 at cycle  12 NSaved=  12.
 NSaved=12 IEnMin=12 EnMin= -253.094045411834     IErMin=12 ErrMin= 3.50D-08
 ErrMax= 3.50D-08  0.00D+00 EMaxC= 1.00D-01 BMatC= 2.33D-13 BMatP= 3.03D-12
 IDIUse=1 WtCom= 1.00D+00 WtEn= 0.00D+00
 Coeff-Com:  0.227D-07-0.139D-05-0.441D-05-0.303D-04-0.247D-03 0.952D-03
 Coeff-Com:  0.324D-02 0.106D-02-0.340D-01-0.484D-01 0.169D+00 0.909D+00
 Coeff:      0.227D-07-0.139D-05-0.441D-05-0.303D-04-0.247D-03 0.952D-03
 Coeff:      0.324D-02 0.106D-02-0.340D-01-0.484D-01 0.169D+00 0.909D+00
 Gap=     0.362 Goal=   None    Shift=    0.000
 RMSDP=8.67D-09 MaxDP=3.50D-07 DE=-5.00D-12 OVMax= 7.27D-07

 SCF Done:  E(RwB97XD) =  -253.094045412     A.U. after   12 cycles
            NFock= 12  Conv=0.87D-08     -V/T= 2.0033
 KE= 2.522655809358D+02 PE=-1.121852616915D+03 EE= 3.491050593992D+02
 Leave Link  502 at Fri Sep 18 08:00:48 2026, MaxMem=  4294967296 cpu:             315.1 elap:              20.9
 (Enter /opt/apps/Gaussian/G16C/g16/l508.exe)
 QCSCF skips out because SCF is already converged.
 Leave Link  508 at Fri Sep 18 08:00:48 2026, MaxMem=  4294967296 cpu:               0.0 elap:               0.0
 (Enter /opt/apps/Gaussian/G16C/g16/l601.exe)
 Copying SCF densities to generalized density rwf, IOpCl= 0 IROHF=0.

 **********************************************************************

            Population analysis using the SCF Density.

 **********************************************************************

 Orbital symmetries:
       Occupied  (A) (A) (A) (A) (A) (A) (A) (A) (A) (A) (A) (A)
                 (A) (A) (A) (A) (A) (A) (A) (A) (A) (A) (A) (A)
                 (A)
       Virtual   (A) (A) (A) (A) (A) (A) (A) (A) (A) (A) (A) (A)
                 (A) (A) (A) (A) (A) (A) (A) (A) (A) (A) (A) (A)
                 (A) (A) (A) (A) (A) (A) (A) (A) (A) (A) (A) (A)
                 (A) (A) (A) (A) (A) (A) (A) (A) (A) (A) (A) (A)
                 (A) (A) (A) (A) (A) (A) (A) (A) (A) (A) (A) (A)
                 (A) (A) (A) (A) (A) (A) (A) (A) (A) (A) (A) (A)
                 (A) (A) (A) (A) (A) (A) (A) (A) (A) (A) (A) (A)
                 (A) (A) (A) (A) (A) (A) (A) (A) (A) (A) (A) (A)
                 (A) (A) (A) (A) (A) (A) (A) (A) (A) (A) (A) (A)
                 (A) (A) (A) (A) (A) (A) (A) (A) (A) (A) (A) (A)
                 (A) (A) (A) (A) (A) (A) (A) (A) (A) (A) (A) (A)
                 (A) (A) (A) (A) (A) (A) (A) (A) (A) (A) (A) (A)
                 (A) (A) (A) (A) (A) (A) (A) (A) (A) (A) (A) (A)
                 (A) (A) (A) (A) (A) (A) (A) (A) (A) (A) (A) (A)
                 (A) (A) (A) (A) (A) (A) (A) (A) (A) (A) (A) (A)
                 (A) (A) (A) (A) (A) (A) (A) (A) (A) (A) (A) (A)
                 (A) (A) (A) (A) (A) (A) (A) (A) (A) (A) (A) (A)
                 (A) (A) (A) (A) (A) (A) (A) (A) (A) (A) (A) (A)
                 (A) (A) (A) (A) (A) (A) (A) (A) (A) (A) (A) (A)
                 (A) (A) (A) (A) (A) (A) (A) (A) (A) (A) (A) (A)
                 (A) (A) (A) (A) (A) (A) (A) (A) (A) (A) (A) (A)
                 (A) (A)
 The electronic state is 1-A.
 Alpha  occ. eigenvalues --  -14.41835 -10.29141 -10.28525 -10.28497 -10.26706
 Alpha  occ. eigenvalues --  -10.25072  -1.01967  -0.87438  -0.80504  -0.78446
 Alpha  occ. eigenvalues --   -0.71583  -0.65846  -0.57843  -0.56807  -0.54041
 Alpha  occ. eigenvalues --   -0.51747  -0.49773  -0.48304  -0.46967  -0.45525
 Alpha  occ. eigenvalues --   -0.44516  -0.42223  -0.41346  -0.40340  -0.29655
 Alpha virt. eigenvalues --    0.06553   0.07707   0.08018   0.08256   0.10388
 Alpha virt. eigenvalues --    0.10932   0.10974   0.11570   0.12145   0.13558
 Alpha virt. eigenvalues --    0.14323   0.14830   0.15485   0.15516   0.16725
 Alpha virt. eigenvalues --    0.17665   0.18287   0.19630   0.20767   0.21265
 Alpha virt. eigenvalues --    0.23849   0.24710   0.26114   0.26253   0.26976
 Alpha virt. eigenvalues --    0.27658   0.28202   0.29253   0.29521   0.31128
 Alpha virt. eigenvalues --    0.31750   0.31972   0.33062   0.33248   0.33627
 Alpha virt. eigenvalues --    0.34303   0.34861   0.35260   0.37191   0.38581
 Alpha virt. eigenvalues --    0.41566   0.43657   0.45976   0.47746   0.49233
 Alpha virt. eigenvalues --    0.50347   0.51991   0.52885   0.53807   0.57105
 Alpha virt. eigenvalues --    0.57780   0.59117   0.60092   0.60320   0.61291
 Alpha virt. eigenvalues --    0.61955   0.63471   0.63947   0.64986   0.65625
 Alpha virt. eigenvalues --    0.66317   0.66927   0.67757   0.69053   0.69810
 Alpha virt. eigenvalues --    0.71030   0.72882   0.74203   0.75204   0.75427
 Alpha virt. eigenvalues --    0.76891   0.77654   0.78154   0.79157   0.81875
 Alpha virt. eigenvalues --    0.85126   0.86589   0.89022   0.89853   0.93991
 Alpha virt. eigenvalues --    0.95125   0.95790   0.99145   0.99944   1.02306
 Alpha virt. eigenvalues --    1.03711   1.05994   1.08314   1.09509   1.10384
 Alpha virt. eigenvalues --    1.12300   1.15641   1.16490   1.18041   1.19744
 Alpha virt. eigenvalues --    1.20517   1.21977   1.23329   1.24720   1.26061
 Alpha virt. eigenvalues --    1.26615   1.27630   1.28638   1.28992   1.30180
 Alpha virt. eigenvalues --    1.31977   1.33205   1.34809   1.35625   1.36455
 Alpha virt. eigenvalues --    1.38214   1.38617   1.41571   1.42423   1.43490
 Alpha virt. eigenvalues --    1.44637   1.45817   1.47425   1.48130   1.50426
 Alpha virt. eigenvalues --    1.51173   1.51625   1.52370   1.52786   1.55191
 Alpha virt. eigenvalues --    1.56696   1.56992   1.58390   1.60990   1.62980
 Alpha virt. eigenvalues --    1.63228   1.64999   1.66435   1.69231   1.69983
 Alpha virt. eigenvalues --    1.71074   1.72430   1.75477   1.77056   1.78369
 Alpha virt. eigenvalues --    1.81949   1.84087   1.92963   1.97880   1.98448
 Alpha virt. eigenvalues --    2.04517   2.11178   2.17206   2.71478   2.75309
 Alpha virt. eigenvalues --    2.77739   2.80434   2.84518   2.90242   2.96088
 Alpha virt. eigenvalues --    2.96922   3.01744   3.02738   3.14519   3.15692
 Alpha virt. eigenvalues --    3.16616   3.20139   3.27355   3.28827   3.32359
 Alpha virt. eigenvalues --    3.33226   3.35197   3.37541   3.39113   3.42801
 Alpha virt. eigenvalues --    3.44363   3.47644   3.48764   3.49968   3.51110
 Alpha virt. eigenvalues --    3.52477   3.54310   3.56267   3.57301   3.58531
 Alpha virt. eigenvalues --    3.63146   3.64964   3.65458   3.67771   3.68370
 Alpha virt. eigenvalues --    3.70937   3.71955   3.73060   3.73921   3.75510
 Alpha virt. eigenvalues --    3.77550   3.79053   3.80377   3.82142   3.83885
 Alpha virt. eigenvalues --    3.88330   3.93244   3.93518   3.96728   3.98988
 Alpha virt. eigenvalues --    4.01195   4.04160   4.05802   4.09418   4.10821
 Alpha virt. eigenvalues --    4.12036   4.13189   4.15186   4.16625   4.18790
 Alpha virt. eigenvalues --    4.19549   4.21480   4.22301   4.24692   4.27885
 Alpha virt. eigenvalues --    4.28932   4.29066   4.30869   4.32198   4.33625
 Alpha virt. eigenvalues --    4.37008   4.38598   4.40232   4.40292   4.43811
 Alpha virt. eigenvalues --    4.44642   4.45743   4.49634   4.51342   4.57802
 Alpha virt. eigenvalues --    4.67541   4.86208   5.02614   5.14396   5.16234
 Alpha virt. eigenvalues --    5.17137   5.21497   5.22312   5.24366   5.25392
 Alpha virt. eigenvalues --    5.29443   5.32711   5.35451   5.43262   5.45429
 Alpha virt. eigenvalues --    5.65193   5.69989   5.72810  24.06122  24.12042
 Alpha virt. eigenvalues --   24.22177  24.23374  24.29250  35.69696
          Condensed to atoms (all electrons):
               1          2          3          4          5          6
     1  C    5.068040   0.481170   0.458946   0.202133  -0.018545  -0.033145
     2  H    0.481170   0.549513  -0.028262  -0.033140   0.004518  -0.006485
     3  H    0.458946  -0.028262   0.520207  -0.047620  -0.004558  -0.003845
     4  C    0.202133  -0.033140  -0.047620   5.078447   0.460088   0.443641
     5  H   -0.018545   0.004518  -0.004558   0.460088   0.518404  -0.030176
     6  H   -0.033145  -0.006485  -0.003845   0.443641  -0.030176   0.531269
     7  N   -0.056743  -0.005758   0.006781   0.212698  -0.050266  -0.037740
     8  C   -0.005423  -0.009491   0.000719  -0.088539  -0.002009   0.000129
     9  H    0.003948   0.000499   0.000029   0.005678  -0.000075  -0.000711
    10  H   -0.016551  -0.000879  -0.000087   0.011270  -0.000442   0.009220
    11  H   -0.003338  -0.005254   0.000881  -0.008214  -0.000160  -0.002126
    12  C   -0.022338   0.000627  -0.000754  -0.027347  -0.000483  -0.003617
    13  H   -0.002869  -0.000120  -0.000019  -0.012585  -0.002333   0.011340
    14  H    0.002849  -0.000016   0.000017   0.007317   0.000060  -0.000503
    15  H   -0.006495   0.000027   0.000009   0.002536   0.003540  -0.002508
    16  C    0.219839  -0.050362  -0.016497  -0.004194  -0.007567   0.001346
    17  H   -0.061719  -0.003484  -0.004432   0.032389  -0.000300  -0.000095
    18  H   -0.011799   0.004963  -0.006319  -0.021678   0.001177   0.000267
    19  H    0.000979  -0.006501   0.004723  -0.029850   0.000105  -0.000575
               7          8          9         10         11         12
     1  C   -0.056743  -0.005423   0.003948  -0.016551  -0.003338  -0.022338
     2  H   -0.005758  -0.009491   0.000499  -0.000879  -0.005254   0.000627
     3  H    0.006781   0.000719   0.000029  -0.000087   0.000881  -0.000754
     4  C    0.212698  -0.088539   0.005678   0.011270  -0.008214  -0.027347
     5  H   -0.050266  -0.002009  -0.000075  -0.000442  -0.000160  -0.000483
     6  H   -0.037740   0.000129  -0.000711   0.009220  -0.002126  -0.003617
     7  N    6.951931   0.249211  -0.042478  -0.041655  -0.048781   0.232685
     8  C    0.249211   4.881393   0.434351   0.423471   0.436833  -0.042426
     9  H   -0.042478   0.434351   0.537499  -0.032657  -0.020503  -0.003083
    10  H   -0.041655   0.423471  -0.032657   0.561926  -0.034096  -0.003200
    11  H   -0.048781   0.436833  -0.020503  -0.034096   0.561500   0.002685
    12  C    0.232685  -0.042426  -0.003083  -0.003200   0.002685   4.801023
    13  H   -0.032296   0.000427  -0.003269   0.014286  -0.000802   0.420740
    14  H   -0.044406  -0.004436   0.004571  -0.002579   0.000098   0.429501
    15  H   -0.045863   0.000789   0.000191  -0.000521  -0.000227   0.443144
    16  C   -0.017508   0.008982  -0.002969   0.001494   0.003730  -0.007508
    17  H    0.002208  -0.000245   0.000009   0.000009  -0.000113   0.000653
    18  H   -0.000155  -0.000561   0.000014   0.000008  -0.000248  -0.000436
    19  H   -0.010535   0.003936   0.000136  -0.000435   0.003469  -0.001517
              13         14         15         16         17         18
     1  C   -0.002869   0.002849  -0.006495   0.219839  -0.061719  -0.011799
     2  H   -0.000120  -0.000016   0.000027  -0.050362  -0.003484   0.004963
     3  H   -0.000019   0.000017   0.000009  -0.016497  -0.004432  -0.006319
     4  C   -0.012585   0.007317   0.002536  -0.004194   0.032389  -0.021678
     5  H   -0.002333   0.000060   0.003540  -0.007567  -0.000300   0.001177
     6  H    0.011340  -0.000503  -0.002508   0.001346  -0.000095   0.000267
     7  N   -0.032296  -0.044406  -0.045863  -0.017508   0.002208  -0.000155
     8  C    0.000427  -0.004436   0.000789   0.008982  -0.000245  -0.000561
     9  H   -0.003269   0.004571   0.000191  -0.002969   0.000009   0.000014
    10  H    0.014286  -0.002579  -0.000521   0.001494   0.000009   0.000008
    11  H   -0.000802   0.000098  -0.000227   0.003730  -0.000113  -0.000248
    12  C    0.420740   0.429501   0.443144  -0.007508   0.000653  -0.000436
    13  H    0.582977  -0.036431  -0.038669  -0.000967   0.000004   0.000016
    14  H   -0.036431   0.552288  -0.016538  -0.000052  -0.000002  -0.000008
    15  H   -0.038669  -0.016538   0.547849   0.002374  -0.000003  -0.000042
    16  C   -0.000967  -0.000052   0.002374   4.964666   0.430632   0.428805
    17  H    0.000004  -0.000002  -0.000003   0.430632   0.540811  -0.023213
    18  H    0.000016  -0.000008  -0.000042   0.428805  -0.023213   0.548910
    19  H   -0.000073   0.000075   0.000093   0.431473  -0.026246  -0.027246
              19
     1  C    0.000979
     2  H   -0.006501
     3  H    0.004723
     4  C   -0.029850
     5  H    0.000105
     6  H   -0.000575
     7  N   -0.010535
     8  C    0.003936
     9  H    0.000136
    10  H   -0.000435
    11  H    0.003469
    12  C   -0.001517
    13  H   -0.000073
    14  H    0.000075
    15  H    0.000093
    16  C    0.431473
    17  H   -0.026246
    18  H   -0.027246
    19  H    0.530108
 Mulliken charges:
               1
     1  C   -0.198940
     2  H    0.108435
     3  H    0.120081
     4  C   -0.183028
     5  H    0.129023
     6  H    0.124314
     7  N   -0.221328
     8  C   -0.287112
     9  H    0.118819
    10  H    0.111420
    11  H    0.114666
    12  C   -0.218349
    13  H    0.100641
    14  H    0.108197
    15  H    0.110312
    16  C   -0.385716
    17  H    0.113139
    18  H    0.107547
    19  H    0.127880
 Sum of Mulliken charges =  -0.00000
 Mulliken charges with hydrogens summed into heavy atoms:
               1
     1  C    0.029576
     4  C    0.070309
     7  N   -0.221328
     8  C    0.057792
    12  C    0.100801
    16  C   -0.037150
 Electronic spatial extent (au):  <R**2>=            728.9540
 Charge=             -0.0000 electrons
 Dipole moment (field-independent basis, Debye):
    X=             -0.3534    Y=              0.0475    Z=              0.7282  Tot=              0.8108
 Quadrupole moment (field-independent basis, Debye-Ang):
   XX=            -39.8911   YY=            -39.0324   ZZ=            -42.6075
   XY=             -0.2075   XZ=              0.9683   YZ=             -0.1566
 Traceless Quadrupole moment (field-independent basis, Debye-Ang):
   XX=              0.6193   YY=              1.4779   ZZ=             -2.0972
   XY=             -0.2075   XZ=              0.9683   YZ=             -0.1566
 Octapole moment (field-independent basis, Debye-Ang**2):
  XXX=             -4.0437  YYY=             -1.2951  ZZZ=              0.6736  XYY=             -0.2760
  XXY=              0.3735  XXZ=             -1.4566  XZZ=             -1.6757  YZZ=              0.3078
  YYZ=             -1.8275  XYZ=              0.1132
 Hexadecapole moment (field-independent basis, Debye-Ang**3):
 XXXX=           -640.7298 YYYY=           -212.8347 ZZZZ=           -160.3463 XXXY=             -0.3206
 XXXZ=             12.3764 YYYX=              0.0632 YYYZ=              1.6225 ZZZX=              3.4172
 ZZZY=             -1.5087 XXYY=           -140.6897 XXZZ=           -132.8531 YYZZ=            -62.6869
 XXYZ=             -1.9775 YYXZ=              3.4967 ZZXY=             -1.9703
 N-N= 2.673879311685D+02 E-N=-1.121852614843D+03  KE= 2.522655809358D+02
 No NMR shielding tensors so no spin-rotation constants.
 Leave Link  601 at Fri Sep 18 08:00:48 2026, MaxMem=  4294967296 cpu:               0.8 elap:               0.1
 (Enter /opt/apps/Gaussian/G16C/g16/l701.exe)
 ... and contract with generalized density number  0.
 Compute integral first derivatives.
 R6Disp: Adding Grimme-D2 dispersion energy 1st derivatives to the gradient.
 Leave Link  701 at Fri Sep 18 08:00:48 2026, MaxMem=  4294967296 cpu:               0.7 elap:               0.1
 (Enter /opt/apps/Gaussian/G16C/g16/l702.exe)
 L702 exits ... SP integral derivatives will be done elsewhere.
 Leave Link  702 at Fri Sep 18 08:00:48 2026, MaxMem=  4294967296 cpu:               0.0 elap:               0.0
 (Enter /opt/apps/Gaussian/G16C/g16/l703.exe)
 Integral derivatives from FoFJK, PRISM(SPDF).
 Compute integral first derivatives, UseDBF=F ICtDFT=           0.
 Calling FoFJK, ICntrl=      2127 FMM=F ISym2X=0 I1Cent= 0 IOpClX= 0 NMat=1 NMatS=1 NMatT=0.
 FoFJK:  IHMeth= 1 ICntrl=    2127 DoSepK=T KAlg= 0 I1Cent=           0 FoldK=F
 IRaf=         1 NMat=       1 IRICut=       1 DoRegI=T DoRafI=F ISym2E= 0 IDoP0=0 IntGTp=1.
 FoFCou: FMM=F IPFlag=           0 FMFlag=      100000 FMFlg1=         800
         NFxFlg=           0 DoJE=F BraDBF=F KetDBF=F FulRan=T
         wScrn=  0.000000 ICntrl=      2527 IOpCl=  0 I1Cent=           0 NGrid=           0
         NMat0=    1 NMatS0=      1 NMatT0=    0 NMatD0=    1 NMtDS0=    0 NMtDT0=    0
 Symmetry not used in FoFCou.
 Leave Link  703 at Fri Sep 18 08:00:54 2026, MaxMem=  4294967296 cpu:              92.8 elap:               5.9
 (Enter /opt/apps/Gaussian/G16C/g16/l716.exe)
 Dipole        =-1.39019056D-01 1.86889315D-02 2.86493033D-01
 ***** Axes restored to original set *****
 -------------------------------------------------------------------
 Center     Atomic                   Forces (Hartrees/Bohr)
 Number     Number              X              Y              Z
 -------------------------------------------------------------------
      1        6          -0.018738334   -0.007944967    0.024293171
      2        1           0.008505170    0.004284109   -0.008961116
      3        1          -0.004330266    0.000299133   -0.013618441
      4        6           0.018205942    0.028320692    0.012545044
      5        1          -0.013079871   -0.005176803    0.003009774
      6        1           0.005855709   -0.014668337   -0.015824359
      7        7           0.001449635   -0.007706386   -0.000145778
      8        6          -0.026031691   -0.005398222    0.009420402
      9        1           0.006721725   -0.000678720    0.011207174
     10        1           0.013329587   -0.010422383   -0.014247031
     11        1           0.005198897    0.009400589    0.000389598
     12        6           0.000240034    0.028895162   -0.006532098
     13        1           0.007886212   -0.017069178   -0.011064366
     14        1           0.005857378   -0.001922499    0.011912507
     15        1          -0.012527169   -0.003955291    0.002416772
     16        6           0.012827971   -0.008863485   -0.018503354
     17        1          -0.001582552    0.014218596   -0.002413139
     18        1          -0.013404326   -0.001799432    0.004064085
     19        1           0.003615950    0.000187423    0.012051157
 -------------------------------------------------------------------
 Cartesian Forces:  Max     0.028895162 RMS     0.011754979
 Leave Link  716 at Fri Sep 18 08:00:54 2026, MaxMem=  4294967296 cpu:               0.0 elap:               0.0
 (Enter /opt/apps/Gaussian/G16C/g16/l103.exe)

 GradGradGradGradGradGradGradGradGradGradGradGradGradGradGradGradGradGrad
 Berny optimization.
 FormGI is forming the generalized inverse of G from B-inverse, IUseBI=4.
 Internal  Forces:  Max     0.031287501 RMS     0.008022677
 Search for a local minimum.
 Step number   1 out of a maximum of   97
 All quantities printed in internal units (Hartrees-Bohrs-Radians)
 RMS Force = .80227D-02 SwitMx=.10000D-02 MixMth= 1
 Mixed Optimization -- RFO/linear search
 Second derivative matrix not updated -- first step.
 ITU=  0
     Eigenvalues ---    0.00237   0.00237   0.00766   0.00766   0.00766
     Eigenvalues ---    0.03189   0.03840   0.04502   0.04896   0.05496
     Eigenvalues ---    0.05720   0.05720   0.07537   0.07537   0.07537
     Eigenvalues ---    0.07537   0.07655   0.08860   0.11701   0.12453
     Eigenvalues ---    0.16000   0.16000   0.16000   0.16000   0.16000
     Eigenvalues ---    0.16000   0.16000   0.16000   0.16000   0.16276
     Eigenvalues ---    0.16276   0.21948   0.21985   0.28519   0.28519
     Eigenvalues ---    0.35740   0.35740   0.35740   0.37230   0.37230
     Eigenvalues ---    0.37230   0.37230   0.37230   0.37230   0.37230
     Eigenvalues ---    0.37230   0.37230   0.37230   0.37230   0.37230
     Eigenvalues ---    0.37230
 RFO step:  Lambda=-2.28286133D-02 EMin= 2.36824231D-03
 Linear search not attempted -- first point.
 Iteration  1 RMS(Cart)=  0.15564583 RMS(Int)=  0.00767698
 Iteration  2 RMS(Cart)=  0.01231973 RMS(Int)=  0.00101692
 Iteration  3 RMS(Cart)=  0.00012445 RMS(Int)=  0.00101558
 Iteration  4 RMS(Cart)=  0.00000021 RMS(Int)=  0.00101558
 ITry= 1 IFail=0 DXMaxC= 4.87D-01 DCOld= 1.00D+10 DXMaxT= 3.00D-01 DXLimC= 3.00D+00 Rises=F
 Variable       Old X    -DE/DX   Delta X   Delta X   Delta X     New X
                                 (Linear)    (Quad)   (Total)
    R1        2.02201   0.01046   0.00000   0.02647   0.02647   2.04848
    R2        2.02201   0.01397   0.00000   0.03536   0.03536   2.05737
    R3        2.91018   0.00077   0.00000   0.00250   0.00250   2.91268
    R4        2.91018  -0.00154   0.00000  -0.00500  -0.00500   2.90518
    R5        2.02201   0.01426   0.00000   0.03608   0.03608   2.05809
    R6        2.02201   0.02205   0.00000   0.05580   0.05580   2.07780
    R7        2.77790   0.00459   0.00000   0.01208   0.01208   2.78997
    R8        2.77790  -0.00350   0.00000  -0.00920  -0.00920   2.76870
    R9        2.77790  -0.00676   0.00000  -0.01778  -0.01778   2.76012
   R10        2.02201   0.01308   0.00000   0.03310   0.03310   2.05511
   R11        2.02201   0.02152   0.00000   0.05445   0.05445   2.07646
   R12        2.02201   0.00897   0.00000   0.02269   0.02269   2.04470
   R13        2.02201   0.02117   0.00000   0.05359   0.05359   2.07559
   R14        2.02201   0.01336   0.00000   0.03381   0.03381   2.05581
   R15        2.02201   0.01333   0.00000   0.03374   0.03374   2.05575
   R16        2.02201   0.01412   0.00000   0.03573   0.03573   2.05774
   R17        2.02201   0.01384   0.00000   0.03502   0.03502   2.05703
   R18        2.02201   0.01222   0.00000   0.03094   0.03094   2.05294
    A1        1.91063  -0.00117   0.00000  -0.04059  -0.04061   1.87002
    A2        1.91063  -0.00056   0.00000   0.01618   0.01498   1.92561
    A3        1.91063  -0.00226   0.00000   0.00606   0.00470   1.91533
    A4        1.91063  -0.00471   0.00000  -0.02970  -0.02962   1.88101
    A5        1.91063  -0.00164   0.00000  -0.00574  -0.00524   1.90539
    A6        1.91063   0.01034   0.00000   0.05378   0.05308   1.96371
    A7        1.91063  -0.00959   0.00000  -0.05392  -0.05135   1.85929
    A8        1.91063  -0.00583   0.00000   0.00385  -0.00094   1.90970
    A9        1.91063   0.03129   0.00000   0.14072   0.13900   2.04964
   A10        1.91063   0.00286   0.00000  -0.02742  -0.02864   1.88199
   A11        1.91063  -0.01196   0.00000  -0.06884  -0.06656   1.84408
   A12        1.91063  -0.00677   0.00000   0.00561   0.00044   1.91107
   A13        1.91063   0.01455   0.00000   0.08713   0.08724   1.99788
   A14        1.91063  -0.00547   0.00000  -0.02077  -0.02043   1.89021
   A15        1.91063  -0.00705   0.00000  -0.02926  -0.02920   1.88143
   A16        1.91063  -0.00252   0.00000  -0.01902  -0.01886   1.89177
   A17        1.91063   0.00721   0.00000   0.04405   0.04346   1.95410
   A18        1.91063   0.00556   0.00000   0.03101   0.03040   1.94103
   A19        1.91063  -0.00267   0.00000  -0.01584  -0.01567   1.89496
   A20        1.91063  -0.00397   0.00000  -0.03093  -0.03079   1.87985
   A21        1.91063  -0.00361   0.00000  -0.00927  -0.01050   1.90013
   A22        1.91063   0.00775   0.00000   0.04560   0.04542   1.95606
   A23        1.91063   0.00007   0.00000  -0.00109  -0.00124   1.90939
   A24        1.91063  -0.00065   0.00000  -0.00532  -0.00542   1.90521
   A25        1.91063  -0.00297   0.00000  -0.01270  -0.01292   1.89771
   A26        1.91063  -0.00278   0.00000  -0.01230  -0.01243   1.89821
   A27        1.91063  -0.00142   0.00000  -0.01420  -0.01426   1.89637
   A28        1.91063   0.00370   0.00000   0.02205   0.02184   1.93248
   A29        1.91063   0.00243   0.00000   0.01130   0.01122   1.92185
   A30        1.91063   0.00273   0.00000   0.01517   0.01501   1.92565
   A31        1.91063  -0.00315   0.00000  -0.01766  -0.01778   1.89285
   A32        1.91063  -0.00250   0.00000  -0.00967  -0.00995   1.90069
   A33        1.91063  -0.00322   0.00000  -0.02119  -0.02122   1.88941
    D1       -3.14159   0.00472   0.00000   0.06978   0.06951  -3.07208
    D2       -1.04720  -0.00121   0.00000   0.00554   0.00515  -1.04205
    D3        1.04720   0.00608   0.00000   0.10094   0.10238   1.14958
    D4       -1.04720   0.00007   0.00000   0.01179   0.01143  -1.03577
    D5        1.04720  -0.00587   0.00000  -0.05245  -0.05293   0.99427
    D6        3.14159   0.00142   0.00000   0.04295   0.04430  -3.09729
    D7        1.04720   0.00150   0.00000   0.01951   0.01855   1.06575
    D8        3.14159  -0.00444   0.00000  -0.04473  -0.04581   3.09579
    D9       -1.04720   0.00286   0.00000   0.05067   0.05142  -0.99577
   D10        1.04720  -0.00232   0.00000  -0.02946  -0.02958   1.01762
   D11        3.14159  -0.00242   0.00000  -0.03067  -0.03080   3.11079
   D12       -1.04720  -0.00320   0.00000  -0.04041  -0.04063  -1.08783
   D13       -1.04720   0.00149   0.00000   0.02005   0.02015  -1.02704
   D14        1.04720   0.00140   0.00000   0.01885   0.01893   1.06613
   D15       -3.14159   0.00062   0.00000   0.00910   0.00910  -3.13249
   D16        3.14159   0.00194   0.00000   0.02700   0.02714  -3.11446
   D17       -1.04720   0.00184   0.00000   0.02580   0.02592  -1.02128
   D18        1.04720   0.00106   0.00000   0.01606   0.01608   1.06328
   D19       -1.04720  -0.00623   0.00000  -0.10523  -0.10683  -1.15403
   D20        3.14159  -0.00316   0.00000  -0.11003  -0.11173   3.02987
   D21       -3.14159  -0.00632   0.00000  -0.08321  -0.08209   3.05950
   D22        1.04720  -0.00324   0.00000  -0.08801  -0.08699   0.96021
   D23        1.04720   0.00164   0.00000  -0.01090  -0.01028   1.03692
   D24       -1.04720   0.00471   0.00000  -0.01570  -0.01517  -1.06237
   D25       -3.14159   0.00145   0.00000   0.02756   0.02769  -3.11391
   D26       -1.04720   0.00105   0.00000   0.02349   0.02306  -1.02413
   D27        1.04720   0.00445   0.00000   0.05809   0.05875   1.10594
   D28       -1.04720  -0.00066   0.00000   0.03756   0.03745  -1.00975
   D29        1.04720  -0.00106   0.00000   0.03349   0.03283   1.08003
   D30        3.14159   0.00234   0.00000   0.06810   0.06851  -3.07308
   D31        1.04720   0.00507   0.00000   0.03944   0.03941   1.08660
   D32       -3.14159   0.00622   0.00000   0.05114   0.05121  -3.09038
   D33       -1.04720   0.00413   0.00000   0.02983   0.02981  -1.01738
   D34       -1.04720  -0.00508   0.00000  -0.03664  -0.03668  -1.08388
   D35        1.04720  -0.00393   0.00000  -0.02493  -0.02488   1.02232
   D36        3.14159  -0.00603   0.00000  -0.04625  -0.04628   3.09532
         Item               Value     Threshold  Converged?
 Maximum Force            0.031288     0.000450     NO 
 RMS     Force            0.008023     0.000300     NO 
 Maximum Displacement     0.486734     0.001800     NO 
 RMS     Displacement     0.161148     0.001200     NO 
 Predicted change in Energy=-1.336216D-02
 Lowest energy point so far.  Saving SCF results.
 GradGradGradGradGradGradGradGradGradGradGradGradGradGradGradGradGradGrad

 Leave Link  103 at Fri Sep 18 08:00:54 2026, MaxMem=  4294967296 cpu:               0.1 elap:               0.0
 (Enter /opt/apps/Gaussian/G16C/g16/l202.exe)
                          Input orientation:                          
 ---------------------------------------------------------------------
 Center     Atomic      Atomic             Coordinates (Angstroms)
 Number     Number       Type             X           Y           Z
 ---------------------------------------------------------------------
      1          6           0       -6.977218   -0.491818   -2.279516
      2          1           0       -5.999021   -0.136789   -2.583085
      3          1           0       -7.595202   -0.534539   -3.174817
      4          6           0       -6.875303   -1.920254   -1.709545
      5          1           0       -7.893368   -2.240809   -1.492953
      6          1           0       -6.467080   -2.592238   -2.478148
      7          7           0       -6.125098   -2.098354   -0.450498
      8          6           0       -4.689988   -1.822377   -0.554931
      9          1           0       -4.233074   -2.010254    0.413894
     10          1           0       -4.201658   -2.462946   -1.302327
     11          1           0       -4.507995   -0.786562   -0.809309
     12          6           0       -6.282811   -3.483449   -0.014649
     13          1           0       -5.864704   -4.194523   -0.739870
     14          1           0       -5.779518   -3.621441    0.939896
     15          1           0       -7.341211   -3.698408    0.115768
     16          6           0       -7.601821    0.496923   -1.281658
     17          1           0       -7.684907    1.488920   -1.722976
     18          1           0       -8.597585    0.162166   -0.996535
     19          1           0       -6.994190    0.561133   -0.383402
 ---------------------------------------------------------------------
                    Distance matrix (angstroms):
                    1          2          3          4          5
     1  C    0.000000
     2  H    1.084007   0.000000
     3  H    1.088712   1.748184   0.000000
     4  C    1.541325   2.170643   2.141375   0.000000
     5  H    2.125319   3.033783   2.414317   1.089094   0.000000
     6  H    2.170590   2.501864   2.447884   1.099526   1.768731
     7  N    2.579220   2.900270   3.468233   1.476390   2.057617
     8  C    3.158481   2.944178   4.118568   2.473523   3.364018
     9  H    4.134057   3.950990   5.134246   3.390939   4.133639
    10  H    3.541748   3.206535   4.329101   2.758390   3.703297
    11  H    2.888848   2.406583   3.897434   2.774856   3.747393
    12  C    3.815977   4.228184   4.517201   2.380609   2.514644
    13  H    4.161517   4.458778   4.724308   2.670932   2.915410
    14  H    4.646896   4.960079   5.454956   3.333815   3.506175
    15  H    4.018967   4.665878   4.571929   2.590496   2.239968
    16  C    1.537354   2.159693   2.155924   2.560013   2.761308
    17  H    2.175748   2.494981   2.492042   3.504013   3.742625
    18  H    2.167792   3.059257   2.497015   2.794837   2.552771
    19  H    2.168926   2.513178   3.058384   2.816039   3.144917
                    6          7          8          9         10
     6  H    0.000000
     7  N    2.114767   0.000000
     8  C    2.729379   1.465132   0.000000
     9  H    3.700459   2.081991   1.087515   0.000000
    10  H    2.555663   2.134985   1.098816   1.775199   0.000000
    11  H    3.143804   2.112952   1.082008   1.751922   1.774028
    12  C    2.626222   1.460591   2.363928   2.560346   2.651555
    13  H    2.439628   2.132010   2.653534   2.960476   2.465855
    14  H    3.635248   2.091032   2.580352   2.294360   2.976461
    15  H    2.952307   2.088004   3.316371   3.549543   3.659803
    16  C    3.501734   3.099517   3.792896   4.528718   4.508033
    17  H    4.325418   4.113483   4.615036   5.359625   5.284621
    18  H    3.784305   3.394304   4.404854   5.075201   5.129220
    19  H    3.822245   2.798696   3.319622   3.856355   4.217549
                   11         12         13         14         15
    11  H    0.000000
    12  C    3.324855   0.000000
    13  H    3.668744   1.098356   0.000000
    14  H    3.565533   1.087889   1.776878   0.000000
    15  H    4.166741   1.087854   1.777166   1.767483   0.000000
    16  C    3.382633   4.380464   5.031976   5.021655   4.429619
    17  H    4.013150   5.441388   6.048236   6.069364   5.514298
    18  H    4.202366   4.428632   5.149296   5.099700   4.209480
    19  H    2.859868   4.123189   4.900926   4.551974   4.302707
                   16         17         18         19
    16  C    0.000000
    17  H    1.088908   0.000000
    18  H    1.088533   1.766628   0.000000
    19  H    1.086372   1.769841   1.762379   0.000000
 Stoichiometry    C5H13N
 Framework group  C1[X(C5H13N)]
 Deg. of freedom    51
 Full point group                 C1      NOp   1
 RotChk:  IX=0 Diff= 8.92D-02
 Largest Abelian subgroup         C1      NOp   1
 Largest concise Abelian subgroup C1      NOp   1
                         Standard orientation:                         
 ---------------------------------------------------------------------
 Center     Atomic      Atomic             Coordinates (Angstroms)
 Number     Number       Type             X           Y           Z
 ---------------------------------------------------------------------
      1          6           0        1.603264   -0.015173    0.639899
      2          1           0        1.566441    0.979460    1.069340
      3          1           0        2.209426   -0.629176    1.303874
      4          6           0        0.190550   -0.629528    0.589996
      5          1           0        0.307892   -1.646559    0.218505
      6          1           0       -0.218665   -0.688372    1.608838
      7          7           0       -0.797761    0.008905   -0.301841
      8          6           0       -1.184166    1.365858    0.093102
      9          1           0       -1.930755    1.728273   -0.609714
     10          1           0       -1.613112    1.393080    1.104369
     11          1           0       -0.339418    2.040792    0.053014
     12          6           0       -2.004634   -0.813694   -0.312530
     13          1           0       -2.466918   -0.881266    0.681509
     14          1           0       -2.726710   -0.386918   -1.005329
     15          1           0       -1.750284   -1.816462   -0.648965
     16          6           0        2.269846    0.041224   -0.744277
     17          1           0        3.274830    0.454046   -0.671429
     18          1           0        2.338174   -0.959170   -1.167889
     19          1           0        1.684270    0.657814   -1.420384
 ---------------------------------------------------------------------
 Rotational constants (GHZ):           5.8861988           2.0363454           1.8601668
 Leave Link  202 at Fri Sep 18 08:00:54 2026, MaxMem=  4294967296 cpu:               0.0 elap:               0.0
 (Enter /opt/apps/Gaussian/G16C/g16/l301.exe)
 Standard basis: 6-311+G(2d,2p) (5D, 7F)
 Ernie: Thresh=  0.10000D-02 Tol=  0.10000D-05 Strict=F.
 There are   291 symmetry adapted cartesian basis functions of A   symmetry.
 There are   279 symmetry adapted basis functions of A   symmetry.
   279 basis functions,   395 primitive gaussians,   291 cartesian basis functions
    25 alpha electrons       25 beta electrons
       nuclear repulsion energy       262.0801364161 Hartrees.
 IExCor= 4639 DFT=T Ex+Corr=wB97XD ExCW=0 ScaHFX=  1.000000
 ScaDFX=  1.000000  1.000000  1.000000  1.000000 ScalE2=  1.000000  1.000000
 IRadAn=      5 IRanWt=     -1 IRanGd=            0 ICorTp=0 IEmpDi=121
 HFx  wShort=  0.000000 wLong=  0.200000 cFull=  0.222036 cShort=  0.000000 cLong=  0.777964
 DFx  wShort=  0.000000 wLong=  0.200000 cFull=  0.000000 cShort=  0.000000 cLong=  1.000000
 NAtoms=   19 NActive=   19 NUniq=   19 SFac= 1.00D+00 NAtFMM=   60 NAOKFM=F Big=F
 Integral buffers will be    131072 words long.
 Raffenetti 2 integral format.
 Two-electron integral symmetry is turned on.
 R6Disp:  Grimme-D2 Dispersion energy=       -0.0111111121 Hartrees.
 Nuclear repulsion after empirical dispersion term =      262.0690253040 Hartrees.
 Leave Link  301 at Fri Sep 18 08:00:54 2026, MaxMem=  4294967296 cpu:               0.0 elap:               0.0
 (Enter /opt/apps/Gaussian/G16C/g16/l302.exe)
 NPDir=0 NMtPBC=     1 NCelOv=     1 NCel=       1 NClECP=     1 NCelD=      1
         NCelK=      1 NCelE2=     1 NClLst=     1 CellRange=     0.0.
 One-electron integrals computed using PRISM.
 One-electron integral symmetry used in STVInt
 NBasis=   279 RedAO= T EigKep=  3.54D-05  NBF=   279
 NBsUse=   279 1.00D-06 EigRej= -1.00D+00 NBFU=   279
 Precomputing XC quadrature grid using
 IXCGrd= 4 IRadAn=           5 IRanWt=          -1 IRanGd=           0 AccXCQ= 0.00D+00.
 Generated NRdTot=       0 NPtTot=           0 NUsed=           0 NTot=          32
 NSgBfM=   291   291   291   291   291 MxSgAt=    19 MxSgA2=    19.
 Leave Link  302 at Fri Sep 18 08:00:54 2026, MaxMem=  4294967296 cpu:               1.6 elap:               0.2
 (Enter /opt/apps/Gaussian/G16C/g16/l303.exe)
 DipDrv:  MaxL=1.
 Leave Link  303 at Fri Sep 18 08:00:54 2026, MaxMem=  4294967296 cpu:               0.1 elap:               0.0
 (Enter /opt/apps/Gaussian/G16C/g16/l401.exe)
 Initial guess from the checkpoint file:  "aminopropyl.chk"
 B after Tr=    -0.000000   -0.000000   -0.000000
         Rot=    0.999555   -0.008672    0.005142   -0.028086 Ang=  -3.42 deg.
 Guess basis will be translated and rotated to current coordinates.
 JPrj=2 DoOrth=T DoCkMO=T.
 Generating alternative initial guess.
 ExpMin= 4.38D-02 ExpMax= 6.29D+03 ExpMxC= 9.49D+02 IAcc=3 IRadAn=         5 AccDes= 0.00D+00
 Harris functional with IExCor= 4639 and IRadAn=       5 diagonalized for initial guess.
 HarFok:  IExCor= 4639 AccDes= 0.00D+00 IRadAn=         5 IDoV= 1 UseB2=F ITyADJ=14
 ICtDFT=  3500011 ScaDFX=  1.000000  1.000000  1.000000  1.000000
 FoFCou: FMM=F IPFlag=           0 FMFlag=      100000 FMFlg1=           0
         NFxFlg=           0 DoJE=T BraDBF=F KetDBF=T FulRan=T
         wScrn=  0.000000 ICntrl=       500 IOpCl=  0 I1Cent=   200000004 NGrid=           0
         NMat0=    1 NMatS0=      1 NMatT0=    0 NMatD0=    1 NMtDS0=    0 NMtDT0=    0
 Petite list used in FoFCou.
 Harris En= -240.799009819766    
 Leave Link  401 at Fri Sep 18 08:00:55 2026, MaxMem=  4294967296 cpu:              10.2 elap:               0.7
 (Enter /opt/apps/Gaussian/G16C/g16/l502.exe)
 Integral symmetry usage will be decided dynamically.
 Closed shell SCF:
 Using DIIS extrapolation, IDIIS=  1040.
 NGot=  4294967296 LenX=  4294789954 LenY=  4294704832
 Requested convergence on RMS density matrix=1.00D-08 within  32 cycles.
 Requested convergence on MAX density matrix=1.00D-06.
 Requested convergence on             energy=1.00D-06.
 No special actions if energy rises.
 Fock matrices will be formed incrementally for  20 cycles.

 Cycle   1  Pass 1  IDiag  1:
 FoFJK:  IHMeth= 1 ICntrl=       0 DoSepK=T KAlg= 0 I1Cent=           0 FoldK=F
 IRaf=         1 NMat=       1 IRICut=       1 DoRegI=T DoRafI=F ISym2E= 0 IDoP0=0 IntGTp=1.
 FoFCou: FMM=F IPFlag=           0 FMFlag=      100000 FMFlg1=           0
         NFxFlg=           0 DoJE=T BraDBF=F KetDBF=F FulRan=T
         wScrn=  0.000000 ICntrl=       500 IOpCl=  0 I1Cent=           0 NGrid=           0
         NMat0=    1 NMatS0=      1 NMatT0=    0 NMatD0=    1 NMtDS0=    0 NMtDT0=    0
 Symmetry not used in FoFCou.
 E= -253.077468483044    
 DIIS: error= 6.59D-03 at cycle   1 NSaved=   1.
 NSaved= 1 IEnMin= 1 EnMin= -253.077468483044     IErMin= 1 ErrMin= 6.59D-03
 ErrMax= 6.59D-03  0.00D+00 EMaxC= 1.00D-01 BMatC= 1.68D-02 BMatP= 1.68D-02
 IDIUse=3 WtCom= 9.34D-01 WtEn= 6.59D-02
 Coeff-Com:  0.100D+01
 Coeff-En:   0.100D+01
 Coeff:      0.100D+01
 Gap=     0.631 Goal=   None    Shift=    0.000
 GapD=    0.631 DampG=2.000 DampE=1.000 DampFc=2.0000 IDamp=-1.
 RMSDP=6.14D-04 MaxDP=2.24D-02              OVMax= 3.09D-02

 Cycle   2  Pass 1  IDiag  1:
 RMSU=  6.13D-04    CP:  9.96D-01
 E= -253.100331546205     Delta-E=       -0.022863063161 Rises=F Damp=F
 DIIS: error= 1.46D-03 at cycle   2 NSaved=   2.
 NSaved= 2 IEnMin= 2 EnMin= -253.100331546205     IErMin= 2 ErrMin= 1.46D-03
 ErrMax= 1.46D-03  0.00D+00 EMaxC= 1.00D-01 BMatC= 6.40D-04 BMatP= 1.68D-02
 IDIUse=3 WtCom= 9.85D-01 WtEn= 1.46D-02
 Coeff-Com: -0.127D+00 0.113D+01
 Coeff-En:   0.000D+00 0.100D+01
 Coeff:     -0.126D+00 0.113D+01
 Gap=     0.364 Goal=   None    Shift=    0.000
 RMSDP=1.63D-04 MaxDP=4.31D-03 DE=-2.29D-02 OVMax= 9.85D-03

 Cycle   3  Pass 1  IDiag  1:
 RMSU=  1.24D-04    CP:  9.96D-01  1.17D+00
 E= -253.101537759279     Delta-E=       -0.001206213074 Rises=F Damp=F
 DIIS: error= 6.03D-04 at cycle   3 NSaved=   3.
 NSaved= 3 IEnMin= 3 EnMin= -253.101537759279     IErMin= 3 ErrMin= 6.03D-04
 ErrMax= 6.03D-04  0.00D+00 EMaxC= 1.00D-01 BMatC= 1.52D-04 BMatP= 6.40D-04
 IDIUse=3 WtCom= 9.94D-01 WtEn= 6.03D-03
 Coeff-Com: -0.656D-01 0.387D+00 0.678D+00
 Coeff-En:   0.000D+00 0.000D+00 0.100D+01
 Coeff:     -0.652D-01 0.385D+00 0.680D+00
 Gap=     0.362 Goal=   None    Shift=    0.000
 RMSDP=3.92D-05 MaxDP=2.22D-03 DE=-1.21D-03 OVMax= 2.69D-03

 Cycle   4  Pass 1  IDiag  1:
 RMSU=  3.70D-05    CP:  9.96D-01  1.19D+00  9.71D-01
 E= -253.101697004406     Delta-E=       -0.000159245127 Rises=F Damp=F
 DIIS: error= 1.42D-04 at cycle   4 NSaved=   4.
 NSaved= 4 IEnMin= 4 EnMin= -253.101697004406     IErMin= 4 ErrMin= 1.42D-04
 ErrMax= 1.42D-04  0.00D+00 EMaxC= 1.00D-01 BMatC= 7.72D-06 BMatP= 1.52D-04
 IDIUse=3 WtCom= 9.99D-01 WtEn= 1.42D-03
 Coeff-Com:  0.518D-02-0.815D-01 0.950D-01 0.981D+00
 Coeff-En:   0.000D+00 0.000D+00 0.000D+00 0.100D+01
 Coeff:      0.517D-02-0.814D-01 0.949D-01 0.981D+00
 Gap=     0.362 Goal=   None    Shift=    0.000
 RMSDP=2.21D-05 MaxDP=5.80D-04 DE=-1.59D-04 OVMax= 1.02D-03

 Cycle   5  Pass 1  IDiag  1:
 RMSU=  1.07D-05    CP:  9.96D-01  1.20D+00  1.11D+00  1.16D+00
 E= -253.101709441453     Delta-E=       -0.000012437047 Rises=F Damp=F
 DIIS: error= 3.58D-05 at cycle   5 NSaved=   5.
 NSaved= 5 IEnMin= 5 EnMin= -253.101709441453     IErMin= 5 ErrMin= 3.58D-05
 ErrMax= 3.58D-05  0.00D+00 EMaxC= 1.00D-01 BMatC= 4.91D-07 BMatP= 7.72D-06
 IDIUse=1 WtCom= 1.00D+00 WtEn= 0.00D+00
 Coeff-Com:  0.382D-02-0.388D-01 0.487D-02 0.293D+00 0.737D+00
 Coeff:      0.382D-02-0.388D-01 0.487D-02 0.293D+00 0.737D+00
 Gap=     0.362 Goal=   None    Shift=    0.000
 RMSDP=5.51D-06 MaxDP=2.16D-04 DE=-1.24D-05 OVMax= 2.14D-04

 Cycle   6  Pass 1  IDiag  1:
 RMSU=  3.36D-06    CP:  9.96D-01  1.20D+00  1.14D+00  1.22D+00  1.21D+00
 E= -253.101710017986     Delta-E=       -0.000000576532 Rises=F Damp=F
 DIIS: error= 8.34D-06 at cycle   6 NSaved=   6.
 NSaved= 6 IEnMin= 6 EnMin= -253.101710017986     IErMin= 6 ErrMin= 8.34D-06
 ErrMax= 8.34D-06  0.00D+00 EMaxC= 1.00D-01 BMatC= 3.73D-08 BMatP= 4.91D-07
 IDIUse=1 WtCom= 1.00D+00 WtEn= 0.00D+00
 Coeff-Com:  0.464D-03-0.236D-02-0.630D-02-0.166D-01 0.172D+00 0.852D+00
 Coeff:      0.464D-03-0.236D-02-0.630D-02-0.166D-01 0.172D+00 0.852D+00
 Gap=     0.362 Goal=   None    Shift=    0.000
 RMSDP=2.63D-06 MaxDP=1.01D-04 DE=-5.77D-07 OVMax= 6.51D-05

 Cycle   7  Pass 1  IDiag  1:
 RMSU=  8.53D-07    CP:  9.96D-01  1.20D+00  1.14D+00  1.24D+00  1.38D+00
                    CP:  1.26D+00
 E= -253.101710068857     Delta-E=       -0.000000050871 Rises=F Damp=F
 DIIS: error= 3.96D-06 at cycle   7 NSaved=   7.
 NSaved= 7 IEnMin= 7 EnMin= -253.101710068857     IErMin= 7 ErrMin= 3.96D-06
 ErrMax= 3.96D-06  0.00D+00 EMaxC= 1.00D-01 BMatC= 3.98D-09 BMatP= 3.73D-08
 IDIUse=1 WtCom= 1.00D+00 WtEn= 0.00D+00
 Coeff-Com: -0.252D-03 0.323D-02-0.224D-02-0.344D-01-0.205D-01 0.258D+00
 Coeff-Com:  0.796D+00
 Coeff:     -0.252D-03 0.323D-02-0.224D-02-0.344D-01-0.205D-01 0.258D+00
 Coeff:      0.796D+00
 Gap=     0.362 Goal=   None    Shift=    0.000
 RMSDP=9.24D-07 MaxDP=3.72D-05 DE=-5.09D-08 OVMax= 2.44D-05

 Cycle   8  Pass 1  IDiag  1:
 RMSU=  2.97D-07    CP:  9.96D-01  1.20D+00  1.15D+00  1.25D+00  1.44D+00
                    CP:  1.39D+00  1.17D+00
 E= -253.101710073990     Delta-E=       -0.000000005133 Rises=F Damp=F
 DIIS: error= 7.70D-07 at cycle   8 NSaved=   8.
 NSaved= 8 IEnMin= 8 EnMin= -253.101710073990     IErMin= 8 ErrMin= 7.70D-07
 ErrMax= 7.70D-07  0.00D+00 EMaxC= 1.00D-01 BMatC= 2.40D-10 BMatP= 3.98D-09
 IDIUse=1 WtCom= 1.00D+00 WtEn= 0.00D+00
 Coeff-Com: -0.986D-04 0.111D-02-0.398D-03-0.975D-02-0.142D-01 0.382D-01
 Coeff-Com:  0.235D+00 0.750D+00
 Coeff:     -0.986D-04 0.111D-02-0.398D-03-0.975D-02-0.142D-01 0.382D-01
 Coeff:      0.235D+00 0.750D+00
 Gap=     0.362 Goal=   None    Shift=    0.000
 RMSDP=2.24D-07 MaxDP=8.94D-06 DE=-5.13D-09 OVMax= 8.56D-06

 Cycle   9  Pass 1  IDiag  1:
 RMSU=  6.36D-08    CP:  9.96D-01  1.20D+00  1.15D+00  1.25D+00  1.45D+00
                    CP:  1.42D+00  1.28D+00  1.18D+00
 E= -253.101710074255     Delta-E=       -0.000000000265 Rises=F Damp=F
 DIIS: error= 3.04D-07 at cycle   9 NSaved=   9.
 NSaved= 9 IEnMin= 9 EnMin= -253.101710074255     IErMin= 9 ErrMin= 3.04D-07
 ErrMax= 3.04D-07  0.00D+00 EMaxC= 1.00D-01 BMatC= 5.22D-11 BMatP= 2.40D-10
 IDIUse=1 WtCom= 1.00D+00 WtEn= 0.00D+00
 Coeff-Com: -0.260D-05-0.387D-04 0.183D-03 0.138D-02-0.292D-02-0.251D-01
 Coeff-Com: -0.254D-01 0.310D+00 0.742D+00
 Coeff:     -0.260D-05-0.387D-04 0.183D-03 0.138D-02-0.292D-02-0.251D-01
 Coeff:     -0.254D-01 0.310D+00 0.742D+00
 Gap=     0.362 Goal=   None    Shift=    0.000
 RMSDP=1.03D-07 MaxDP=3.84D-06 DE=-2.65D-10 OVMax= 4.40D-06

 Cycle  10  Pass 1  IDiag  1:
 RMSU=  2.73D-08    CP:  9.96D-01  1.20D+00  1.15D+00  1.25D+00  1.45D+00
                    CP:  1.44D+00  1.33D+00  1.33D+00  1.19D+00
 E= -253.101710074323     Delta-E=       -0.000000000068 Rises=F Damp=F
 DIIS: error= 9.39D-08 at cycle  10 NSaved=  10.
 NSaved=10 IEnMin=10 EnMin= -253.101710074323     IErMin=10 ErrMin= 9.39D-08
 ErrMax= 9.39D-08  0.00D+00 EMaxC= 1.00D-01 BMatC= 2.55D-12 BMatP= 5.22D-11
 IDIUse=1 WtCom= 1.00D+00 WtEn= 0.00D+00
 Coeff-Com:  0.793D-05-0.102D-03 0.656D-04 0.104D-02 0.843D-03-0.691D-02
 Coeff-Com: -0.263D-01-0.276D-01 0.151D+00 0.908D+00
 Coeff:      0.793D-05-0.102D-03 0.656D-04 0.104D-02 0.843D-03-0.691D-02
 Coeff:     -0.263D-01-0.276D-01 0.151D+00 0.908D+00
 Gap=     0.362 Goal=   None    Shift=    0.000
 RMSDP=2.94D-08 MaxDP=1.21D-06 DE=-6.84D-11 OVMax= 1.86D-06

 Cycle  11  Pass 1  IDiag  1:
 RMSU=  8.48D-09    CP:  9.96D-01  1.20D+00  1.15D+00  1.25D+00  1.45D+00
                    CP:  1.44D+00  1.34D+00  1.39D+00  1.38D+00  1.33D+00
 E= -253.101710074327     Delta-E=       -0.000000000004 Rises=F Damp=F
 DIIS: error= 2.90D-08 at cycle  11 NSaved=  11.
 NSaved=11 IEnMin=11 EnMin= -253.101710074327     IErMin=11 ErrMin= 2.90D-08
 ErrMax= 2.90D-08  0.00D+00 EMaxC= 1.00D-01 BMatC= 1.37D-13 BMatP= 2.55D-12
 IDIUse=1 WtCom= 1.00D+00 WtEn= 0.00D+00
 Coeff-Com:  0.581D-06-0.212D-05-0.955D-05-0.585D-04 0.278D-03 0.164D-02
 Coeff-Com:  0.355D-03-0.267D-01-0.410D-01 0.493D-01 0.102D+01
 Coeff:      0.581D-06-0.212D-05-0.955D-05-0.585D-04 0.278D-03 0.164D-02
 Coeff:      0.355D-03-0.267D-01-0.410D-01 0.493D-01 0.102D+01
 Gap=     0.362 Goal=   None    Shift=    0.000
 RMSDP=9.20D-09 MaxDP=4.35D-07 DE=-4.21D-12 OVMax= 6.87D-07

 SCF Done:  E(RwB97XD) =  -253.101710074     A.U. after   11 cycles
            NFock= 11  Conv=0.92D-08     -V/T= 2.0049
 KE= 2.518688815388D+02 PE=-1.110875908234D+03 EE= 3.438362913168D+02
 Leave Link  502 at Fri Sep 18 08:01:14 2026, MaxMem=  4294967296 cpu:             281.5 elap:              18.7
 (Enter /opt/apps/Gaussian/G16C/g16/l508.exe)
 QCSCF skips out because SCF is already converged.
 Leave Link  508 at Fri Sep 18 08:01:14 2026, MaxMem=  4294967296 cpu:               0.0 elap:               0.0
 (Enter /opt/apps/Gaussian/G16C/g16/l701.exe)
 ... and contract with generalized density number  0.
 Compute integral first derivatives.
 R6Disp: Adding Grimme-D2 dispersion energy 1st derivatives to the gradient.
 Leave Link  701 at Fri Sep 18 08:01:14 2026, MaxMem=  4294967296 cpu:               0.7 elap:               0.1
 (Enter /opt/apps/Gaussian/G16C/g16/l702.exe)
 L702 exits ... SP integral derivatives will be done elsewhere.
 Leave Link  702 at Fri Sep 18 08:01:14 2026, MaxMem=  4294967296 cpu:               0.0 elap:               0.0
 (Enter /opt/apps/Gaussian/G16C/g16/l703.exe)
 Integral derivatives from FoFJK, PRISM(SPDF).
 Compute integral first derivatives, UseDBF=F ICtDFT=           0.
 Calling FoFJK, ICntrl=      2127 FMM=F ISym2X=0 I1Cent= 0 IOpClX= 0 NMat=1 NMatS=1 NMatT=0.
 FoFJK:  IHMeth= 1 ICntrl=    2127 DoSepK=T KAlg= 0 I1Cent=           0 FoldK=F
 IRaf=         1 NMat=       1 IRICut=       1 DoRegI=T DoRafI=F ISym2E= 0 IDoP0=0 IntGTp=1.
 FoFCou: FMM=F IPFlag=           0 FMFlag=      100000 FMFlg1=         800
         NFxFlg=           0 DoJE=F BraDBF=F KetDBF=F FulRan=T
         wScrn=  0.000000 ICntrl=      2527 IOpCl=  0 I1Cent=           0 NGrid=           0
         NMat0=    1 NMatS0=      1 NMatT0=    0 NMatD0=    1 NMtDS0=    0 NMtDT0=    0
 Symmetry not used in FoFCou.
 Leave Link  703 at Fri Sep 18 08:01:20 2026, MaxMem=  4294967296 cpu:              89.9 elap:               5.7
 (Enter /opt/apps/Gaussian/G16C/g16/l716.exe)
 Dipole        =-9.20573429D-02-4.14756792D-03 2.59101979D-01
 ***** Axes restored to original set *****
 -------------------------------------------------------------------
 Center     Atomic                   Forces (Hartrees/Bohr)
 Number     Number              X              Y              Z
 -------------------------------------------------------------------
      1        6          -0.000570078   -0.003097599    0.016413092
      2        1           0.004760961    0.001588431   -0.002320621
      3        1           0.000461833   -0.001873806   -0.002098413
      4        6           0.004468713    0.005604426    0.003731595
      5        1          -0.001581505   -0.003223135   -0.000752948
      6        1          -0.000267229   -0.000894802   -0.002901077
      7        7           0.002969324   -0.001795657   -0.005779042
      8        6          -0.011978092   -0.000746154   -0.001941985
      9        1           0.001309575   -0.000191364    0.000707603
     10        1           0.001687223   -0.000715732   -0.001650161
     11        1          -0.000397292    0.004893116   -0.002247234
     12        6          -0.003508580    0.009217724    0.000870596
     13        1           0.000695885   -0.002220364   -0.001169189
     14        1           0.000202896   -0.001115845    0.001078853
     15        1          -0.000896738   -0.002024249    0.000767847
     16        6           0.004432702   -0.005117511   -0.006550401
     17        1          -0.000356342    0.000892558    0.000298697
     18        1          -0.001515686    0.000300814    0.001419788
     19        1           0.000082431    0.000519147    0.002122999
 -------------------------------------------------------------------
 Cartesian Forces:  Max     0.016413092 RMS     0.003858211
 Leave Link  716 at Fri Sep 18 08:01:20 2026, MaxMem=  4294967296 cpu:               0.0 elap:               0.0
 (Enter /opt/apps/Gaussian/G16C/g16/l103.exe)

 GradGradGradGradGradGradGradGradGradGradGradGradGradGradGradGradGradGrad
 Berny optimization.
 Using GEDIIS/GDIIS optimizer.
 FormGI is forming the generalized inverse of G from B-inverse, IUseBI=4.
 Internal  Forces:  Max     0.016860737 RMS     0.003768735
 Search for a local minimum.
 Step number   2 out of a maximum of   97
 All quantities printed in internal units (Hartrees-Bohrs-Radians)
 RMS Force = .37687D-02 SwitMx=.10000D-02 MixMth= 1
 Mixed Optimization -- RFO/linear search
 Update second derivatives using D2CorX and points    1    2
 DE= -7.66D-03 DEPred=-1.34D-02 R= 5.74D-01
 TightC=F SS=  1.41D+00  RLast= 4.02D-01 DXNew= 5.0454D-01 1.2059D+00
 Trust test= 5.74D-01 RLast= 4.02D-01 DXMaxT set to 5.05D-01
 ITU=  1  0
 Use linear search instead of GDIIS.
     Eigenvalues ---    0.00237   0.00238   0.00766   0.00766   0.00815
     Eigenvalues ---    0.02955   0.03459   0.03871   0.04781   0.05450
     Eigenvalues ---    0.05506   0.05592   0.07146   0.07218   0.07539
     Eigenvalues ---    0.07559   0.08210   0.10090   0.12093   0.13283
     Eigenvalues ---    0.15360   0.15993   0.16000   0.16000   0.16000
     Eigenvalues ---    0.16000   0.16000   0.16000   0.16000   0.17159
     Eigenvalues ---    0.17584   0.21686   0.26217   0.28493   0.29757
     Eigenvalues ---    0.31411   0.35740   0.35784   0.37039   0.37230
     Eigenvalues ---    0.37230   0.37230   0.37230   0.37230   0.37230
     Eigenvalues ---    0.37230   0.37230   0.37230   0.37230   0.37230
     Eigenvalues ---    0.41522
 RFO step:  Lambda=-3.12199321D-03 EMin= 2.36823562D-03
 Quartic linear search produced a step of -0.21373.
 Iteration  1 RMS(Cart)=  0.06639849 RMS(Int)=  0.00128727
 Iteration  2 RMS(Cart)=  0.00184394 RMS(Int)=  0.00019396
 Iteration  3 RMS(Cart)=  0.00000120 RMS(Int)=  0.00019396
 Iteration  4 RMS(Cart)=  0.00000000 RMS(Int)=  0.00019396
 ITry= 1 IFail=0 DXMaxC= 2.55D-01 DCOld= 1.00D+10 DXMaxT= 5.05D-01 DXLimC= 3.00D+00 Rises=F
 Variable       Old X    -DE/DX   Delta X   Delta X   Delta X     New X
                                 (Linear)    (Quad)   (Total)
    R1        2.04848   0.00547  -0.00566   0.02113   0.01547   2.06395
    R2        2.05737   0.00154  -0.00756   0.01616   0.00860   2.06597
    R3        2.91268  -0.01021  -0.00054  -0.02691  -0.02745   2.88524
    R4        2.90518  -0.00502   0.00107  -0.01549  -0.01442   2.89076
    R5        2.05809   0.00228  -0.00771   0.01797   0.01026   2.06835
    R6        2.07780   0.00248  -0.01193   0.02560   0.01368   2.09148
    R7        2.78997  -0.01366  -0.00258  -0.02536  -0.02794   2.76203
    R8        2.76870  -0.00821   0.00197  -0.02125  -0.01929   2.74941
    R9        2.76012  -0.00282   0.00380  -0.01263  -0.00883   2.75128
   R10        2.05511   0.00121  -0.00707   0.01466   0.00758   2.06269
   R11        2.07646   0.00229  -0.01164   0.02472   0.01308   2.08954
   R12        2.04470   0.00515  -0.00485   0.01907   0.01422   2.05892
   R13        2.07559   0.00247  -0.01145   0.02479   0.01334   2.08893
   R14        2.05581   0.00118  -0.00723   0.01485   0.00762   2.06343
   R15        2.05575   0.00136  -0.00721   0.01520   0.00799   2.06374
   R16        2.05774   0.00072  -0.00764   0.01458   0.00695   2.06469
   R17        2.05703   0.00167  -0.00749   0.01630   0.00882   2.06585
   R18        2.05294   0.00183  -0.00661   0.01516   0.00855   2.06149
    A1        1.87002  -0.00040   0.00868  -0.01666  -0.00804   1.86198
    A2        1.92561   0.00008  -0.00320   0.00165  -0.00134   1.92427
    A3        1.91533  -0.00014  -0.00100   0.00090   0.00019   1.91552
    A4        1.88101  -0.00153   0.00633  -0.02003  -0.01380   1.86722
    A5        1.90539   0.00163   0.00112   0.01214   0.01321   1.91860
    A6        1.96371   0.00032  -0.01134   0.01999   0.00879   1.97250
    A7        1.85929   0.00623   0.01097   0.01607   0.02676   1.88605
    A8        1.90970   0.00318   0.00020  -0.00527  -0.00428   1.90542
    A9        2.04964  -0.01686  -0.02971  -0.01343  -0.04283   2.00681
   A10        1.88199  -0.00303   0.00612  -0.00981  -0.00353   1.87846
   A11        1.84408   0.00442   0.01422   0.00024   0.01431   1.85839
   A12        1.91107   0.00675  -0.00009   0.01224   0.01275   1.92382
   A13        1.99788  -0.01063  -0.01865  -0.01767  -0.03680   1.96107
   A14        1.89021   0.00364   0.00437   0.01530   0.02000   1.91021
   A15        1.88143   0.00727   0.00624   0.02831   0.03485   1.91628
   A16        1.89177   0.00166   0.00403   0.00407   0.00803   1.89981
   A17        1.95410   0.00123  -0.00929   0.01974   0.01054   1.96464
   A18        1.94103  -0.00243  -0.00650  -0.00299  -0.00934   1.93169
   A19        1.89496  -0.00076   0.00335  -0.00592  -0.00268   1.89228
   A20        1.87985   0.00059   0.00658  -0.00590   0.00067   1.88051
   A21        1.90013  -0.00026   0.00224  -0.00995  -0.00743   1.89271
   A22        1.95606   0.00047  -0.00971   0.01732   0.00762   1.96367
   A23        1.90939   0.00086   0.00027   0.00348   0.00376   1.91315
   A24        1.90521   0.00243   0.00116   0.01053   0.01167   1.91688
   A25        1.89771  -0.00096   0.00276  -0.01051  -0.00771   1.89000
   A26        1.89821  -0.00140   0.00266  -0.01073  -0.00810   1.89010
   A27        1.89637  -0.00149   0.00305  -0.01109  -0.00806   1.88832
   A28        1.93248   0.00056  -0.00467   0.01048   0.00583   1.93831
   A29        1.92185   0.00134  -0.00240   0.01021   0.00780   1.92965
   A30        1.92565   0.00114  -0.00321   0.01033   0.00713   1.93277
   A31        1.89285  -0.00091   0.00380  -0.01002  -0.00622   1.88664
   A32        1.90069  -0.00081   0.00213  -0.00729  -0.00513   1.89556
   A33        1.88941  -0.00142   0.00454  -0.01480  -0.01027   1.87914
    D1       -3.07208  -0.00001  -0.01486   0.00052  -0.01438  -3.08646
    D2       -1.04205   0.00140  -0.00110  -0.00499  -0.00615  -1.04819
    D3        1.14958   0.00001  -0.02188  -0.00355  -0.02555   1.12403
    D4       -1.03577  -0.00132  -0.00244  -0.03006  -0.03247  -1.06823
    D5        0.99427   0.00009   0.01131  -0.03558  -0.02423   0.97003
    D6       -3.09729  -0.00131  -0.00947  -0.03413  -0.04364  -3.14093
    D7        1.06575  -0.00011  -0.00397  -0.01605  -0.01992   1.04583
    D8        3.09579   0.00130   0.00979  -0.02156  -0.01168   3.08410
    D9       -0.99577  -0.00010  -0.01099  -0.02012  -0.03109  -1.02686
   D10        1.01762   0.00004   0.00632  -0.01276  -0.00642   1.01120
   D11        3.11079   0.00013   0.00658  -0.01192  -0.00532   3.10548
   D12       -1.08783  -0.00006   0.00868  -0.01729  -0.00857  -1.09640
   D13       -1.02704  -0.00035  -0.00431  -0.00022  -0.00452  -1.03156
   D14        1.06613  -0.00026  -0.00405   0.00062  -0.00342   1.06272
   D15       -3.13249  -0.00045  -0.00195  -0.00475  -0.00667  -3.13916
   D16       -3.11446   0.00026  -0.00580   0.00404  -0.00181  -3.11626
   D17       -1.02128   0.00035  -0.00554   0.00488  -0.00070  -1.02198
   D18        1.06328   0.00016  -0.00344  -0.00049  -0.00396   1.05932
   D19       -1.15403   0.00411   0.02283   0.05200   0.07506  -1.07897
   D20        3.02987  -0.00090   0.02388   0.01633   0.04071   3.07058
   D21        3.05950   0.00300   0.01755   0.03938   0.05663   3.11613
   D22        0.96021  -0.00200   0.01859   0.00371   0.02228   0.98249
   D23        1.03692   0.00094   0.00220   0.04478   0.04663   1.08355
   D24       -1.06237  -0.00406   0.00324   0.00911   0.01228  -1.05009
   D25       -3.11391  -0.00186  -0.00592  -0.03812  -0.04391   3.12537
   D26       -1.02413  -0.00096  -0.00493  -0.03069  -0.03530  -1.05944
   D27        1.10594  -0.00217  -0.01256  -0.03167  -0.04417   1.06177
   D28       -1.00975   0.00118  -0.00800  -0.00966  -0.01787  -1.02762
   D29        1.08003   0.00207  -0.00702  -0.00224  -0.00927   1.07076
   D30       -3.07308   0.00086  -0.01464  -0.00321  -0.01814  -3.09122
   D31        1.08660  -0.00296  -0.00842   0.00269  -0.00541   1.08119
   D32       -3.09038  -0.00328  -0.01095   0.00308  -0.00759  -3.09797
   D33       -1.01738  -0.00314  -0.00637  -0.00208  -0.00817  -1.02555
   D34       -1.08388   0.00326   0.00784  -0.00272   0.00485  -1.07903
   D35        1.02232   0.00294   0.00532  -0.00233   0.00268   1.02500
   D36        3.09532   0.00308   0.00989  -0.00749   0.00210   3.09742
         Item               Value     Threshold  Converged?
 Maximum Force            0.016861     0.000450     NO 
 RMS     Force            0.003769     0.000300     NO 
 Maximum Displacement     0.254828     0.001800     NO 
 RMS     Displacement     0.067199     0.001200     NO 
 Predicted change in Energy=-1.826217D-03
 Lowest energy point so far.  Saving SCF results.
 GradGradGradGradGradGradGradGradGradGradGradGradGradGradGradGradGradGrad

 Leave Link  103 at Fri Sep 18 08:01:20 2026, MaxMem=  4294967296 cpu:               0.1 elap:               0.0
 (Enter /opt/apps/Gaussian/G16C/g16/l202.exe)
                          Input orientation:                          
 ---------------------------------------------------------------------
 Center     Atomic      Atomic             Coordinates (Angstroms)
 Number     Number       Type             X           Y           Z
 ---------------------------------------------------------------------
      1          6           0       -6.933916   -0.516395   -2.246402
      2          1           0       -5.926996   -0.189165   -2.514579
      3          1           0       -7.514170   -0.537644   -3.172728
      4          6           0       -6.899720   -1.944973   -1.708704
      5          1           0       -7.929302   -2.255795   -1.505398
      6          1           0       -6.494470   -2.617364   -2.488826
      7          7           0       -6.160454   -2.116855   -0.459614
      8          6           0       -4.754371   -1.768892   -0.596221
      9          1           0       -4.262782   -1.901674    0.369253
     10          1           0       -4.232761   -2.395688   -1.343019
     11          1           0       -4.642844   -0.724194   -0.884764
     12          6           0       -6.285641   -3.495287   -0.008012
     13          1           0       -5.855758   -4.216794   -0.726739
     14          1           0       -5.771535   -3.616037    0.947712
     15          1           0       -7.339189   -3.743087    0.137858
     16          6           0       -7.556082    0.477651   -1.264143
     17          1           0       -7.587713    1.483158   -1.690400
     18          1           0       -8.578655    0.182173   -1.014897
     19          1           0       -6.985394    0.511243   -0.335038
 ---------------------------------------------------------------------
                    Distance matrix (angstroms):
                    1          2          3          4          5
     1  C    0.000000
     2  H    1.092194   0.000000
     3  H    1.093264   1.753202   0.000000
     4  C    1.526801   2.162981   2.121671   0.000000
     5  H    2.136678   3.049366   2.429890   1.094523   0.000000
     6  H    2.160082   2.493760   2.415107   1.106764   1.776683
     7  N    2.520382   2.827255   3.418690   1.461604   2.059561
     8  C    3.007035   2.747851   3.971252   2.423045   3.338242
     9  H    3.986929   3.744166   4.997772   3.357563   4.133169
    10  H    3.412343   3.018564   4.191396   2.729385   3.702749
    11  H    2.673247   2.142802   3.676152   2.694934   3.678558
    12  C    3.782122   4.164366   4.502484   2.381790   2.545609
    13  H    4.143037   4.407180   4.719039   2.686128   2.958278
    14  H    4.600138   4.873918   5.430590   3.334937   3.538921
    15  H    4.032429   4.654039   4.611449   2.614602   2.293592
    16  C    1.529722   2.159203   2.162239   2.549029   2.769336
    17  H    2.175960   2.496782   2.507259   3.496534   3.759080
    18  H    2.170199   3.068914   2.511473   2.797309   2.570202
    19  H    2.170714   2.522137   3.071197   2.815545   3.149159
                    6          7          8          9         10
     6  H    0.000000
     7  N    2.116549   0.000000
     8  C    2.707361   1.454925   0.000000
     9  H    3.696114   2.081942   1.091527   0.000000
    10  H    2.545062   2.138727   1.105739   1.782365   0.000000
    11  H    3.096066   2.103186   1.089536   1.761665   1.781027
    12  C    2.639848   1.455916   2.381431   2.602669   2.684340
    13  H    2.463956   2.138677   2.687436   3.016380   2.516018
    14  H    3.650997   2.092695   2.613483   2.355842   3.017371
    15  H    2.979979   2.095477   3.334307   3.592858   3.695725
    16  C    3.493707   3.053933   3.652760   4.378927   4.393946
    17  H    4.318211   4.063496   4.449818   5.172469   5.140217
    18  H    3.788628   3.382538   4.313593   4.988492   5.063579
    19  H    3.829881   2.757344   3.200734   3.705512   4.128349
                   11         12         13         14         15
    11  H    0.000000
    12  C    3.338627   0.000000
    13  H    3.700592   1.105414   0.000000
    14  H    3.604811   1.091922   1.780952   0.000000
    15  H    4.174895   1.092084   1.781150   1.769052   0.000000
    16  C    3.174164   4.356159   5.021725   4.983492   4.452784
    17  H    3.767454   5.413939   6.034713   6.021622   5.542376
    18  H    4.040921   4.449207   5.181517   5.114505   4.274669
    19  H    2.704818   4.080305   4.876868   4.489248   4.295129
                   16         17         18         19
    16  C    0.000000
    17  H    1.092584   0.000000
    18  H    1.093200   1.769416   0.000000
    19  H    1.090894   1.773249   1.763229   0.000000
 Stoichiometry    C5H13N
 Framework group  C1[X(C5H13N)]
 Deg. of freedom    51
 Full point group                 C1      NOp   1
 RotChk:  IX=0 Diff= 4.62D-02
 Largest Abelian subgroup         C1      NOp   1
 Largest concise Abelian subgroup C1      NOp   1
                         Standard orientation:                         
 ---------------------------------------------------------------------
 Center     Atomic      Atomic             Coordinates (Angstroms)
 Number     Number       Type             X           Y           Z
 ---------------------------------------------------------------------
      1          6           0        1.552311   -0.035678    0.629861
      2          1           0        1.498371    0.971604    1.048623
      3          1           0        2.151858   -0.631982    1.322819
      4          6           0        0.162094   -0.665435    0.587153
      5          1           0        0.264934   -1.690080    0.216332
      6          1           0       -0.243845   -0.720251    1.615324
      7          7           0       -0.790957    0.001918   -0.297506
      8          6           0       -1.050012    1.376206    0.103781
      9          1           0       -1.752749    1.823138   -0.601799
     10          1           0       -1.481600    1.447530    1.119312
     11          1           0       -0.133164    1.964211    0.076806
     12          6           0       -2.038381   -0.748477   -0.320558
     13          1           0       -2.519236   -0.800766    0.673416
     14          1           0       -2.736992   -0.277025   -1.014798
     15          1           0       -1.851193   -1.767817   -0.664876
     16          6           0        2.230669    0.009814   -0.740470
     17          1           0        3.231512    0.442169   -0.668887
     18          1           0        2.324619   -0.996969   -1.155978
     19          1           0        1.644095    0.604233   -1.442357
 ---------------------------------------------------------------------
 Rotational constants (GHZ):           5.9174869           2.1025633           1.9171520
 Leave Link  202 at Fri Sep 18 08:01:20 2026, MaxMem=  4294967296 cpu:               0.0 elap:               0.0
 (Enter /opt/apps/Gaussian/G16C/g16/l301.exe)
 Standard basis: 6-311+G(2d,2p) (5D, 7F)
 Ernie: Thresh=  0.10000D-02 Tol=  0.10000D-05 Strict=F.
 There are   291 symmetry adapted cartesian basis functions of A   symmetry.
 There are   279 symmetry adapted basis functions of A   symmetry.
   279 basis functions,   395 primitive gaussians,   291 cartesian basis functions
    25 alpha electrons       25 beta electrons
       nuclear repulsion energy       263.9478334666 Hartrees.
 IExCor= 4639 DFT=T Ex+Corr=wB97XD ExCW=0 ScaHFX=  1.000000
 ScaDFX=  1.000000  1.000000  1.000000  1.000000 ScalE2=  1.000000  1.000000
 IRadAn=      5 IRanWt=     -1 IRanGd=            0 ICorTp=0 IEmpDi=121
 HFx  wShort=  0.000000 wLong=  0.200000 cFull=  0.222036 cShort=  0.000000 cLong=  0.777964
 DFx  wShort=  0.000000 wLong=  0.200000 cFull=  0.000000 cShort=  0.000000 cLong=  1.000000
 NAtoms=   19 NActive=   19 NUniq=   19 SFac= 1.00D+00 NAtFMM=   60 NAOKFM=F Big=F
 Integral buffers will be    131072 words long.
 Raffenetti 2 integral format.
 Two-electron integral symmetry is turned on.
 R6Disp:  Grimme-D2 Dispersion energy=       -0.0112679366 Hartrees.
 Nuclear repulsion after empirical dispersion term =      263.9365655299 Hartrees.
 Leave Link  301 at Fri Sep 18 08:01:20 2026, MaxMem=  4294967296 cpu:               0.0 elap:               0.0
 (Enter /opt/apps/Gaussian/G16C/g16/l302.exe)
 NPDir=0 NMtPBC=     1 NCelOv=     1 NCel=       1 NClECP=     1 NCelD=      1
         NCelK=      1 NCelE2=     1 NClLst=     1 CellRange=     0.0.
 One-electron integrals computed using PRISM.
 One-electron integral symmetry used in STVInt
 NBasis=   279 RedAO= T EigKep=  3.39D-05  NBF=   279
 NBsUse=   279 1.00D-06 EigRej= -1.00D+00 NBFU=   279
 Precomputing XC quadrature grid using
 IXCGrd= 4 IRadAn=           5 IRanWt=          -1 IRanGd=           0 AccXCQ= 0.00D+00.
 Generated NRdTot=       0 NPtTot=           0 NUsed=           0 NTot=          32
 NSgBfM=   291   291   291   291   291 MxSgAt=    19 MxSgA2=    19.
 Leave Link  302 at Fri Sep 18 08:01:20 2026, MaxMem=  4294967296 cpu:               1.6 elap:               0.2
 (Enter /opt/apps/Gaussian/G16C/g16/l303.exe)
 DipDrv:  MaxL=1.
 Leave Link  303 at Fri Sep 18 08:01:20 2026, MaxMem=  4294967296 cpu:               0.1 elap:               0.0
 (Enter /opt/apps/Gaussian/G16C/g16/l401.exe)
 Initial guess from the checkpoint file:  "aminopropyl.chk"
 B after Tr=     0.000000    0.000000    0.000000
         Rot=    0.999879   -0.003449   -0.000043    0.015198 Ang=  -1.79 deg.
 Guess basis will be translated and rotated to current coordinates.
 JPrj=2 DoOrth=T DoCkMO=T.
 Generating alternative initial guess.
 ExpMin= 4.38D-02 ExpMax= 6.29D+03 ExpMxC= 9.49D+02 IAcc=3 IRadAn=         5 AccDes= 0.00D+00
 Harris functional with IExCor= 4639 and IRadAn=       5 diagonalized for initial guess.
 HarFok:  IExCor= 4639 AccDes= 0.00D+00 IRadAn=         5 IDoV= 1 UseB2=F ITyADJ=14
 ICtDFT=  3500011 ScaDFX=  1.000000  1.000000  1.000000  1.000000
 FoFCou: FMM=F IPFlag=           0 FMFlag=      100000 FMFlg1=           0
         NFxFlg=           0 DoJE=T BraDBF=F KetDBF=T FulRan=T
         wScrn=  0.000000 ICntrl=       500 IOpCl=  0 I1Cent=   200000004 NGrid=           0
         NMat0=    1 NMatS0=      1 NMatT0=    0 NMatD0=    1 NMtDS0=    0 NMtDT0=    0
 Petite list used in FoFCou.
 Harris En= -240.798235952330    
 Leave Link  401 at Fri Sep 18 08:01:21 2026, MaxMem=  4294967296 cpu:              10.3 elap:               0.8
 (Enter /opt/apps/Gaussian/G16C/g16/l502.exe)
 Integral symmetry usage will be decided dynamically.
 Closed shell SCF:
 Using DIIS extrapolation, IDIIS=  1040.
 NGot=  4294967296 LenX=  4294789954 LenY=  4294704832
 Requested convergence on RMS density matrix=1.00D-08 within  32 cycles.
 Requested convergence on MAX density matrix=1.00D-06.
 Requested convergence on             energy=1.00D-06.
 No special actions if energy rises.
 Fock matrices will be formed incrementally for  20 cycles.

 Cycle   1  Pass 1  IDiag  1:
 FoFJK:  IHMeth= 1 ICntrl=       0 DoSepK=T KAlg= 0 I1Cent=           0 FoldK=F
 IRaf=         1 NMat=       1 IRICut=       1 DoRegI=T DoRafI=F ISym2E= 0 IDoP0=0 IntGTp=1.
 FoFCou: FMM=F IPFlag=           0 FMFlag=      100000 FMFlg1=           0
         NFxFlg=           0 DoJE=T BraDBF=F KetDBF=F FulRan=T
         wScrn=  0.000000 ICntrl=       500 IOpCl=  0 I1Cent=           0 NGrid=           0
         NMat0=    1 NMatS0=      1 NMatT0=    0 NMatD0=    1 NMtDS0=    0 NMtDT0=    0
 Symmetry not used in FoFCou.
 E= -253.099874183041    
 DIIS: error= 3.83D-03 at cycle   1 NSaved=   1.
 NSaved= 1 IEnMin= 1 EnMin= -253.099874183041     IErMin= 1 ErrMin= 3.83D-03
 ErrMax= 3.83D-03  0.00D+00 EMaxC= 1.00D-01 BMatC= 2.68D-03 BMatP= 2.68D-03
 IDIUse=3 WtCom= 9.62D-01 WtEn= 3.83D-02
 Coeff-Com:  0.100D+01
 Coeff-En:   0.100D+01
 Coeff:      0.100D+01
 Gap=     0.630 Goal=   None    Shift=    0.000
 GapD=    0.630 DampG=2.000 DampE=1.000 DampFc=2.0000 IDamp=-1.
 RMSDP=2.47D-04 MaxDP=6.50D-03              OVMax= 1.30D-02

 Cycle   2  Pass 1  IDiag  1:
 RMSU=  2.47D-04    CP:  9.98D-01
 E= -253.103640167296     Delta-E=       -0.003765984255 Rises=F Damp=F
 DIIS: error= 6.05D-04 at cycle   2 NSaved=   2.
 NSaved= 2 IEnMin= 2 EnMin= -253.103640167296     IErMin= 2 ErrMin= 6.05D-04
 ErrMax= 6.05D-04  0.00D+00 EMaxC= 1.00D-01 BMatC= 1.05D-04 BMatP= 2.68D-03
 IDIUse=3 WtCom= 9.94D-01 WtEn= 6.05D-03
 Coeff-Com: -0.131D+00 0.113D+01
 Coeff-En:   0.000D+00 0.100D+01
 Coeff:     -0.130D+00 0.113D+01
 Gap=     0.361 Goal=   None    Shift=    0.000
 RMSDP=6.61D-05 MaxDP=2.17D-03 DE=-3.77D-03 OVMax= 3.96D-03

 Cycle   3  Pass 1  IDiag  1:
 RMSU=  4.73D-05    CP:  9.98D-01  1.19D+00
 E= -253.103841748661     Delta-E=       -0.000201581365 Rises=F Damp=F
 DIIS: error= 1.87D-04 at cycle   3 NSaved=   3.
 NSaved= 3 IEnMin= 3 EnMin= -253.103841748661     IErMin= 3 ErrMin= 1.87D-04
 ErrMax= 1.87D-04  0.00D+00 EMaxC= 1.00D-01 BMatC= 2.71D-05 BMatP= 1.05D-04
 IDIUse=3 WtCom= 9.98D-01 WtEn= 1.87D-03
 Coeff-Com: -0.696D-01 0.402D+00 0.668D+00
 Coeff-En:   0.000D+00 0.000D+00 0.100D+01
 Coeff:     -0.695D-01 0.401D+00 0.669D+00
 Gap=     0.362 Goal=   None    Shift=    0.000
 RMSDP=1.63D-05 MaxDP=8.28D-04 DE=-2.02D-04 OVMax= 1.16D-03

 Cycle   4  Pass 1  IDiag  1:
 RMSU=  1.52D-05    CP:  9.98D-01  1.21D+00  9.98D-01
 E= -253.103865817704     Delta-E=       -0.000024069044 Rises=F Damp=F
 DIIS: error= 6.80D-05 at cycle   4 NSaved=   4.
 NSaved= 4 IEnMin= 4 EnMin= -253.103865817704     IErMin= 4 ErrMin= 6.80D-05
 ErrMax= 6.80D-05  0.00D+00 EMaxC= 1.00D-01 BMatC= 2.71D-06 BMatP= 2.71D-05
 IDIUse=1 WtCom= 1.00D+00 WtEn= 0.00D+00
 Coeff-Com: -0.334D-02-0.305D-01 0.203D+00 0.831D+00
 Coeff:     -0.334D-02-0.305D-01 0.203D+00 0.831D+00
 Gap=     0.361 Goal=   None    Shift=    0.000
 RMSDP=9.92D-06 MaxDP=3.74D-04 DE=-2.41D-05 OVMax= 5.90D-04

 Cycle   5  Pass 1  IDiag  1:
 RMSU=  5.84D-06    CP:  9.98D-01  1.23D+00  1.14D+00  1.09D+00
 E= -253.103868657369     Delta-E=       -0.000002839665 Rises=F Damp=F
 DIIS: error= 3.00D-05 at cycle   5 NSaved=   5.
 NSaved= 5 IEnMin= 5 EnMin= -253.103868657369     IErMin= 5 ErrMin= 3.00D-05
 ErrMax= 3.00D-05  0.00D+00 EMaxC= 1.00D-01 BMatC= 3.38D-07 BMatP= 2.71D-06
 IDIUse=1 WtCom= 1.00D+00 WtEn= 0.00D+00
 Coeff-Com:  0.435D-02-0.471D-01 0.217D-01 0.333D+00 0.688D+00
 Coeff:      0.435D-02-0.471D-01 0.217D-01 0.333D+00 0.688D+00
 Gap=     0.362 Goal=   None    Shift=    0.000
 RMSDP=3.19D-06 MaxDP=9.67D-05 DE=-2.84D-06 OVMax= 1.68D-04

 Cycle   6  Pass 1  IDiag  1:
 RMSU=  1.99D-06    CP:  9.98D-01  1.23D+00  1.18D+00  1.18D+00  1.01D+00
 E= -253.103868999099     Delta-E=       -0.000000341731 Rises=F Damp=F
 DIIS: error= 6.88D-06 at cycle   6 NSaved=   6.
 NSaved= 6 IEnMin= 6 EnMin= -253.103868999099     IErMin= 6 ErrMin= 6.88D-06
 ErrMax= 6.88D-06  0.00D+00 EMaxC= 1.00D-01 BMatC= 1.54D-08 BMatP= 3.38D-07
 IDIUse=1 WtCom= 1.00D+00 WtEn= 0.00D+00
 Coeff-Com:  0.158D-02-0.123D-01-0.772D-02 0.397D-01 0.198D+00 0.781D+00
 Coeff:      0.158D-02-0.123D-01-0.772D-02 0.397D-01 0.198D+00 0.781D+00
 Gap=     0.362 Goal=   None    Shift=    0.000
 RMSDP=1.38D-06 MaxDP=4.70D-05 DE=-3.42D-07 OVMax= 5.29D-05

 Cycle   7  Pass 1  IDiag  1:
 RMSU=  5.31D-07    CP:  9.98D-01  1.23D+00  1.20D+00  1.21D+00  1.13D+00
                    CP:  1.23D+00
 E= -253.103869018901     Delta-E=       -0.000000019801 Rises=F Damp=F
 DIIS: error= 1.72D-06 at cycle   7 NSaved=   7.
 NSaved= 7 IEnMin= 7 EnMin= -253.103869018901     IErMin= 7 ErrMin= 1.72D-06
 ErrMax= 1.72D-06  0.00D+00 EMaxC= 1.00D-01 BMatC= 1.20D-09 BMatP= 1.54D-08
 IDIUse=1 WtCom= 1.00D+00 WtEn= 0.00D+00
 Coeff-Com: -0.152D-03 0.266D-02-0.374D-02-0.283D-01-0.373D-01 0.167D+00
 Coeff-Com:  0.900D+00
 Coeff:     -0.152D-03 0.266D-02-0.374D-02-0.283D-01-0.373D-01 0.167D+00
 Coeff:      0.900D+00
 Gap=     0.362 Goal=   None    Shift=    0.000
 RMSDP=6.39D-07 MaxDP=2.34D-05 DE=-1.98D-08 OVMax= 2.30D-05

 Cycle   8  Pass 1  IDiag  1:
 RMSU=  1.51D-07    CP:  9.98D-01  1.23D+00  1.20D+00  1.22D+00  1.18D+00
                    CP:  1.40D+00  1.19D+00
 E= -253.103869020904     Delta-E=       -0.000000002003 Rises=F Damp=F
 DIIS: error= 5.66D-07 at cycle   8 NSaved=   8.
 NSaved= 8 IEnMin= 8 EnMin= -253.103869020904     IErMin= 8 ErrMin= 5.66D-07
 ErrMax= 5.66D-07  0.00D+00 EMaxC= 1.00D-01 BMatC= 8.54D-11 BMatP= 1.20D-09
 IDIUse=1 WtCom= 1.00D+00 WtEn= 0.00D+00
 Coeff-Com: -0.135D-03 0.146D-02-0.580D-03-0.102D-01-0.215D-01 0.294D-02
 Coeff-Com:  0.250D+00 0.778D+00
 Coeff:     -0.135D-03 0.146D-02-0.580D-03-0.102D-01-0.215D-01 0.294D-02
 Coeff:      0.250D+00 0.778D+00
 Gap=     0.362 Goal=   None    Shift=    0.000
 RMSDP=1.42D-07 MaxDP=5.07D-06 DE=-2.00D-09 OVMax= 5.72D-06

 Cycle   9  Pass 1  IDiag  1:
 RMSU=  4.00D-08    CP:  9.98D-01  1.23D+00  1.21D+00  1.22D+00  1.19D+00
                    CP:  1.44D+00  1.28D+00  1.20D+00
 E= -253.103869021025     Delta-E=       -0.000000000121 Rises=F Damp=F
 DIIS: error= 1.48D-07 at cycle   9 NSaved=   9.
 NSaved= 9 IEnMin= 9 EnMin= -253.103869021025     IErMin= 9 ErrMin= 1.48D-07
 ErrMax= 1.48D-07  0.00D+00 EMaxC= 1.00D-01 BMatC= 8.30D-12 BMatP= 8.54D-11
 IDIUse=1 WtCom= 1.00D+00 WtEn= 0.00D+00
 Coeff-Com: -0.120D-04 0.411D-04 0.273D-03 0.633D-03-0.882D-03-0.174D-01
 Coeff-Com: -0.326D-01 0.194D+00 0.856D+00
 Coeff:     -0.120D-04 0.411D-04 0.273D-03 0.633D-03-0.882D-03-0.174D-01
 Coeff:     -0.326D-01 0.194D+00 0.856D+00
 Gap=     0.362 Goal=   None    Shift=    0.000
 RMSDP=4.97D-08 MaxDP=2.09D-06 DE=-1.21D-10 OVMax= 2.80D-06

 Cycle  10  Pass 1  IDiag  1:
 RMSU=  1.34D-08    CP:  9.98D-01  1.23D+00  1.21D+00  1.22D+00  1.19D+00
                    CP:  1.45D+00  1.31D+00  1.33D+00  1.19D+00
 E= -253.103869021049     Delta-E=       -0.000000000024 Rises=F Damp=F
 DIIS: error= 4.46D-08 at cycle  10 NSaved=  10.
 NSaved=10 IEnMin=10 EnMin= -253.103869021049     IErMin=10 ErrMin= 4.46D-08
 ErrMax= 4.46D-08  0.00D+00 EMaxC= 1.00D-01 BMatC= 4.87D-13 BMatP= 8.30D-12
 IDIUse=1 WtCom= 1.00D+00 WtEn= 0.00D+00
 Coeff-Com:  0.104D-04-0.124D-03 0.880D-04 0.983D-03 0.182D-02-0.251D-02
 Coeff-Com: -0.269D-01-0.500D-01 0.121D+00 0.956D+00
 Coeff:      0.104D-04-0.124D-03 0.880D-04 0.983D-03 0.182D-02-0.251D-02
 Coeff:     -0.269D-01-0.500D-01 0.121D+00 0.956D+00
 Gap=     0.362 Goal=   None    Shift=    0.000
 RMSDP=1.20D-08 MaxDP=5.29D-07 DE=-2.39D-11 OVMax= 1.05D-06

 Cycle  11  Pass 1  IDiag  1:
 RMSU=  4.19D-09    CP:  9.98D-01  1.23D+00  1.21D+00  1.22D+00  1.20D+00
                    CP:  1.45D+00  1.31D+00  1.37D+00  1.32D+00  1.32D+00
 E= -253.103869021047     Delta-E=        0.000000000002 Rises=F Damp=F
 DIIS: error= 8.09D-09 at cycle  11 NSaved=  11.
 NSaved=11 IEnMin=10 EnMin= -253.103869021049     IErMin=11 ErrMin= 8.09D-09
 ErrMax= 8.09D-09  0.00D+00 EMaxC= 1.00D-01 BMatC= 2.14D-14 BMatP= 4.87D-13
 IDIUse=1 WtCom= 1.00D+00 WtEn= 0.00D+00
 Coeff-Com:  0.104D-05-0.587D-05-0.143D-04-0.224D-04 0.957D-04 0.105D-02
 Coeff-Com:  0.146D-02-0.142D-01-0.445D-01 0.676D-02 0.105D+01
 Coeff:      0.104D-05-0.587D-05-0.143D-04-0.224D-04 0.957D-04 0.105D-02
 Coeff:      0.146D-02-0.142D-01-0.445D-01 0.676D-02 0.105D+01
 Gap=     0.362 Goal=   None    Shift=    0.000
 RMSDP=3.38D-09 MaxDP=9.41D-08 DE= 2.16D-12 OVMax= 2.80D-07

 SCF Done:  E(RwB97XD) =  -253.103869021     A.U. after   11 cycles
            NFock= 11  Conv=0.34D-08     -V/T= 2.0049
 KE= 2.518605715758D+02 PE=-1.114585824749D+03 EE= 3.456848186224D+02
 Leave Link  502 at Fri Sep 18 08:01:39 2026, MaxMem=  4294967296 cpu:             282.1 elap:              18.8
 (Enter /opt/apps/Gaussian/G16C/g16/l508.exe)
 QCSCF skips out because SCF is already converged.
 Leave Link  508 at Fri Sep 18 08:01:40 2026, MaxMem=  4294967296 cpu:               0.0 elap:               0.0
 (Enter /opt/apps/Gaussian/G16C/g16/l701.exe)
 ... and contract with generalized density number  0.
 Compute integral first derivatives.
 R6Disp: Adding Grimme-D2 dispersion energy 1st derivatives to the gradient.
 Leave Link  701 at Fri Sep 18 08:01:40 2026, MaxMem=  4294967296 cpu:               0.7 elap:               0.1
 (Enter /opt/apps/Gaussian/G16C/g16/l702.exe)
 L702 exits ... SP integral derivatives will be done elsewhere.
 Leave Link  702 at Fri Sep 18 08:01:40 2026, MaxMem=  4294967296 cpu:               0.0 elap:               0.0
 (Enter /opt/apps/Gaussian/G16C/g16/l703.exe)
 Integral derivatives from FoFJK, PRISM(SPDF).
 Compute integral first derivatives, UseDBF=F ICtDFT=           0.
 Calling FoFJK, ICntrl=      2127 FMM=F ISym2X=0 I1Cent= 0 IOpClX= 0 NMat=1 NMatS=1 NMatT=0.
 FoFJK:  IHMeth= 1 ICntrl=    2127 DoSepK=T KAlg= 0 I1Cent=           0 FoldK=F
 IRaf=         1 NMat=       1 IRICut=       1 DoRegI=T DoRafI=F ISym2E= 0 IDoP0=0 IntGTp=1.
 FoFCou: FMM=F IPFlag=           0 FMFlag=      100000 FMFlg1=         800
         NFxFlg=           0 DoJE=F BraDBF=F KetDBF=F FulRan=T
         wScrn=  0.000000 ICntrl=      2527 IOpCl=  0 I1Cent=           0 NGrid=           0
         NMat0=    1 NMatS0=      1 NMatT0=    0 NMatD0=    1 NMtDS0=    0 NMtDT0=    0
 Symmetry not used in FoFCou.
 Leave Link  703 at Fri Sep 18 08:01:45 2026, MaxMem=  4294967296 cpu:              91.0 elap:               5.8
 (Enter /opt/apps/Gaussian/G16C/g16/l716.exe)
 Dipole        =-8.74516274D-02 1.36910194D-03 2.37051438D-01
 ***** Axes restored to original set *****
 -------------------------------------------------------------------
 Center     Atomic                   Forces (Hartrees/Bohr)
 Number     Number              X              Y              Z
 -------------------------------------------------------------------
      1        6          -0.001397088    0.000254911    0.003859236
      2        1          -0.000829846   -0.000227836   -0.001425935
      3        1           0.001189955    0.000736814    0.000337725
      4        6           0.000961864    0.000168563    0.001469752
      5        1           0.000947363   -0.001044287   -0.001733339
      6        1          -0.001200815    0.000704154    0.000394951
      7        7           0.002052241   -0.002905465   -0.003845281
      8        6          -0.002246355   -0.000551661    0.001430232
      9        1           0.000423512   -0.000030955   -0.001405403
     10        1          -0.000748802    0.000988417    0.000732702
     11        1           0.000068319   -0.000701953    0.000488821
     12        6          -0.000539806    0.003255044    0.001585211
     13        1          -0.000536645    0.001052472    0.000818649
     14        1          -0.000589716   -0.000320564   -0.001024983
     15        1           0.001289849    0.000164103   -0.000213848
     16        6           0.000845682   -0.000841672   -0.001784698
     17        1          -0.000026558   -0.001374740    0.000812979
     18        1           0.001091408    0.000559979    0.000124964
     19        1          -0.000754563    0.000114675   -0.000621736
 -------------------------------------------------------------------
 Cartesian Forces:  Max     0.003859236 RMS     0.001325274
 Leave Link  716 at Fri Sep 18 08:01:45 2026, MaxMem=  4294967296 cpu:               0.0 elap:               0.0
 (Enter /opt/apps/Gaussian/G16C/g16/l103.exe)

 GradGradGradGradGradGradGradGradGradGradGradGradGradGradGradGradGradGrad
 Berny optimization.
 Using GEDIIS/GDIIS optimizer.
 FormGI is forming the generalized inverse of G from B-inverse, IUseBI=4.
 Internal  Forces:  Max     0.003537278 RMS     0.000910052
 Search for a local minimum.
 Step number   3 out of a maximum of   97
 All quantities printed in internal units (Hartrees-Bohrs-Radians)
 RMS Force = .91005D-03 SwitMx=.10000D-02 MixMth= 2
 Mixed Optimization -- En-DIIS/RFO-DIIS
 Update second derivatives using D2CorX and points    1    2    3
 DE= -2.16D-03 DEPred=-1.83D-03 R= 1.18D+00
 TightC=F SS=  1.41D+00  RLast= 1.92D-01 DXNew= 8.4853D-01 5.7507D-01
 Trust test= 1.18D+00 RLast= 1.92D-01 DXMaxT set to 5.75D-01
 ITU=  1  1  0
 Use linear search instead of GDIIS.
     Eigenvalues ---    0.00237   0.00242   0.00766   0.00766   0.00818
     Eigenvalues ---    0.02787   0.03417   0.04041   0.04728   0.05431
     Eigenvalues ---    0.05453   0.05521   0.07105   0.07132   0.07479
     Eigenvalues ---    0.07527   0.08364   0.09735   0.12252   0.13078
     Eigenvalues ---    0.15342   0.16000   0.16000   0.16000   0.16000
     Eigenvalues ---    0.16000   0.16000   0.16023   0.16135   0.17081
     Eigenvalues ---    0.18037   0.21857   0.25319   0.27435   0.29164
     Eigenvalues ---    0.32596   0.35741   0.36673   0.37170   0.37230
     Eigenvalues ---    0.37230   0.37230   0.37230   0.37230   0.37230
     Eigenvalues ---    0.37230   0.37230   0.37230   0.37230   0.37530
     Eigenvalues ---    0.39321
 RFO step:  Lambda=-8.51570959D-04 EMin= 2.36802474D-03
 Quartic linear search produced a step of  0.03592.
 Iteration  1 RMS(Cart)=  0.05468970 RMS(Int)=  0.00098710
 Iteration  2 RMS(Cart)=  0.00166625 RMS(Int)=  0.00004587
 Iteration  3 RMS(Cart)=  0.00000167 RMS(Int)=  0.00004585
 Iteration  4 RMS(Cart)=  0.00000000 RMS(Int)=  0.00004585
 ITry= 1 IFail=0 DXMaxC= 1.61D-01 DCOld= 1.00D+10 DXMaxT= 5.75D-01 DXLimC= 3.00D+00 Rises=F
 Variable       Old X    -DE/DX   Delta X   Delta X   Delta X     New X
                                 (Linear)    (Quad)   (Total)
    R1        2.06395  -0.00048   0.00056  -0.00103  -0.00047   2.06347
    R2        2.06597  -0.00093   0.00031  -0.00278  -0.00247   2.06350
    R3        2.88524  -0.00119  -0.00099  -0.00572  -0.00670   2.87853
    R4        2.89076  -0.00241  -0.00052  -0.00931  -0.00983   2.88092
    R5        2.06835  -0.00092   0.00037  -0.00267  -0.00230   2.06605
    R6        2.09148  -0.00115   0.00049  -0.00349  -0.00299   2.08849
    R7        2.76203  -0.00175  -0.00100  -0.00668  -0.00768   2.75435
    R8        2.74941  -0.00261  -0.00069  -0.00829  -0.00898   2.74043
    R9        2.75128  -0.00354  -0.00032  -0.01027  -0.01059   2.74069
   R10        2.06269  -0.00105   0.00027  -0.00311  -0.00284   2.05985
   R11        2.08954  -0.00141   0.00047  -0.00422  -0.00375   2.08580
   R12        2.05892  -0.00079   0.00051  -0.00188  -0.00137   2.05756
   R13        2.08893  -0.00143   0.00048  -0.00424  -0.00376   2.08517
   R14        2.06343  -0.00114   0.00027  -0.00337  -0.00310   2.06034
   R15        2.06374  -0.00131   0.00029  -0.00383  -0.00354   2.06020
   R16        2.06469  -0.00158   0.00025  -0.00466  -0.00441   2.06027
   R17        2.06585  -0.00114   0.00032  -0.00334  -0.00303   2.06282
   R18        2.06149  -0.00092   0.00031  -0.00267  -0.00236   2.05913
    A1        1.86198  -0.00073  -0.00029  -0.01326  -0.01354   1.84844
    A2        1.92427   0.00015  -0.00005   0.00160   0.00155   1.92582
    A3        1.91552   0.00029   0.00001   0.00230   0.00230   1.91782
    A4        1.86722   0.00045  -0.00050   0.00508   0.00457   1.87178
    A5        1.91860   0.00010   0.00047   0.00227   0.00273   1.92133
    A6        1.97250  -0.00028   0.00032   0.00117   0.00148   1.97398
    A7        1.88605   0.00073   0.00096   0.00416   0.00517   1.89122
    A8        1.90542   0.00066  -0.00015   0.00292   0.00280   1.90821
    A9        2.00681  -0.00265  -0.00154  -0.01488  -0.01638   1.99043
   A10        1.87846  -0.00112  -0.00013  -0.01230  -0.01247   1.86599
   A11        1.85839   0.00103   0.00051   0.00815   0.00869   1.86707
   A12        1.92382   0.00139   0.00046   0.01164   0.01208   1.93590
   A13        1.96107  -0.00044  -0.00132   0.00151  -0.00011   1.96096
   A14        1.91021   0.00097   0.00072   0.01526   0.01587   1.92608
   A15        1.91628   0.00029   0.00125   0.01203   0.01316   1.92944
   A16        1.89981   0.00139   0.00029   0.01042   0.01070   1.91051
   A17        1.96464  -0.00035   0.00038  -0.00322  -0.00285   1.96179
   A18        1.93169   0.00002  -0.00034  -0.00103  -0.00137   1.93032
   A19        1.89228  -0.00053  -0.00010  -0.00300  -0.00310   1.88919
   A20        1.88051  -0.00046   0.00002  -0.00094  -0.00093   1.87959
   A21        1.89271  -0.00009  -0.00027  -0.00225  -0.00253   1.89018
   A22        1.96367  -0.00044   0.00027  -0.00385  -0.00358   1.96010
   A23        1.91315   0.00071   0.00014   0.00536   0.00549   1.91864
   A24        1.91688   0.00013   0.00042   0.00146   0.00187   1.91875
   A25        1.89000  -0.00017  -0.00028  -0.00123  -0.00151   1.88849
   A26        1.89010  -0.00002  -0.00029  -0.00140  -0.00170   1.88841
   A27        1.88832  -0.00022  -0.00029  -0.00034  -0.00064   1.88768
   A28        1.93831   0.00017   0.00021   0.00128   0.00149   1.93980
   A29        1.92965   0.00049   0.00028   0.00335   0.00363   1.93328
   A30        1.93277   0.00030   0.00026   0.00169   0.00194   1.93471
   A31        1.88664  -0.00029  -0.00022  -0.00120  -0.00143   1.88521
   A32        1.89556  -0.00026  -0.00018  -0.00177  -0.00196   1.89360
   A33        1.87914  -0.00047  -0.00037  -0.00365  -0.00402   1.87512
    D1       -3.08646   0.00078  -0.00052   0.09622   0.09570  -2.99076
    D2       -1.04819   0.00020  -0.00022   0.08548   0.08525  -0.96295
    D3        1.12403   0.00062  -0.00092   0.09226   0.09136   1.21539
    D4       -1.06823   0.00023  -0.00117   0.08417   0.08300  -0.98524
    D5        0.97003  -0.00034  -0.00087   0.07343   0.07254   1.04258
    D6       -3.14093   0.00007  -0.00157   0.08021   0.07865  -3.06227
    D7        1.04583   0.00049  -0.00072   0.09119   0.09047   1.13630
    D8        3.08410  -0.00009  -0.00042   0.08044   0.08001  -3.11907
    D9       -1.02686   0.00033  -0.00112   0.08722   0.08612  -0.94074
   D10        1.01120  -0.00031  -0.00023  -0.00353  -0.00376   1.00744
   D11        3.10548  -0.00023  -0.00019  -0.00197  -0.00217   3.10331
   D12       -1.09640  -0.00031  -0.00031  -0.00328  -0.00359  -1.09999
   D13       -1.03156   0.00035  -0.00016   0.00990   0.00974  -1.02182
   D14        1.06272   0.00043  -0.00012   0.01145   0.01133   1.07405
   D15       -3.13916   0.00036  -0.00024   0.01014   0.00990  -3.12926
   D16       -3.11626  -0.00010  -0.00006   0.00111   0.00104  -3.11522
   D17       -1.02198  -0.00002  -0.00003   0.00266   0.00263  -1.01935
   D18        1.05932  -0.00010  -0.00014   0.00135   0.00121   1.06053
   D19       -1.07897  -0.00004   0.00270  -0.03915  -0.03646  -1.11542
   D20        3.07058  -0.00080   0.00146  -0.06634  -0.06486   3.00572
   D21        3.11613  -0.00008   0.00203  -0.04111  -0.03906   3.07708
   D22        0.98249  -0.00084   0.00080  -0.06830  -0.06746   0.91503
   D23        1.08355  -0.00004   0.00168  -0.03710  -0.03547   1.04809
   D24       -1.05009  -0.00080   0.00044  -0.06428  -0.06387  -1.11396
   D25        3.12537  -0.00016  -0.00158   0.02784   0.02628  -3.13153
   D26       -1.05944  -0.00011  -0.00127   0.02910   0.02785  -1.03159
   D27        1.06177  -0.00045  -0.00159   0.02322   0.02165   1.08342
   D28       -1.02762   0.00099  -0.00064   0.05692   0.05626  -0.97136
   D29        1.07076   0.00104  -0.00033   0.05818   0.05783   1.12859
   D30       -3.09122   0.00070  -0.00065   0.05230   0.05163  -3.03959
   D31        1.08119   0.00006  -0.00019   0.00824   0.00814   1.08933
   D32       -3.09797   0.00005  -0.00027   0.00784   0.00766  -3.09031
   D33       -1.02555   0.00030  -0.00029   0.01156   0.01137  -1.01418
   D34       -1.07903  -0.00023   0.00017  -0.01187  -0.01178  -1.09081
   D35        1.02500  -0.00024   0.00010  -0.01226  -0.01226   1.01273
   D36        3.09742   0.00001   0.00008  -0.00854  -0.00855   3.08886
         Item               Value     Threshold  Converged?
 Maximum Force            0.003537     0.000450     NO 
 RMS     Force            0.000910     0.000300     NO 
 Maximum Displacement     0.161383     0.001800     NO 
 RMS     Displacement     0.054695     0.001200     NO 
 Predicted change in Energy=-4.519849D-04
 Lowest energy point so far.  Saving SCF results.
 GradGradGradGradGradGradGradGradGradGradGradGradGradGradGradGradGradGrad

 Leave Link  103 at Fri Sep 18 08:01:45 2026, MaxMem=  4294967296 cpu:               0.1 elap:               0.0
 (Enter /opt/apps/Gaussian/G16C/g16/l202.exe)
                          Input orientation:                          
 ---------------------------------------------------------------------
 Center     Atomic      Atomic             Coordinates (Angstroms)
 Number     Number       Type             X           Y           Z
 ---------------------------------------------------------------------
      1          6           0       -6.947185   -0.525669   -2.260112
      2          1           0       -5.958225   -0.189622   -2.578495
      3          1           0       -7.566438   -0.527892   -3.159496
      4          6           0       -6.881154   -1.960776   -1.753745
      5          1           0       -7.902305   -2.315769   -1.590798
      6          1           0       -6.437834   -2.604435   -2.535149
      7          7           0       -6.171127   -2.112484   -0.489917
      8          6           0       -4.770406   -1.752781   -0.597575
      9          1           0       -4.284173   -1.892945    0.367870
     10          1           0       -4.235633   -2.363265   -1.345642
     11          1           0       -4.664105   -0.704636   -0.872537
     12          6           0       -6.311984   -3.467185    0.008431
     13          1           0       -5.868193   -4.212543   -0.673505
     14          1           0       -5.822702   -3.559114    0.978416
     15          1           0       -7.367470   -3.708434    0.136133
     16          6           0       -7.518979    0.445242   -1.233204
     17          1           0       -7.576417    1.456225   -1.637255
     18          1           0       -8.524419    0.143865   -0.933453
     19          1           0       -6.903002    0.466599   -0.334629
 ---------------------------------------------------------------------
                    Distance matrix (angstroms):
                    1          2          3          4          5
     1  C    0.000000
     2  H    1.091943   0.000000
     3  H    1.091957   1.743084   0.000000
     4  C    1.523253   2.160787   2.121062   0.000000
     5  H    2.136515   3.045571   2.402108   1.093308   0.000000
     6  H    2.157858   2.462362   2.444501   1.105180   1.766297
     7  N    2.500768   2.846909   3.403598   1.457537   2.061611
     8  C    3.001367   2.788983   3.985171   2.415626   3.333503
     9  H    3.983387   3.792734   5.007888   3.354126   4.135945
    10  H    3.400813   3.035124   4.213422   2.706904   3.675166
    11  H    2.677658   2.202335   3.699319   2.696242   3.687491
    12  C    3.768593   4.190436   4.499873   2.387151   2.532275
    13  H    4.156271   4.452077   4.758239   2.695081   2.928616
    14  H    4.577589   4.901374   5.417678   3.337620   3.531504
    15  H    4.006074   4.662319   4.584387   2.619628   2.282072
    16  C    1.524519   2.156111   2.158667   2.542972   2.810337
    17  H    2.170665   2.492647   2.500808   3.488962   3.786331
    18  H    2.167018   3.066387   2.514807   2.793333   2.620864
    19  H    2.166572   2.521540   3.067415   2.811853   3.212186
                    6          7          8          9         10
     6  H    0.000000
     7  N    2.120406   0.000000
     8  C    2.694407   1.450171   0.000000
     9  H    3.684019   2.084368   1.090024   0.000000
    10  H    2.514514   2.131031   1.103757   1.777550   0.000000
    11  H    3.085390   2.097511   1.088812   1.759271   1.777208
    12  C    2.688862   1.450312   2.383881   2.592189   2.713556
    13  H    2.525118   2.129723   2.694686   2.995682   2.556726
    14  H    3.692552   2.090488   2.617998   2.348607   3.057791
    15  H    3.036246   2.090509   3.332814   3.585585   3.716657
    16  C    3.487759   2.985154   3.576309   4.300526   4.322120
    17  H    4.311791   4.003362   4.387750   5.106499   5.082753
    18  H    3.804263   3.290261   4.219324   4.880750   4.984906
    19  H    3.806562   2.685410   3.089134   3.594331   4.018101
                   11         12         13         14         15
    11  H    0.000000
    12  C    3.335159   0.000000
    13  H    3.714142   1.103425   0.000000
    14  H    3.593942   1.090283   1.777043   0.000000
    15  H    4.165141   1.090211   1.776928   1.765799   0.000000
    16  C    3.098808   4.278502   4.973260   4.878882   4.376192
    17  H    3.706167   5.342943   5.998481   5.922067   5.464637
    18  H    3.952935   4.338398   5.108953   4.966545   4.162061
    19  H    2.583370   3.992699   4.804168   4.370069   4.227084
                   16         17         18         19
    16  C    0.000000
    17  H    1.090249   0.000000
    18  H    1.091599   1.765315   0.000000
    19  H    1.089642   1.769090   1.758334   0.000000
 Stoichiometry    C5H13N
 Framework group  C1[X(C5H13N)]
 Deg. of freedom    51
 Full point group                 C1      NOp   1
 RotChk:  IX=0 Diff= 4.37D-02
 Largest Abelian subgroup         C1      NOp   1
 Largest concise Abelian subgroup C1      NOp   1
                         Standard orientation:                         
 ---------------------------------------------------------------------
 Center     Atomic      Atomic             Coordinates (Angstroms)
 Number     Number       Type             X           Y           Z
 ---------------------------------------------------------------------
      1          6           0        1.559648   -0.077907    0.620573
      2          1           0        1.550577    0.900138    1.106048
      3          1           0        2.182960   -0.717935    1.248440
      4          6           0        0.159719   -0.678274    0.612966
      5          1           0        0.230261   -1.712036    0.264138
      6          1           0       -0.228829   -0.713654    1.646988
      7          7           0       -0.775216    0.006315   -0.271144
      8          6           0       -1.022631    1.374590    0.140688
      9          1           0       -1.733153    1.837248   -0.544337
     10          1           0       -1.435940    1.438230    1.162160
     11          1           0       -0.103282    1.956975    0.106986
     12          6           0       -2.020369   -0.732233   -0.358011
     13          1           0       -2.532325   -0.806145    0.616660
     14          1           0       -2.694833   -0.242294   -1.060702
     15          1           0       -1.828742   -1.742783   -0.719436
     16          6           0        2.167324    0.040386   -0.772587
     17          1           0        3.177396    0.448283   -0.727685
     18          1           0        2.219027   -0.936686   -1.256575
     19          1           0        1.561248    0.687076   -1.406452
 ---------------------------------------------------------------------
 Rotational constants (GHZ):           5.8271475           2.1456694           1.9647473
 Leave Link  202 at Fri Sep 18 08:01:45 2026, MaxMem=  4294967296 cpu:               0.0 elap:               0.0
 (Enter /opt/apps/Gaussian/G16C/g16/l301.exe)
 Standard basis: 6-311+G(2d,2p) (5D, 7F)
 Ernie: Thresh=  0.10000D-02 Tol=  0.10000D-05 Strict=F.
 There are   291 symmetry adapted cartesian basis functions of A   symmetry.
 There are   279 symmetry adapted basis functions of A   symmetry.
   279 basis functions,   395 primitive gaussians,   291 cartesian basis functions
    25 alpha electrons       25 beta electrons
       nuclear repulsion energy       264.9820463962 Hartrees.
 IExCor= 4639 DFT=T Ex+Corr=wB97XD ExCW=0 ScaHFX=  1.000000
 ScaDFX=  1.000000  1.000000  1.000000  1.000000 ScalE2=  1.000000  1.000000
 IRadAn=      5 IRanWt=     -1 IRanGd=            0 ICorTp=0 IEmpDi=121
 HFx  wShort=  0.000000 wLong=  0.200000 cFull=  0.222036 cShort=  0.000000 cLong=  0.777964
 DFx  wShort=  0.000000 wLong=  0.200000 cFull=  0.000000 cShort=  0.000000 cLong=  1.000000
 NAtoms=   19 NActive=   19 NUniq=   19 SFac= 1.00D+00 NAtFMM=   60 NAOKFM=F Big=F
 Integral buffers will be    131072 words long.
 Raffenetti 2 integral format.
 Two-electron integral symmetry is turned on.
 R6Disp:  Grimme-D2 Dispersion energy=       -0.0113557587 Hartrees.
 Nuclear repulsion after empirical dispersion term =      264.9706906374 Hartrees.
 Leave Link  301 at Fri Sep 18 08:01:46 2026, MaxMem=  4294967296 cpu:               0.0 elap:               0.0
 (Enter /opt/apps/Gaussian/G16C/g16/l302.exe)
 NPDir=0 NMtPBC=     1 NCelOv=     1 NCel=       1 NClECP=     1 NCelD=      1
         NCelK=      1 NCelE2=     1 NClLst=     1 CellRange=     0.0.
 One-electron integrals computed using PRISM.
 One-electron integral symmetry used in STVInt
 NBasis=   279 RedAO= T EigKep=  3.47D-05  NBF=   279
 NBsUse=   279 1.00D-06 EigRej= -1.00D+00 NBFU=   279
 Precomputing XC quadrature grid using
 IXCGrd= 4 IRadAn=           5 IRanWt=          -1 IRanGd=           0 AccXCQ= 0.00D+00.
 Generated NRdTot=       0 NPtTot=           0 NUsed=           0 NTot=          32
 NSgBfM=   291   291   291   291   291 MxSgAt=    19 MxSgA2=    19.
 Leave Link  302 at Fri Sep 18 08:01:46 2026, MaxMem=  4294967296 cpu:               1.6 elap:               0.2
 (Enter /opt/apps/Gaussian/G16C/g16/l303.exe)
 DipDrv:  MaxL=1.
 Leave Link  303 at Fri Sep 18 08:01:46 2026, MaxMem=  4294967296 cpu:               0.1 elap:               0.0
 (Enter /opt/apps/Gaussian/G16C/g16/l401.exe)
 Initial guess from the checkpoint file:  "aminopropyl.chk"
 B after Tr=    -0.000000    0.000000    0.000000
         Rot=    0.999888   -0.014203   -0.004230    0.002236 Ang=  -1.72 deg.
 Guess basis will be translated and rotated to current coordinates.
 JPrj=2 DoOrth=T DoCkMO=T.
 Generating alternative initial guess.
 ExpMin= 4.38D-02 ExpMax= 6.29D+03 ExpMxC= 9.49D+02 IAcc=3 IRadAn=         5 AccDes= 0.00D+00
 Harris functional with IExCor= 4639 and IRadAn=       5 diagonalized for initial guess.
 HarFok:  IExCor= 4639 AccDes= 0.00D+00 IRadAn=         5 IDoV= 1 UseB2=F ITyADJ=14
 ICtDFT=  3500011 ScaDFX=  1.000000  1.000000  1.000000  1.000000
 FoFCou: FMM=F IPFlag=           0 FMFlag=      100000 FMFlg1=           0
         NFxFlg=           0 DoJE=T BraDBF=F KetDBF=T FulRan=T
         wScrn=  0.000000 ICntrl=       500 IOpCl=  0 I1Cent=   200000004 NGrid=           0
         NMat0=    1 NMatS0=      1 NMatT0=    0 NMatD0=    1 NMtDS0=    0 NMtDT0=    0
 Petite list used in FoFCou.
 Harris En= -240.796215400033    
 Leave Link  401 at Fri Sep 18 08:01:46 2026, MaxMem=  4294967296 cpu:              10.3 elap:               0.8
 (Enter /opt/apps/Gaussian/G16C/g16/l502.exe)
 Integral symmetry usage will be decided dynamically.
 Closed shell SCF:
 Using DIIS extrapolation, IDIIS=  1040.
 NGot=  4294967296 LenX=  4294789954 LenY=  4294704832
 Requested convergence on RMS density matrix=1.00D-08 within  32 cycles.
 Requested convergence on MAX density matrix=1.00D-06.
 Requested convergence on             energy=1.00D-06.
 No special actions if energy rises.
 Fock matrices will be formed incrementally for  20 cycles.

 Cycle   1  Pass 1  IDiag  1:
 FoFJK:  IHMeth= 1 ICntrl=       0 DoSepK=T KAlg= 0 I1Cent=           0 FoldK=F
 IRaf=         1 NMat=       1 IRICut=       1 DoRegI=T DoRafI=F ISym2E= 0 IDoP0=0 IntGTp=1.
 FoFCou: FMM=F IPFlag=           0 FMFlag=      100000 FMFlg1=           0
         NFxFlg=           0 DoJE=T BraDBF=F KetDBF=F FulRan=T
         wScrn=  0.000000 ICntrl=       500 IOpCl=  0 I1Cent=           0 NGrid=           0
         NMat0=    1 NMatS0=      1 NMatT0=    0 NMatD0=    1 NMtDS0=    0 NMtDT0=    0
 Symmetry not used in FoFCou.
 E= -253.101104079323    
 DIIS: error= 2.14D-03 at cycle   1 NSaved=   1.
 NSaved= 1 IEnMin= 1 EnMin= -253.101104079323     IErMin= 1 ErrMin= 2.14D-03
 ErrMax= 2.14D-03  0.00D+00 EMaxC= 1.00D-01 BMatC= 2.04D-03 BMatP= 2.04D-03
 IDIUse=3 WtCom= 9.79D-01 WtEn= 2.14D-02
 Coeff-Com:  0.100D+01
 Coeff-En:   0.100D+01
 Coeff:      0.100D+01
 Gap=     0.631 Goal=   None    Shift=    0.000
 GapD=    0.631 DampG=2.000 DampE=1.000 DampFc=2.0000 IDamp=-1.
 RMSDP=2.50D-04 MaxDP=6.73D-03              OVMax= 1.04D-02

 Cycle   2  Pass 1  IDiag  1:
 RMSU=  2.50D-04    CP:  9.99D-01
 E= -253.104103347942     Delta-E=       -0.002999268619 Rises=F Damp=F
 DIIS: error= 3.79D-04 at cycle   2 NSaved=   2.
 NSaved= 2 IEnMin= 2 EnMin= -253.104103347942     IErMin= 2 ErrMin= 3.79D-04
 ErrMax= 3.79D-04  0.00D+00 EMaxC= 1.00D-01 BMatC= 6.85D-05 BMatP= 2.04D-03
 IDIUse=3 WtCom= 9.96D-01 WtEn= 3.79D-03
 Coeff-Com: -0.173D+00 0.117D+01
 Coeff-En:   0.000D+00 0.100D+01
 Coeff:     -0.172D+00 0.117D+01
 Gap=     0.360 Goal=   None    Shift=    0.000
 RMSDP=5.55D-05 MaxDP=1.60D-03 DE=-3.00D-03 OVMax= 3.81D-03

 Cycle   3  Pass 1  IDiag  1:
 RMSU=  3.67D-05    CP:  9.99D-01  1.17D+00
 E= -253.104275634754     Delta-E=       -0.000172286813 Rises=F Damp=F
 DIIS: error= 7.18D-05 at cycle   3 NSaved=   3.
 NSaved= 3 IEnMin= 3 EnMin= -253.104275634754     IErMin= 3 ErrMin= 7.18D-05
 ErrMax= 7.18D-05  0.00D+00 EMaxC= 1.00D-01 BMatC= 2.41D-06 BMatP= 6.85D-05
 IDIUse=1 WtCom= 1.00D+00 WtEn= 0.00D+00
 Coeff-Com: -0.103D-01-0.158D-01 0.103D+01
 Coeff:     -0.103D-01-0.158D-01 0.103D+01
 Gap=     0.360 Goal=   None    Shift=    0.000
 RMSDP=1.44D-05 MaxDP=5.00D-04 DE=-1.72D-04 OVMax= 7.27D-04

 Cycle   4  Pass 1  IDiag  1:
 RMSU=  1.04D-05    CP:  9.99D-01  1.17D+00  1.27D+00
 E= -253.104280149837     Delta-E=       -0.000004515082 Rises=F Damp=F
 DIIS: error= 4.19D-05 at cycle   4 NSaved=   4.
 NSaved= 4 IEnMin= 4 EnMin= -253.104280149837     IErMin= 4 ErrMin= 4.19D-05
 ErrMax= 4.19D-05  0.00D+00 EMaxC= 1.00D-01 BMatC= 9.10D-07 BMatP= 2.41D-06
 IDIUse=1 WtCom= 1.00D+00 WtEn= 0.00D+00
 Coeff-Com:  0.106D-01-0.107D+00 0.418D+00 0.679D+00
 Coeff:      0.106D-01-0.107D+00 0.418D+00 0.679D+00
 Gap=     0.360 Goal=   None    Shift=    0.000
 RMSDP=5.49D-06 MaxDP=2.51D-04 DE=-4.52D-06 OVMax= 2.87D-04

 Cycle   5  Pass 1  IDiag  1:
 RMSU=  3.74D-06    CP:  9.99D-01  1.17D+00  1.36D+00  1.21D+00
 E= -253.104281160498     Delta-E=       -0.000001010662 Rises=F Damp=F
 DIIS: error= 6.26D-06 at cycle   5 NSaved=   5.
 NSaved= 5 IEnMin= 5 EnMin= -253.104281160498     IErMin= 5 ErrMin= 6.26D-06
 ErrMax= 6.26D-06  0.00D+00 EMaxC= 1.00D-01 BMatC= 1.69D-08 BMatP= 9.10D-07
 IDIUse=1 WtCom= 1.00D+00 WtEn= 0.00D+00
 Coeff-Com:  0.157D-02-0.113D-01-0.726D-03 0.776D-01 0.933D+00
 Coeff:      0.157D-02-0.113D-01-0.726D-03 0.776D-01 0.933D+00
 Gap=     0.360 Goal=   None    Shift=    0.000
 RMSDP=2.72D-06 MaxDP=1.48D-04 DE=-1.01D-06 OVMax= 9.59D-05

 Cycle   6  Pass 1  IDiag  1:
 RMSU=  8.12D-07    CP:  9.99D-01  1.16D+00  1.39D+00  1.41D+00  1.33D+00
 E= -253.104281189109     Delta-E=       -0.000000028611 Rises=F Damp=F
 DIIS: error= 4.38D-06 at cycle   6 NSaved=   6.
 NSaved= 6 IEnMin= 6 EnMin= -253.104281189109     IErMin= 6 ErrMin= 4.38D-06
 ErrMax= 4.38D-06  0.00D+00 EMaxC= 1.00D-01 BMatC= 7.14D-09 BMatP= 1.69D-08
 IDIUse=1 WtCom= 1.00D+00 WtEn= 0.00D+00
 Coeff-Com: -0.423D-03 0.648D-02-0.469D-01-0.380D-01 0.438D+00 0.641D+00
 Coeff:     -0.423D-03 0.648D-02-0.469D-01-0.380D-01 0.438D+00 0.641D+00
 Gap=     0.360 Goal=   None    Shift=    0.000
 RMSDP=9.94D-07 MaxDP=5.53D-05 DE=-2.86D-08 OVMax= 3.43D-05

 Cycle   7  Pass 1  IDiag  1:
 RMSU=  2.69D-07    CP:  9.99D-01  1.16D+00  1.39D+00  1.48D+00  1.48D+00
                    CP:  1.19D+00
 E= -253.104281196036     Delta-E=       -0.000000006927 Rises=F Damp=F
 DIIS: error= 8.47D-07 at cycle   7 NSaved=   7.
 NSaved= 7 IEnMin= 7 EnMin= -253.104281196036     IErMin= 7 ErrMin= 8.47D-07
 ErrMax= 8.47D-07  0.00D+00 EMaxC= 1.00D-01 BMatC= 2.43D-10 BMatP= 7.14D-09
 IDIUse=1 WtCom= 1.00D+00 WtEn= 0.00D+00
 Coeff-Com: -0.305D-03 0.320D-02-0.137D-01-0.195D-01 0.286D-01 0.157D+00
 Coeff-Com:  0.844D+00
 Coeff:     -0.305D-03 0.320D-02-0.137D-01-0.195D-01 0.286D-01 0.157D+00
 Coeff:      0.844D+00
 Gap=     0.360 Goal=   None    Shift=    0.000
 RMSDP=4.35D-07 MaxDP=2.49D-05 DE=-6.93D-09 OVMax= 1.38D-05

 Cycle   8  Pass 1  IDiag  1:
 RMSU=  6.84D-08    CP:  9.99D-01  1.16D+00  1.39D+00  1.51D+00  1.54D+00
                    CP:  1.37D+00  1.25D+00
 E= -253.104281196453     Delta-E=       -0.000000000417 Rises=F Damp=F
 DIIS: error= 2.67D-07 at cycle   8 NSaved=   8.
 NSaved= 8 IEnMin= 8 EnMin= -253.104281196453     IErMin= 8 ErrMin= 2.67D-07
 ErrMax= 2.67D-07  0.00D+00 EMaxC= 1.00D-01 BMatC= 2.33D-11 BMatP= 2.43D-10
 IDIUse=1 WtCom= 1.00D+00 WtEn= 0.00D+00
 Coeff-Com: -0.388D-04 0.263D-03 0.306D-03-0.159D-02-0.260D-01-0.153D-01
 Coeff-Com:  0.199D+00 0.843D+00
 Coeff:     -0.388D-04 0.263D-03 0.306D-03-0.159D-02-0.260D-01-0.153D-01
 Coeff:      0.199D+00 0.843D+00
 Gap=     0.360 Goal=   None    Shift=    0.000
 RMSDP=1.34D-07 MaxDP=7.83D-06 DE=-4.17D-10 OVMax= 4.33D-06

 Cycle   9  Pass 1  IDiag  1:
 RMSU=  2.38D-08    CP:  9.99D-01  1.16D+00  1.39D+00  1.51D+00  1.56D+00
                    CP:  1.43D+00  1.39D+00  1.23D+00
 E= -253.104281196480     Delta-E=       -0.000000000027 Rises=F Damp=F
 DIIS: error= 1.12D-07 at cycle   9 NSaved=   9.
 NSaved= 9 IEnMin= 9 EnMin= -253.104281196480     IErMin= 9 ErrMin= 1.12D-07
 ErrMax= 1.12D-07  0.00D+00 EMaxC= 1.00D-01 BMatC= 3.42D-12 BMatP= 2.33D-11
 IDIUse=1 WtCom= 1.00D+00 WtEn= 0.00D+00
 Coeff-Com:  0.247D-04-0.310D-03 0.181D-02 0.195D-02-0.117D-01-0.246D-01
 Coeff-Com: -0.451D-01 0.277D+00 0.801D+00
 Coeff:      0.247D-04-0.310D-03 0.181D-02 0.195D-02-0.117D-01-0.246D-01
 Coeff:     -0.451D-01 0.277D+00 0.801D+00
 Gap=     0.360 Goal=   None    Shift=    0.000
 RMSDP=3.93D-08 MaxDP=2.33D-06 DE=-2.72D-11 OVMax= 1.73D-06

 Cycle  10  Pass 1  IDiag  1:
 RMSU=  8.63D-09    CP:  9.99D-01  1.16D+00  1.39D+00  1.52D+00  1.57D+00
                    CP:  1.45D+00  1.43D+00  1.39D+00  1.25D+00
 E= -253.104281196490     Delta-E=       -0.000000000009 Rises=F Damp=F
 DIIS: error= 2.11D-08 at cycle  10 NSaved=  10.
 NSaved=10 IEnMin=10 EnMin= -253.104281196490     IErMin=10 ErrMin= 2.11D-08
 ErrMax= 2.11D-08  0.00D+00 EMaxC= 1.00D-01 BMatC= 1.16D-13 BMatP= 3.42D-12
 IDIUse=1 WtCom= 1.00D+00 WtEn= 0.00D+00
 Coeff-Com:  0.493D-05-0.461D-04 0.127D-03 0.267D-03 0.958D-03-0.120D-02
 Coeff-Com: -0.174D-01-0.369D-01 0.691D-01 0.985D+00
 Coeff:      0.493D-05-0.461D-04 0.127D-03 0.267D-03 0.958D-03-0.120D-02
 Coeff:     -0.174D-01-0.369D-01 0.691D-01 0.985D+00
 Gap=     0.360 Goal=   None    Shift=    0.000
 RMSDP=7.95D-09 MaxDP=3.61D-07 DE=-9.44D-12 OVMax= 5.10D-07

 SCF Done:  E(RwB97XD) =  -253.104281196     A.U. after   10 cycles
            NFock= 10  Conv=0.80D-08     -V/T= 2.0047
 KE= 2.519206078503D+02 PE=-1.116705704129D+03 EE= 3.467101244448D+02
 Leave Link  502 at Fri Sep 18 08:02:04 2026, MaxMem=  4294967296 cpu:             258.8 elap:              17.2
 (Enter /opt/apps/Gaussian/G16C/g16/l508.exe)
 QCSCF skips out because SCF is already converged.
 Leave Link  508 at Fri Sep 18 08:02:04 2026, MaxMem=  4294967296 cpu:               0.0 elap:               0.0
 (Enter /opt/apps/Gaussian/G16C/g16/l701.exe)
 ... and contract with generalized density number  0.
 Compute integral first derivatives.
 R6Disp: Adding Grimme-D2 dispersion energy 1st derivatives to the gradient.
 Leave Link  701 at Fri Sep 18 08:02:04 2026, MaxMem=  4294967296 cpu:               0.8 elap:               0.1
 (Enter /opt/apps/Gaussian/G16C/g16/l702.exe)
 L702 exits ... SP integral derivatives will be done elsewhere.
 Leave Link  702 at Fri Sep 18 08:02:04 2026, MaxMem=  4294967296 cpu:               0.0 elap:               0.0
 (Enter /opt/apps/Gaussian/G16C/g16/l703.exe)
 Integral derivatives from FoFJK, PRISM(SPDF).
 Compute integral first derivatives, UseDBF=F ICtDFT=           0.
 Calling FoFJK, ICntrl=      2127 FMM=F ISym2X=0 I1Cent= 0 IOpClX= 0 NMat=1 NMatS=1 NMatT=0.
 FoFJK:  IHMeth= 1 ICntrl=    2127 DoSepK=T KAlg= 0 I1Cent=           0 FoldK=F
 IRaf=         1 NMat=       1 IRICut=       1 DoRegI=T DoRafI=F ISym2E= 0 IDoP0=0 IntGTp=1.
 FoFCou: FMM=F IPFlag=           0 FMFlag=      100000 FMFlg1=         800
         NFxFlg=           0 DoJE=F BraDBF=F KetDBF=F FulRan=T
         wScrn=  0.000000 ICntrl=      2527 IOpCl=  0 I1Cent=           0 NGrid=           0
         NMat0=    1 NMatS0=      1 NMatT0=    0 NMatD0=    1 NMtDS0=    0 NMtDT0=    0
 Symmetry not used in FoFCou.
 Leave Link  703 at Fri Sep 18 08:02:10 2026, MaxMem=  4294967296 cpu:              91.4 elap:               5.8
 (Enter /opt/apps/Gaussian/G16C/g16/l716.exe)
 Dipole        =-9.71603723D-02-6.86914654D-03 2.17633495D-01
 ***** Axes restored to original set *****
 -------------------------------------------------------------------
 Center     Atomic                   Forces (Hartrees/Bohr)
 Number     Number              X              Y              Z
 -------------------------------------------------------------------
      1        6          -0.000208314    0.000954789    0.000241781
      2        1           0.000152099   -0.000108815   -0.000242144
      3        1           0.000098469    0.000455581   -0.000286717
      4        6           0.000099889   -0.000248267    0.001914400
      5        1           0.000222928   -0.000318083   -0.000239441
      6        1           0.000064152   -0.000061116    0.000118226
      7        7           0.000191000   -0.001467487   -0.001111041
      8        6          -0.000947962   -0.000300781    0.000188722
      9        1           0.000045699   -0.000082778   -0.000177921
     10        1           0.000222997    0.000123253   -0.000027449
     11        1           0.000190630    0.000109881   -0.000008375
     12        6           0.000226881    0.001156542   -0.000150733
     13        1          -0.000037382   -0.000498786    0.000259116
     14        1           0.000006055   -0.000030281   -0.000084499
     15        1           0.000062148    0.000039994   -0.000023206
     16        6          -0.000030741    0.000172488   -0.000459881
     17        1          -0.000070729   -0.000010414   -0.000088459
     18        1           0.000088515    0.000021428    0.000241341
     19        1          -0.000376333    0.000092852   -0.000063718
 -------------------------------------------------------------------
 Cartesian Forces:  Max     0.001914400 RMS     0.000462567
 Leave Link  716 at Fri Sep 18 08:02:10 2026, MaxMem=  4294967296 cpu:               0.0 elap:               0.0
 (Enter /opt/apps/Gaussian/G16C/g16/l103.exe)

 GradGradGradGradGradGradGradGradGradGradGradGradGradGradGradGradGradGrad
 Berny optimization.
 Using GEDIIS/GDIIS optimizer.
 FormGI is forming the generalized inverse of G from B-inverse, IUseBI=4.
 Internal  Forces:  Max     0.001717222 RMS     0.000355252
 Search for a local minimum.
 Step number   4 out of a maximum of   97
 All quantities printed in internal units (Hartrees-Bohrs-Radians)
 RMS Force = .35525D-03 SwitMx=.10000D-02 MixMth= 2
 Mixed Optimization -- En-DIIS/RFO-DIIS
 Swapping is turned off.
 Update second derivatives using D2CorX and points    1    2    3    4
 DE= -4.12D-04 DEPred=-4.52D-04 R= 9.12D-01
 TightC=F SS=  1.41D+00  RLast= 3.10D-01 DXNew= 9.6716D-01 9.3059D-01
 Trust test= 9.12D-01 RLast= 3.10D-01 DXMaxT set to 9.31D-01
 ITU=  1  1  1  0
     Eigenvalues ---    0.00236   0.00325   0.00735   0.00766   0.00767
     Eigenvalues ---    0.02406   0.03385   0.04137   0.04579   0.05347
     Eigenvalues ---    0.05412   0.05493   0.07125   0.07147   0.07440
     Eigenvalues ---    0.07488   0.08417   0.09638   0.12321   0.13045
     Eigenvalues ---    0.14570   0.16000   0.16000   0.16000   0.16000
     Eigenvalues ---    0.16000   0.16020   0.16055   0.16293   0.17245
     Eigenvalues ---    0.18251   0.21685   0.25655   0.27384   0.31214
     Eigenvalues ---    0.31970   0.35742   0.36596   0.37159   0.37218
     Eigenvalues ---    0.37230   0.37230   0.37230   0.37230   0.37230
     Eigenvalues ---    0.37230   0.37230   0.37230   0.37230   0.37583
     Eigenvalues ---    0.39420
 En-DIIS/RFO-DIIS/Sim-DIIS IScMMF=       -3 using points:     4    3
 RFO step:  Lambda=-1.43036199D-04.
 NNeg= 0 NGDIIS= 2 SimSw=  2.50D-01 Rises=F DC= -4.12D-04 SmlDif=  1.00D-05
 NRisDI= 0 DoIntr=F SqrtH=F CThrHd= 10.0 CDAdj=  3.0
 RMS Error=  0.1514622582D-01 NUsed= 2 OKEnD=T EnDIS=F
 InvSVX:  RCond= 1.01D-01 Info=           0 Equed=N FErr=  1.40D-15 BErr=  4.89D-17
 DidBck=F Rises=F RFO-DIIS coefs:    0.84380    0.15620
 Iteration  1 RMS(Cart)=  0.03231648 RMS(Int)=  0.00032705
 Iteration  2 RMS(Cart)=  0.00050516 RMS(Int)=  0.00000746
 Iteration  3 RMS(Cart)=  0.00000012 RMS(Int)=  0.00000746
 ITry= 1 IFail=0 DXMaxC= 1.11D-01 DCOld= 1.00D+10 DXMaxT= 9.31D-01 DXLimC= 3.00D+00 Rises=F
 Variable       Old X    -DE/DX   Delta X   Delta X   Delta X     New X
                                 (Linear)    (Quad)   (Total)
    R1        2.06347   0.00017   0.00007   0.00120   0.00128   2.06475
    R2        2.06350   0.00018   0.00039   0.00031   0.00070   2.06420
    R3        2.87853   0.00172   0.00105   0.00241   0.00346   2.88199
    R4        2.88092   0.00007   0.00154  -0.00399  -0.00245   2.87847
    R5        2.06605  -0.00014   0.00036  -0.00040  -0.00004   2.06601
    R6        2.08849  -0.00002   0.00047   0.00001   0.00048   2.08897
    R7        2.75435  -0.00090   0.00120  -0.00631  -0.00511   2.74924
    R8        2.74043  -0.00051   0.00140  -0.00557  -0.00416   2.73626
    R9        2.74069  -0.00065   0.00165  -0.00623  -0.00458   2.73612
   R10        2.05985  -0.00013   0.00044  -0.00071  -0.00026   2.05958
   R11        2.08580   0.00006   0.00059  -0.00008   0.00050   2.08630
   R12        2.05756   0.00013   0.00021   0.00066   0.00088   2.05843
   R13        2.08517   0.00016   0.00059   0.00018   0.00077   2.08594
   R14        2.06034  -0.00007   0.00048  -0.00064  -0.00015   2.06019
   R15        2.06020  -0.00007   0.00055  -0.00079  -0.00024   2.05996
   R16        2.06027   0.00003   0.00069  -0.00087  -0.00018   2.06009
   R17        2.06282  -0.00002   0.00047  -0.00042   0.00005   2.06288
   R18        2.05913  -0.00026   0.00037  -0.00088  -0.00051   2.05862
    A1        1.84844  -0.00001   0.00212  -0.00913  -0.00701   1.84143
    A2        1.92582  -0.00045  -0.00024  -0.00037  -0.00064   1.92518
    A3        1.91782   0.00005  -0.00036   0.00339   0.00302   1.92084
    A4        1.87178   0.00005  -0.00071   0.00183   0.00113   1.87291
    A5        1.92133  -0.00062  -0.00043  -0.00347  -0.00390   1.91743
    A6        1.97398   0.00091  -0.00023   0.00659   0.00635   1.98033
    A7        1.89122  -0.00014  -0.00081   0.00535   0.00451   1.89573
    A8        1.90821  -0.00020  -0.00044  -0.00190  -0.00234   1.90587
    A9        1.99043   0.00105   0.00256  -0.00101   0.00152   1.99195
   A10        1.86599  -0.00001   0.00195  -0.00739  -0.00542   1.86057
   A11        1.86707  -0.00008  -0.00136   0.00679   0.00541   1.87248
   A12        1.93590  -0.00067  -0.00189  -0.00192  -0.00381   1.93209
   A13        1.96096  -0.00024   0.00002  -0.00046  -0.00046   1.96050
   A14        1.92608   0.00053  -0.00248   0.01104   0.00856   1.93464
   A15        1.92944  -0.00012  -0.00206   0.00686   0.00480   1.93424
   A16        1.91051   0.00002  -0.00167   0.00415   0.00248   1.91299
   A17        1.96179   0.00028   0.00045   0.00147   0.00191   1.96370
   A18        1.93032   0.00019   0.00021   0.00070   0.00092   1.93124
   A19        1.88919  -0.00020   0.00048  -0.00283  -0.00235   1.88684
   A20        1.87959  -0.00009   0.00014  -0.00105  -0.00091   1.87868
   A21        1.89018  -0.00023   0.00039  -0.00269  -0.00229   1.88789
   A22        1.96010   0.00083   0.00056   0.00491   0.00547   1.96557
   A23        1.91864  -0.00012  -0.00086   0.00114   0.00028   1.91893
   A24        1.91875  -0.00018  -0.00029  -0.00015  -0.00045   1.91830
   A25        1.88849  -0.00032   0.00024  -0.00272  -0.00249   1.88601
   A26        1.88841  -0.00024   0.00027  -0.00208  -0.00181   1.88659
   A27        1.88768   0.00001   0.00010  -0.00140  -0.00130   1.88638
   A28        1.93980  -0.00015  -0.00023   0.00026   0.00003   1.93982
   A29        1.93328   0.00016  -0.00057   0.00245   0.00188   1.93517
   A30        1.93471   0.00036  -0.00030   0.00345   0.00315   1.93786
   A31        1.88521  -0.00002   0.00022  -0.00123  -0.00101   1.88420
   A32        1.89360  -0.00005   0.00031  -0.00085  -0.00054   1.89306
   A33        1.87512  -0.00031   0.00063  -0.00441  -0.00378   1.87134
    D1       -2.99076   0.00029  -0.01495  -0.01130  -0.02624  -3.01700
    D2       -0.96295   0.00010  -0.01332  -0.01816  -0.03147  -0.99442
    D3        1.21539  -0.00017  -0.01427  -0.02294  -0.03721   1.17817
    D4       -0.98524   0.00007  -0.01296  -0.02129  -0.03425  -1.01948
    D5        1.04258  -0.00012  -0.01133  -0.02814  -0.03948   1.00310
    D6       -3.06227  -0.00038  -0.01229  -0.03293  -0.04522  -3.10749
    D7        1.13630  -0.00010  -0.01413  -0.02025  -0.03437   1.10193
    D8       -3.11907  -0.00029  -0.01250  -0.02711  -0.03960   3.12451
    D9       -0.94074  -0.00055  -0.01345  -0.03189  -0.04534  -0.98608
   D10        1.00744  -0.00008   0.00059   0.01078   0.01137   1.01881
   D11        3.10331  -0.00010   0.00034   0.01103   0.01136   3.11468
   D12       -1.09999  -0.00015   0.00056   0.00935   0.00990  -1.09009
   D13       -1.02182   0.00026  -0.00152   0.02191   0.02038  -1.00144
   D14        1.07405   0.00024  -0.00177   0.02216   0.02038   1.09443
   D15       -3.12926   0.00019  -0.00155   0.02047   0.01892  -3.11034
   D16       -3.11522   0.00003  -0.00016   0.01761   0.01746  -3.09776
   D17       -1.01935   0.00001  -0.00041   0.01786   0.01746  -1.00189
   D18        1.06053  -0.00005  -0.00019   0.01617   0.01599   1.07652
   D19       -1.11542   0.00005   0.00569  -0.01578  -0.01008  -1.12550
   D20        3.00572  -0.00002   0.01013  -0.03259  -0.02246   2.98326
   D21        3.07708  -0.00036   0.00610  -0.02653  -0.02044   3.05663
   D22        0.91503  -0.00042   0.01054  -0.04334  -0.03282   0.88221
   D23        1.04809   0.00005   0.00554  -0.02061  -0.01506   1.03302
   D24       -1.11396  -0.00001   0.00998  -0.03742  -0.02744  -1.14140
   D25       -3.13153  -0.00012  -0.00411   0.01117   0.00707  -3.12447
   D26       -1.03159  -0.00017  -0.00435   0.01140   0.00705  -1.02454
   D27        1.08342  -0.00014  -0.00338   0.00946   0.00608   1.08950
   D28       -0.97136   0.00030  -0.00879   0.03033   0.02153  -0.94982
   D29        1.12859   0.00025  -0.00903   0.03055   0.02152   1.15011
   D30       -3.03959   0.00028  -0.00806   0.02862   0.02055  -3.01904
   D31        1.08933   0.00001  -0.00127   0.00566   0.00440   1.09373
   D32       -3.09031   0.00007  -0.00120   0.00626   0.00507  -3.08524
   D33       -1.01418  -0.00010  -0.00178   0.00515   0.00338  -1.01081
   D34       -1.09081   0.00003   0.00184  -0.00655  -0.00471  -1.09552
   D35        1.01273   0.00009   0.00192  -0.00595  -0.00403   1.00870
   D36        3.08886  -0.00009   0.00134  -0.00706  -0.00573   3.08313
         Item               Value     Threshold  Converged?
 Maximum Force            0.001717     0.000450     NO 
 RMS     Force            0.000355     0.000300     NO 
 Maximum Displacement     0.110662     0.001800     NO 
 RMS     Displacement     0.032268     0.001200     NO 
 Predicted change in Energy=-7.303979D-05
 Lowest energy point so far.  Saving SCF results.
 GradGradGradGradGradGradGradGradGradGradGradGradGradGradGradGradGradGrad

 Leave Link  103 at Fri Sep 18 08:02:10 2026, MaxMem=  4294967296 cpu:               0.1 elap:               0.0
 (Enter /opt/apps/Gaussian/G16C/g16/l202.exe)
                          Input orientation:                          
 ---------------------------------------------------------------------
 Center     Atomic      Atomic             Coordinates (Angstroms)
 Number     Number       Type             X           Y           Z
 ---------------------------------------------------------------------
      1          6           0       -6.937122   -0.513055   -2.245833
      2          1           0       -5.942162   -0.166838   -2.535670
      3          1           0       -7.525767   -0.513304   -3.165981
      4          6           0       -6.872210   -1.953235   -1.748285
      5          1           0       -7.891927   -2.313299   -1.587641
      6          1           0       -6.432669   -2.590877   -2.537082
      7          7           0       -6.153219   -2.117405   -0.494233
      8          6           0       -4.751138   -1.776645   -0.615306
      9          1           0       -4.253138   -1.931681    0.341674
     10          1           0       -4.231968   -2.386608   -1.375090
     11          1           0       -4.632501   -0.727464   -0.883010
     12          6           0       -6.313750   -3.461498    0.019607
     13          1           0       -5.891741   -4.226934   -0.654533
     14          1           0       -5.817653   -3.551867    0.986180
     15          1           0       -7.372131   -3.681055    0.160696
     16          6           0       -7.552226    0.449588   -1.238277
     17          1           0       -7.620442    1.457382   -1.648314
     18          1           0       -8.558425    0.130734   -0.959803
     19          1           0       -6.961562    0.488443   -0.323761
 ---------------------------------------------------------------------
                    Distance matrix (angstroms):
                    1          2          3          4          5
     1  C    0.000000
     2  H    1.092619   0.000000
     3  H    1.092326   1.739291   0.000000
     4  C    1.525085   2.162447   2.123770   0.000000
     5  H    2.141435   3.050841   2.421819   1.093286   0.000000
     6  H    2.157925   2.473169   2.430367   1.105434   1.762929
     7  N    2.501309   2.831382   3.405182   1.454836   2.063255
     8  C    3.005629   2.774494   3.974990   2.411177   3.331364
     9  H    3.988917   3.774465   5.002553   3.350810   4.136263
    10  H    3.403858   3.033000   4.191142   2.701475   3.666858
    11  H    2.685989   2.181926   3.691722   2.695832   3.692592
    12  C    3.770162   4.185965   4.506529   2.390016   2.528290
    13  H    4.173481   4.474996   4.771630   2.706902   2.921204
    14  H    4.575314   4.886446   5.421343   3.338415   3.530045
    15  H    4.002104   4.654559   4.596197   2.622879   2.279831
    16  C    1.523222   2.157665   2.154972   2.548742   2.805529
    17  H    2.169465   2.498423   2.489153   3.493158   3.780928
    18  H    2.167247   3.068670   2.519601   2.794271   2.609923
    19  H    2.167476   2.522124   3.065948   2.828257   3.211343
                    6          7          8          9         10
     6  H    0.000000
     7  N    2.115538   0.000000
     8  C    2.680252   1.447967   0.000000
     9  H    3.670441   2.084116   1.089885   0.000000
    10  H    2.497006   2.130630   1.104022   1.776143   0.000000
    11  H    3.073901   2.096585   1.089275   1.758950   1.776324
    12  C    2.703476   1.447890   2.384031   2.586540   2.726606
    13  H    2.552112   2.131708   2.703041   2.990925   2.580862
    14  H    3.703394   2.088518   2.617943   2.342669   3.073731
    15  H    3.057627   2.087984   3.331451   3.580667   3.727580
    16  C    3.490663   3.016666   3.631845   4.364707   4.368848
    17  H    4.311510   4.032834   4.445103   5.175378   5.131536
    18  H    3.796553   3.325041   4.272260   4.948019   5.022719
    19  H    3.828933   2.733664   3.178301   3.692609   4.101450
                   11         12         13         14         15
    11  H    0.000000
    12  C    3.334105   0.000000
    13  H    3.726147   1.103833   0.000000
    14  H    3.588274   1.090203   1.775709   0.000000
    15  H    4.161561   1.090083   1.775989   1.764799   0.000000
    16  C    3.168038   4.291001   4.996781   4.895773   4.364833
    17  H    3.779820   5.355818   6.023907   5.939965   5.453230
    18  H    4.019364   4.347636   5.117974   4.986004   4.146390
    19  H    2.686209   4.017411   4.846514   4.398702   4.217579
                   16         17         18         19
    16  C    0.000000
    17  H    1.090153   0.000000
    18  H    1.091627   1.764612   0.000000
    19  H    1.089372   1.768448   1.755698   0.000000
 Stoichiometry    C5H13N
 Framework group  C1[X(C5H13N)]
 Deg. of freedom    51
 Full point group                 C1      NOp   1
 RotChk:  IX=0 Diff= 9.15D-02
 Largest Abelian subgroup         C1      NOp   1
 Largest concise Abelian subgroup C1      NOp   1
                         Standard orientation:                         
 ---------------------------------------------------------------------
 Center     Atomic      Atomic             Coordinates (Angstroms)
 Number     Number       Type             X           Y           Z
 ---------------------------------------------------------------------
      1          6           0        1.558096   -0.011669    0.616985
      2          1           0        1.532785    1.007151    1.010916
      3          1           0        2.179981   -0.578658    1.313375
      4          6           0        0.162951   -0.626766    0.650296
      5          1           0        0.239786   -1.681451    0.372790
      6          1           0       -0.221498   -0.599961    1.686379
      7          7           0       -0.782460   -0.006652   -0.265238
      8          6           0       -1.053434    1.374255    0.075757
      9          1           0       -1.777452    1.788824   -0.625514
     10          1           0       -1.461034    1.485635    1.095718
     11          1           0       -0.145883    1.972528    0.005470
     12          6           0       -2.010549   -0.770560   -0.333267
     13          1           0       -2.537393   -0.814519    0.635727
     14          1           0       -2.685259   -0.325624   -1.064938
     15          1           0       -1.795576   -1.791724   -0.648372
     16          6           0        2.191974   -0.020598   -0.768050
     17          1           0        3.202948    0.386347   -0.740447
     18          1           0        2.248818   -1.036564   -1.163311
     19          1           0        1.602776    0.566607   -1.471448
 ---------------------------------------------------------------------
 Rotational constants (GHZ):           5.8381034           2.1260167           1.9498776
 Leave Link  202 at Fri Sep 18 08:02:10 2026, MaxMem=  4294967296 cpu:               0.0 elap:               0.0
 (Enter /opt/apps/Gaussian/G16C/g16/l301.exe)
 Standard basis: 6-311+G(2d,2p) (5D, 7F)
 Ernie: Thresh=  0.10000D-02 Tol=  0.10000D-05 Strict=F.
 There are   291 symmetry adapted cartesian basis functions of A   symmetry.
 There are   279 symmetry adapted basis functions of A   symmetry.
   279 basis functions,   395 primitive gaussians,   291 cartesian basis functions
    25 alpha electrons       25 beta electrons
       nuclear repulsion energy       264.6804634444 Hartrees.
 IExCor= 4639 DFT=T Ex+Corr=wB97XD ExCW=0 ScaHFX=  1.000000
 ScaDFX=  1.000000  1.000000  1.000000  1.000000 ScalE2=  1.000000  1.000000
 IRadAn=      5 IRanWt=     -1 IRanGd=            0 ICorTp=0 IEmpDi=121
 HFx  wShort=  0.000000 wLong=  0.200000 cFull=  0.222036 cShort=  0.000000 cLong=  0.777964
 DFx  wShort=  0.000000 wLong=  0.200000 cFull=  0.000000 cShort=  0.000000 cLong=  1.000000
 NAtoms=   19 NActive=   19 NUniq=   19 SFac= 1.00D+00 NAtFMM=   60 NAOKFM=F Big=F
 Integral buffers will be    131072 words long.
 Raffenetti 2 integral format.
 Two-electron integral symmetry is turned on.
 R6Disp:  Grimme-D2 Dispersion energy=       -0.0112756040 Hartrees.
 Nuclear repulsion after empirical dispersion term =      264.6691878404 Hartrees.
 Leave Link  301 at Fri Sep 18 08:02:10 2026, MaxMem=  4294967296 cpu:               0.0 elap:               0.0
 (Enter /opt/apps/Gaussian/G16C/g16/l302.exe)
 NPDir=0 NMtPBC=     1 NCelOv=     1 NCel=       1 NClECP=     1 NCelD=      1
         NCelK=      1 NCelE2=     1 NClLst=     1 CellRange=     0.0.
 One-electron integrals computed using PRISM.
 One-electron integral symmetry used in STVInt
 NBasis=   279 RedAO= T EigKep=  3.48D-05  NBF=   279
 NBsUse=   279 1.00D-06 EigRej= -1.00D+00 NBFU=   279
 Precomputing XC quadrature grid using
 IXCGrd= 4 IRadAn=           5 IRanWt=          -1 IRanGd=           0 AccXCQ= 0.00D+00.
 Generated NRdTot=       0 NPtTot=           0 NUsed=           0 NTot=          32
 NSgBfM=   291   291   291   291   291 MxSgAt=    19 MxSgA2=    19.
 Leave Link  302 at Fri Sep 18 08:02:10 2026, MaxMem=  4294967296 cpu:               1.6 elap:               0.2
 (Enter /opt/apps/Gaussian/G16C/g16/l303.exe)
 DipDrv:  MaxL=1.
 Leave Link  303 at Fri Sep 18 08:02:10 2026, MaxMem=  4294967296 cpu:               0.1 elap:               0.0
 (Enter /opt/apps/Gaussian/G16C/g16/l401.exe)
 Initial guess from the checkpoint file:  "aminopropyl.chk"
 B after Tr=     0.000000   -0.000000   -0.000000
         Rot=    0.999504    0.031204    0.002005   -0.003678 Ang=   3.61 deg.
 Guess basis will be translated and rotated to current coordinates.
 JPrj=2 DoOrth=T DoCkMO=T.
 Generating alternative initial guess.
 ExpMin= 4.38D-02 ExpMax= 6.29D+03 ExpMxC= 9.49D+02 IAcc=3 IRadAn=         5 AccDes= 0.00D+00
 Harris functional with IExCor= 4639 and IRadAn=       5 diagonalized for initial guess.
 HarFok:  IExCor= 4639 AccDes= 0.00D+00 IRadAn=         5 IDoV= 1 UseB2=F ITyADJ=14
 ICtDFT=  3500011 ScaDFX=  1.000000  1.000000  1.000000  1.000000
 FoFCou: FMM=F IPFlag=           0 FMFlag=      100000 FMFlg1=           0
         NFxFlg=           0 DoJE=T BraDBF=F KetDBF=T FulRan=T
         wScrn=  0.000000 ICntrl=       500 IOpCl=  0 I1Cent=   200000004 NGrid=           0
         NMat0=    1 NMatS0=      1 NMatT0=    0 NMatD0=    1 NMtDS0=    0 NMtDT0=    0
 Petite list used in FoFCou.
 Harris En= -240.795857774547    
 Leave Link  401 at Fri Sep 18 08:02:11 2026, MaxMem=  4294967296 cpu:              10.4 elap:               0.8
 (Enter /opt/apps/Gaussian/G16C/g16/l502.exe)
 Integral symmetry usage will be decided dynamically.
 Closed shell SCF:
 Using DIIS extrapolation, IDIIS=  1040.
 NGot=  4294967296 LenX=  4294789954 LenY=  4294704832
 Requested convergence on RMS density matrix=1.00D-08 within  32 cycles.
 Requested convergence on MAX density matrix=1.00D-06.
 Requested convergence on             energy=1.00D-06.
 No special actions if energy rises.
 Fock matrices will be formed incrementally for  20 cycles.

 Cycle   1  Pass 1  IDiag  1:
 FoFJK:  IHMeth= 1 ICntrl=       0 DoSepK=T KAlg= 0 I1Cent=           0 FoldK=F
 IRaf=         1 NMat=       1 IRICut=       1 DoRegI=T DoRafI=F ISym2E= 0 IDoP0=0 IntGTp=1.
 FoFCou: FMM=F IPFlag=           0 FMFlag=      100000 FMFlg1=           0
         NFxFlg=           0 DoJE=T BraDBF=F KetDBF=F FulRan=T
         wScrn=  0.000000 ICntrl=       500 IOpCl=  0 I1Cent=           0 NGrid=           0
         NMat0=    1 NMatS0=      1 NMatT0=    0 NMatD0=    1 NMtDS0=    0 NMtDT0=    0
 Symmetry not used in FoFCou.
 E= -253.103314113464    
 DIIS: error= 1.23D-03 at cycle   1 NSaved=   1.
 NSaved= 1 IEnMin= 1 EnMin= -253.103314113464     IErMin= 1 ErrMin= 1.23D-03
 ErrMax= 1.23D-03  0.00D+00 EMaxC= 1.00D-01 BMatC= 6.51D-04 BMatP= 6.51D-04
 IDIUse=3 WtCom= 9.88D-01 WtEn= 1.23D-02
 Coeff-Com:  0.100D+01
 Coeff-En:   0.100D+01
 Coeff:      0.100D+01
 Gap=     0.629 Goal=   None    Shift=    0.000
 GapD=    0.629 DampG=2.000 DampE=1.000 DampFc=2.0000 IDamp=-1.
 RMSDP=1.34D-04 MaxDP=4.61D-03              OVMax= 7.21D-03

 Cycle   2  Pass 1  IDiag  1:
 RMSU=  1.33D-04    CP:  9.99D-01
 E= -253.104270368900     Delta-E=       -0.000956255436 Rises=F Damp=F
 DIIS: error= 2.41D-04 at cycle   2 NSaved=   2.
 NSaved= 2 IEnMin= 2 EnMin= -253.104270368900     IErMin= 2 ErrMin= 2.41D-04
 ErrMax= 2.41D-04  0.00D+00 EMaxC= 1.00D-01 BMatC= 2.20D-05 BMatP= 6.51D-04
 IDIUse=3 WtCom= 9.98D-01 WtEn= 2.41D-03
 Coeff-Com: -0.172D+00 0.117D+01
 Coeff-En:   0.000D+00 0.100D+01
 Coeff:     -0.171D+00 0.117D+01
 Gap=     0.359 Goal=   None    Shift=    0.000
 RMSDP=3.09D-05 MaxDP=8.66D-04 DE=-9.56D-04 OVMax= 2.26D-03

 Cycle   3  Pass 1  IDiag  1:
 RMSU=  2.05D-05    CP:  9.99D-01  1.17D+00
 E= -253.104324680382     Delta-E=       -0.000054311481 Rises=F Damp=F
 DIIS: error= 4.16D-05 at cycle   3 NSaved=   3.
 NSaved= 3 IEnMin= 3 EnMin= -253.104324680382     IErMin= 3 ErrMin= 4.16D-05
 ErrMax= 4.16D-05  0.00D+00 EMaxC= 1.00D-01 BMatC= 9.29D-07 BMatP= 2.20D-05
 IDIUse=1 WtCom= 1.00D+00 WtEn= 0.00D+00
 Coeff-Com: -0.194D-01 0.468D-01 0.973D+00
 Coeff:     -0.194D-01 0.468D-01 0.973D+00
 Gap=     0.359 Goal=   None    Shift=    0.000
 RMSDP=6.89D-06 MaxDP=1.63D-04 DE=-5.43D-05 OVMax= 4.06D-04

 Cycle   4  Pass 1  IDiag  1:
 RMSU=  5.10D-06    CP:  9.99D-01  1.18D+00  1.22D+00
 E= -253.104326118081     Delta-E=       -0.000001437699 Rises=F Damp=F
 DIIS: error= 2.34D-05 at cycle   4 NSaved=   4.
 NSaved= 4 IEnMin= 4 EnMin= -253.104326118081     IErMin= 4 ErrMin= 2.34D-05
 ErrMax= 2.34D-05  0.00D+00 EMaxC= 1.00D-01 BMatC= 3.73D-07 BMatP= 9.29D-07
 IDIUse=1 WtCom= 1.00D+00 WtEn= 0.00D+00
 Coeff-Com:  0.974D-02-0.103D+00 0.405D+00 0.688D+00
 Coeff:      0.974D-02-0.103D+00 0.405D+00 0.688D+00
 Gap=     0.359 Goal=   None    Shift=    0.000
 RMSDP=2.64D-06 MaxDP=7.58D-05 DE=-1.44D-06 OVMax= 1.56D-04

 Cycle   5  Pass 1  IDiag  1:
 RMSU=  1.80D-06    CP:  9.99D-01  1.18D+00  1.32D+00  1.02D+00
 E= -253.104326501055     Delta-E=       -0.000000382974 Rises=F Damp=F
 DIIS: error= 4.99D-06 at cycle   5 NSaved=   5.
 NSaved= 5 IEnMin= 5 EnMin= -253.104326501055     IErMin= 5 ErrMin= 4.99D-06
 ErrMax= 4.99D-06  0.00D+00 EMaxC= 1.00D-01 BMatC= 9.91D-09 BMatP= 3.73D-07
 IDIUse=1 WtCom= 1.00D+00 WtEn= 0.00D+00
 Coeff-Com:  0.307D-02-0.259D-01 0.433D-01 0.161D+00 0.818D+00
 Coeff:      0.307D-02-0.259D-01 0.433D-01 0.161D+00 0.818D+00
 Gap=     0.359 Goal=   None    Shift=    0.000
 RMSDP=8.76D-07 MaxDP=2.43D-05 DE=-3.83D-07 OVMax= 4.32D-05

 Cycle   6  Pass 1  IDiag  1:
 RMSU=  5.14D-07    CP:  9.99D-01  1.18D+00  1.34D+00  1.11D+00  1.20D+00
 E= -253.104326513634     Delta-E=       -0.000000012578 Rises=F Damp=F
 DIIS: error= 2.16D-06 at cycle   6 NSaved=   6.
 NSaved= 6 IEnMin= 6 EnMin= -253.104326513634     IErMin= 6 ErrMin= 2.16D-06
 ErrMax= 2.16D-06  0.00D+00 EMaxC= 1.00D-01 BMatC= 1.77D-09 BMatP= 9.91D-09
 IDIUse=1 WtCom= 1.00D+00 WtEn= 0.00D+00
 Coeff-Com:  0.601D-04 0.180D-02-0.283D-01-0.178D-01 0.291D+00 0.753D+00
 Coeff:      0.601D-04 0.180D-02-0.283D-01-0.178D-01 0.291D+00 0.753D+00
 Gap=     0.359 Goal=   None    Shift=    0.000
 RMSDP=3.97D-07 MaxDP=1.07D-05 DE=-1.26D-08 OVMax= 2.05D-05

 Cycle   7  Pass 1  IDiag  1:
 RMSU=  1.79D-07    CP:  9.99D-01  1.18D+00  1.34D+00  1.16D+00  1.32D+00
                    CP:  1.11D+00
 E= -253.104326515636     Delta-E=       -0.000000002002 Rises=F Damp=F
 DIIS: error= 6.61D-07 at cycle   7 NSaved=   7.
 NSaved= 7 IEnMin= 7 EnMin= -253.104326515636     IErMin= 7 ErrMin= 6.61D-07
 ErrMax= 6.61D-07  0.00D+00 EMaxC= 1.00D-01 BMatC= 2.26D-10 BMatP= 1.77D-09
 IDIUse=1 WtCom= 1.00D+00 WtEn= 0.00D+00
 Coeff-Com: -0.348D-03 0.389D-02-0.169D-01-0.262D-01 0.271D-01 0.305D+00
 Coeff-Com:  0.707D+00
 Coeff:     -0.348D-03 0.389D-02-0.169D-01-0.262D-01 0.271D-01 0.305D+00
 Coeff:      0.707D+00
 Gap=     0.359 Goal=   None    Shift=    0.000
 RMSDP=1.47D-07 MaxDP=5.96D-06 DE=-2.00D-09 OVMax= 6.42D-06

 Cycle   8  Pass 1  IDiag  1:
 RMSU=  5.72D-08    CP:  9.99D-01  1.18D+00  1.34D+00  1.17D+00  1.37D+00
                    CP:  1.24D+00  1.23D+00
 E= -253.104326515876     Delta-E=       -0.000000000240 Rises=F Damp=F
 DIIS: error= 1.04D-07 at cycle   8 NSaved=   8.
 NSaved= 8 IEnMin= 8 EnMin= -253.104326515876     IErMin= 8 ErrMin= 1.04D-07
 ErrMax= 1.04D-07  0.00D+00 EMaxC= 1.00D-01 BMatC= 5.60D-12 BMatP= 2.26D-10
 IDIUse=1 WtCom= 1.00D+00 WtEn= 0.00D+00
 Coeff-Com: -0.520D-04 0.417D-03-0.346D-03-0.238D-02-0.180D-01-0.985D-02
 Coeff-Com:  0.943D-01 0.936D+00
 Coeff:     -0.520D-04 0.417D-03-0.346D-03-0.238D-02-0.180D-01-0.985D-02
 Coeff:      0.943D-01 0.936D+00
 Gap=     0.359 Goal=   None    Shift=    0.000
 RMSDP=5.66D-08 MaxDP=2.86D-06 DE=-2.40D-10 OVMax= 2.39D-06

 Cycle   9  Pass 1  IDiag  1:
 RMSU=  1.23D-08    CP:  9.99D-01  1.18D+00  1.34D+00  1.18D+00  1.38D+00
                    CP:  1.30D+00  1.39D+00  1.25D+00
 E= -253.104326515889     Delta-E=       -0.000000000013 Rises=F Damp=F
 DIIS: error= 3.52D-08 at cycle   9 NSaved=   9.
 NSaved= 9 IEnMin= 9 EnMin= -253.104326515889     IErMin= 9 ErrMin= 3.52D-08
 ErrMax= 3.52D-08  0.00D+00 EMaxC= 1.00D-01 BMatC= 6.64D-13 BMatP= 5.60D-12
 IDIUse=1 WtCom= 1.00D+00 WtEn= 0.00D+00
 Coeff-Com:  0.134D-04-0.193D-03 0.121D-02 0.143D-02-0.668D-02-0.252D-01
 Coeff-Com: -0.318D-01 0.232D+00 0.829D+00
 Coeff:      0.134D-04-0.193D-03 0.121D-02 0.143D-02-0.668D-02-0.252D-01
 Coeff:     -0.318D-01 0.232D+00 0.829D+00
 Gap=     0.359 Goal=   None    Shift=    0.000
 RMSDP=1.49D-08 MaxDP=7.51D-07 DE=-1.33D-11 OVMax= 7.21D-07

 Cycle  10  Pass 1  IDiag  1:
 RMSU=  3.99D-09    CP:  9.99D-01  1.18D+00  1.34D+00  1.18D+00  1.38D+00
                    CP:  1.31D+00  1.44D+00  1.36D+00  1.25D+00
 E= -253.104326515884     Delta-E=        0.000000000006 Rises=F Damp=F
 DIIS: error= 1.26D-08 at cycle  10 NSaved=  10.
 NSaved=10 IEnMin= 9 EnMin= -253.104326515889     IErMin=10 ErrMin= 1.26D-08
 ErrMax= 1.26D-08  0.00D+00 EMaxC= 1.00D-01 BMatC= 8.19D-14 BMatP= 6.64D-13
 IDIUse=1 WtCom= 1.00D+00 WtEn= 0.00D+00
 Coeff-Com:  0.901D-05-0.976D-04 0.387D-03 0.667D-03-0.176D-03-0.607D-02
 Coeff-Com: -0.190D-01-0.241D-01 0.253D+00 0.796D+00
 Coeff:      0.901D-05-0.976D-04 0.387D-03 0.667D-03-0.176D-03-0.607D-02
 Coeff:     -0.190D-01-0.241D-01 0.253D+00 0.796D+00
 Gap=     0.359 Goal=   None    Shift=    0.000
 RMSDP=4.14D-09 MaxDP=1.77D-07 DE= 5.68D-12 OVMax= 2.59D-07

 SCF Done:  E(RwB97XD) =  -253.104326516     A.U. after   10 cycles
            NFock= 10  Conv=0.41D-08     -V/T= 2.0047
 KE= 2.519254019899D+02 PE=-1.116101430330D+03 EE= 3.464025139842D+02
 Leave Link  502 at Fri Sep 18 08:02:28 2026, MaxMem=  4294967296 cpu:             257.5 elap:              17.1
 (Enter /opt/apps/Gaussian/G16C/g16/l508.exe)
 QCSCF skips out because SCF is already converged.
 Leave Link  508 at Fri Sep 18 08:02:28 2026, MaxMem=  4294967296 cpu:               0.0 elap:               0.0
 (Enter /opt/apps/Gaussian/G16C/g16/l701.exe)
 ... and contract with generalized density number  0.
 Compute integral first derivatives.
 R6Disp: Adding Grimme-D2 dispersion energy 1st derivatives to the gradient.
 Leave Link  701 at Fri Sep 18 08:02:28 2026, MaxMem=  4294967296 cpu:               1.2 elap:               0.1
 (Enter /opt/apps/Gaussian/G16C/g16/l702.exe)
 L702 exits ... SP integral derivatives will be done elsewhere.
 Leave Link  702 at Fri Sep 18 08:02:28 2026, MaxMem=  4294967296 cpu:               0.0 elap:               0.0
 (Enter /opt/apps/Gaussian/G16C/g16/l703.exe)
 Integral derivatives from FoFJK, PRISM(SPDF).
 Compute integral first derivatives, UseDBF=F ICtDFT=           0.
 Calling FoFJK, ICntrl=      2127 FMM=F ISym2X=0 I1Cent= 0 IOpClX= 0 NMat=1 NMatS=1 NMatT=0.
 FoFJK:  IHMeth= 1 ICntrl=    2127 DoSepK=T KAlg= 0 I1Cent=           0 FoldK=F
 IRaf=         1 NMat=       1 IRICut=       1 DoRegI=T DoRafI=F ISym2E= 0 IDoP0=0 IntGTp=1.
 FoFCou: FMM=F IPFlag=           0 FMFlag=      100000 FMFlg1=         800
         NFxFlg=           0 DoJE=F BraDBF=F KetDBF=F FulRan=T
         wScrn=  0.000000 ICntrl=      2527 IOpCl=  0 I1Cent=           0 NGrid=           0
         NMat0=    1 NMatS0=      1 NMatT0=    0 NMatD0=    1 NMtDS0=    0 NMtDT0=    0
 Symmetry not used in FoFCou.
 Leave Link  703 at Fri Sep 18 08:02:34 2026, MaxMem=  4294967296 cpu:              91.3 elap:               5.8
 (Enter /opt/apps/Gaussian/G16C/g16/l716.exe)
 Dipole        =-9.47014944D-02 2.97991606D-03 2.10039946D-01
 ***** Axes restored to original set *****
 -------------------------------------------------------------------
 Center     Atomic                   Forces (Hartrees/Bohr)
 Number     Number              X              Y              Z
 -------------------------------------------------------------------
      1        6          -0.000250076    0.000059084   -0.001088197
      2        1          -0.000177801   -0.000185475    0.000306627
      3        1          -0.000181312   -0.000080138   -0.000021950
      4        6           0.000185151   -0.000340737    0.000043369
      5        1           0.000090471    0.000324031    0.000107292
      6        1           0.000103183    0.000071798   -0.000157251
      7        7          -0.000364230    0.000358251    0.000303345
      8        6           0.000483183    0.000273069    0.000063513
      9        1          -0.000101823   -0.000019127    0.000017565
     10        1           0.000019186   -0.000073819   -0.000044499
     11        1           0.000097464   -0.000180351    0.000130915
     12        6          -0.000034967   -0.000213204   -0.000091455
     13        1           0.000023669   -0.000094469   -0.000002116
     14        1           0.000045529    0.000056058   -0.000004582
     15        1          -0.000074745   -0.000009191   -0.000007709
     16        6          -0.000026367    0.000112403    0.000620262
     17        1           0.000059117    0.000056309   -0.000055657
     18        1          -0.000073110   -0.000096902   -0.000152487
     19        1           0.000177478   -0.000017590    0.000033015
 -------------------------------------------------------------------
 Cartesian Forces:  Max     0.001088197 RMS     0.000231880
 Leave Link  716 at Fri Sep 18 08:02:34 2026, MaxMem=  4294967296 cpu:               0.0 elap:               0.0
 (Enter /opt/apps/Gaussian/G16C/g16/l103.exe)

 GradGradGradGradGradGradGradGradGradGradGradGradGradGradGradGradGradGrad
 Berny optimization.
 Using GEDIIS/GDIIS optimizer.
 FormGI is forming the generalized inverse of G from B-inverse, IUseBI=4.
 Internal  Forces:  Max     0.000533362 RMS     0.000176100
 Search for a local minimum.
 Step number   5 out of a maximum of   97
 All quantities printed in internal units (Hartrees-Bohrs-Radians)
 RMS Force = .17610D-03 SwitMx=.10000D-02 MixMth= 2
 Mixed Optimization -- En-DIIS/RFO-DIIS
 Swapping is turned off.
 Update second derivatives using D2CorX and points    1    2    3    4    5
 DE= -4.53D-05 DEPred=-7.30D-05 R= 6.20D-01
 TightC=F SS=  1.41D+00  RLast= 1.42D-01 DXNew= 1.5651D+00 4.2684D-01
 Trust test= 6.20D-01 RLast= 1.42D-01 DXMaxT set to 9.31D-01
 ITU=  1  1  1  1  0
     Eigenvalues ---    0.00237   0.00370   0.00679   0.00766   0.00767
     Eigenvalues ---    0.02374   0.03429   0.04423   0.04716   0.05392
     Eigenvalues ---    0.05400   0.05478   0.07109   0.07119   0.07426
     Eigenvalues ---    0.07474   0.08495   0.09724   0.12376   0.13032
     Eigenvalues ---    0.14786   0.15999   0.16000   0.16000   0.16000
     Eigenvalues ---    0.16001   0.16040   0.16071   0.16234   0.17502
     Eigenvalues ---    0.18650   0.22223   0.25998   0.27495   0.30530
     Eigenvalues ---    0.31639   0.35718   0.36685   0.37156   0.37198
     Eigenvalues ---    0.37230   0.37230   0.37230   0.37230   0.37230
     Eigenvalues ---    0.37230   0.37230   0.37230   0.37298   0.38331
     Eigenvalues ---    0.38774
 En-DIIS/RFO-DIIS/Sim-DIIS IScMMF=       -3 using points:     5    4    3
 RFO step:  Lambda=-2.19839842D-05.
 NNeg= 0 NGDIIS= 3 SimSw=  2.50D-01 Rises=F DC= -4.53D-05 SmlDif=  1.00D-05
 NRisDI= 0 DoIntr=F SqrtH=F CThrHd= 10.0 CDAdj=  3.0
 RMS Error=  0.4001135736D-02 NUsed= 3 OKEnD=T EnDIS=F
 InvSVX:  RCond= 1.62D-02 Info=           0 Equed=N FErr=  1.53D-15 BErr=  8.33D-17
 DidBck=F Rises=F RFO-DIIS coefs:    0.80709    0.24051   -0.04760
 Iteration  1 RMS(Cart)=  0.00719016 RMS(Int)=  0.00002320
 Iteration  2 RMS(Cart)=  0.00004276 RMS(Int)=  0.00000302
 Iteration  3 RMS(Cart)=  0.00000000 RMS(Int)=  0.00000302
 ITry= 1 IFail=0 DXMaxC= 2.64D-02 DCOld= 1.00D+10 DXMaxT= 9.31D-01 DXLimC= 3.00D+00 Rises=F
 Variable       Old X    -DE/DX   Delta X   Delta X   Delta X     New X
                                 (Linear)    (Quad)   (Total)
    R1        2.06475  -0.00030  -0.00027  -0.00048  -0.00075   2.06400
    R2        2.06420   0.00012  -0.00025   0.00030   0.00005   2.06425
    R3        2.88199  -0.00001  -0.00099   0.00145   0.00046   2.88245
    R4        2.87847   0.00027   0.00000   0.00131   0.00131   2.87979
    R5        2.06601  -0.00018  -0.00010  -0.00043  -0.00053   2.06548
    R6        2.08897   0.00011  -0.00024   0.00010  -0.00013   2.08883
    R7        2.74924   0.00035   0.00062   0.00029   0.00091   2.75015
    R8        2.73626   0.00047   0.00038   0.00112   0.00149   2.73775
    R9        2.73612   0.00021   0.00038   0.00081   0.00119   2.73731
   R10        2.05958  -0.00003  -0.00008  -0.00011  -0.00020   2.05939
   R11        2.08630   0.00008  -0.00027   0.00015  -0.00013   2.08617
   R12        2.05843  -0.00019  -0.00023  -0.00023  -0.00046   2.05797
   R13        2.08594   0.00008  -0.00033   0.00021  -0.00012   2.08582
   R14        2.06019   0.00001  -0.00012   0.00001  -0.00011   2.06008
   R15        2.05996   0.00007  -0.00012   0.00016   0.00003   2.05999
   R16        2.06009   0.00007  -0.00018   0.00024   0.00007   2.06016
   R17        2.06288   0.00006  -0.00015   0.00012  -0.00003   2.06284
   R18        2.05862   0.00012  -0.00001   0.00008   0.00007   2.05869
    A1        1.84143   0.00004   0.00071   0.00216   0.00287   1.84430
    A2        1.92518   0.00003   0.00020  -0.00184  -0.00164   1.92354
    A3        1.92084   0.00006  -0.00047  -0.00068  -0.00116   1.91967
    A4        1.87291   0.00012   0.00000   0.00108   0.00108   1.87400
    A5        1.91743   0.00020   0.00088   0.00070   0.00158   1.91900
    A6        1.98033  -0.00042  -0.00116  -0.00111  -0.00227   1.97806
    A7        1.89573  -0.00033  -0.00062  -0.00185  -0.00247   1.89326
    A8        1.90587  -0.00020   0.00058  -0.00047   0.00011   1.90598
    A9        1.99195   0.00052  -0.00107   0.00237   0.00130   1.99325
   A10        1.86057   0.00020   0.00045   0.00150   0.00195   1.86252
   A11        1.87248  -0.00023  -0.00063  -0.00133  -0.00196   1.87053
   A12        1.93209   0.00001   0.00131  -0.00030   0.00101   1.93310
   A13        1.96050   0.00053   0.00008   0.00123   0.00129   1.96179
   A14        1.93464  -0.00032  -0.00090  -0.00112  -0.00202   1.93262
   A15        1.93424  -0.00022  -0.00030  -0.00109  -0.00140   1.93285
   A16        1.91299  -0.00019   0.00003  -0.00155  -0.00152   1.91146
   A17        1.96370  -0.00003  -0.00050   0.00028  -0.00022   1.96348
   A18        1.93124   0.00022  -0.00024   0.00113   0.00088   1.93212
   A19        1.88684   0.00006   0.00031  -0.00000   0.00030   1.88714
   A20        1.87868  -0.00004   0.00013  -0.00010   0.00003   1.87871
   A21        1.88789  -0.00001   0.00032   0.00023   0.00056   1.88844
   A22        1.96557   0.00011  -0.00123   0.00169   0.00046   1.96603
   A23        1.91893  -0.00012   0.00021  -0.00114  -0.00093   1.91799
   A24        1.91830  -0.00001   0.00018  -0.00025  -0.00007   1.91823
   A25        1.88601  -0.00001   0.00041  -0.00035   0.00006   1.88607
   A26        1.88659  -0.00002   0.00027  -0.00006   0.00021   1.88680
   A27        1.88638   0.00005   0.00022   0.00007   0.00029   1.88667
   A28        1.93982  -0.00003   0.00007  -0.00060  -0.00053   1.93929
   A29        1.93517  -0.00019  -0.00019  -0.00085  -0.00104   1.93412
   A30        1.93786  -0.00011  -0.00052  -0.00008  -0.00060   1.93726
   A31        1.88420   0.00010   0.00013   0.00045   0.00058   1.88478
   A32        1.89306   0.00005   0.00001   0.00031   0.00033   1.89338
   A33        1.87134   0.00019   0.00054   0.00085   0.00139   1.87273
    D1       -3.01700  -0.00010   0.00962  -0.00271   0.00691  -3.01010
    D2       -0.99442  -0.00015   0.01013  -0.00221   0.00793  -0.98649
    D3        1.17817   0.00009   0.01153  -0.00123   0.01030   1.18847
    D4       -1.01948   0.00003   0.01056  -0.00050   0.01006  -1.00942
    D5        1.00310  -0.00001   0.01107   0.00001   0.01108   1.01418
    D6       -3.10749   0.00023   0.01247   0.00098   0.01345  -3.09404
    D7        1.10193   0.00011   0.01094   0.00043   0.01137   1.11330
    D8        3.12451   0.00006   0.01145   0.00094   0.01239   3.13690
    D9       -0.98608   0.00031   0.01285   0.00191   0.01476  -0.97132
   D10        1.01881   0.00013  -0.00237   0.00165  -0.00072   1.01808
   D11        3.11468   0.00011  -0.00230   0.00125  -0.00104   3.11363
   D12       -1.09009   0.00015  -0.00208   0.00171  -0.00037  -1.09046
   D13       -1.00144  -0.00008  -0.00347  -0.00098  -0.00445  -1.00589
   D14        1.09443  -0.00009  -0.00339  -0.00138  -0.00477   1.08967
   D15       -3.11034  -0.00005  -0.00318  -0.00091  -0.00409  -3.11443
   D16       -3.09776  -0.00010  -0.00332  -0.00212  -0.00543  -3.10320
   D17       -1.00189  -0.00012  -0.00324  -0.00251  -0.00575  -1.00765
   D18        1.07652  -0.00007  -0.00303  -0.00205  -0.00508   1.07145
   D19       -1.12550  -0.00023   0.00021  -0.00348  -0.00328  -1.12878
   D20        2.98326  -0.00010   0.00124  -0.00212  -0.00087   2.98239
   D21        3.05663   0.00003   0.00208  -0.00169   0.00040   3.05703
   D22        0.88221   0.00016   0.00312  -0.00032   0.00280   0.88501
   D23        1.03302  -0.00009   0.00122  -0.00256  -0.00135   1.03168
   D24       -1.14140   0.00004   0.00225  -0.00120   0.00106  -1.14034
   D25       -3.12447   0.00013  -0.00011   0.00093   0.00082  -3.12364
   D26       -1.02454   0.00005  -0.00003   0.00004   0.00001  -1.02453
   D27        1.08950   0.00016  -0.00014   0.00134   0.00120   1.09070
   D28       -0.94982  -0.00006  -0.00148  -0.00045  -0.00193  -0.95175
   D29        1.15011  -0.00014  -0.00140  -0.00134  -0.00274   1.14737
   D30       -3.01904  -0.00003  -0.00151  -0.00004  -0.00155  -3.02059
   D31        1.09373   0.00017  -0.00046   0.00039  -0.00007   1.09366
   D32       -3.08524   0.00015  -0.00061   0.00028  -0.00033  -3.08557
   D33       -1.01081   0.00013  -0.00011  -0.00049  -0.00059  -1.01139
   D34       -1.09552  -0.00013   0.00035   0.00042   0.00077  -1.09476
   D35        1.00870  -0.00015   0.00019   0.00031   0.00050   1.00920
   D36        3.08313  -0.00016   0.00070  -0.00045   0.00024   3.08337
         Item               Value     Threshold  Converged?
 Maximum Force            0.000533     0.000450     NO 
 RMS     Force            0.000176     0.000300     YES
 Maximum Displacement     0.026429     0.001800     NO 
 RMS     Displacement     0.007194     0.001200     NO 
 Predicted change in Energy=-1.099405D-05
 Lowest energy point so far.  Saving SCF results.
 GradGradGradGradGradGradGradGradGradGradGradGradGradGradGradGradGradGrad

 Leave Link  103 at Fri Sep 18 08:02:34 2026, MaxMem=  4294967296 cpu:               0.1 elap:               0.0
 (Enter /opt/apps/Gaussian/G16C/g16/l202.exe)
                          Input orientation:                          
 ---------------------------------------------------------------------
 Center     Atomic      Atomic             Coordinates (Angstroms)
 Number     Number       Type             X           Y           Z
 ---------------------------------------------------------------------
      1          6           0       -6.942014   -0.514816   -2.251189
      2          1           0       -5.949223   -0.169562   -2.548027
      3          1           0       -7.539637   -0.515894   -3.165563
      4          6           0       -6.871733   -1.954210   -1.751355
      5          1           0       -7.890802   -2.315183   -1.590546
      6          1           0       -6.429328   -2.591376   -2.538836
      7          7           0       -6.155543   -2.115182   -0.494727
      8          6           0       -4.752545   -1.773194   -0.611092
      9          1           0       -4.259364   -1.927504    0.348378
     10          1           0       -4.230197   -2.384014   -1.367906
     11          1           0       -4.632859   -0.724389   -0.878810
     12          6           0       -6.314871   -3.460694    0.017546
     13          1           0       -5.889056   -4.224880   -0.655514
     14          1           0       -5.821339   -3.549956    0.985471
     15          1           0       -7.373238   -3.682484    0.155347
     16          6           0       -7.546395    0.447820   -1.236113
     17          1           0       -7.614791    1.456550   -1.643908
     18          1           0       -8.551241    0.130541   -0.951103
     19          1           0       -6.947576    0.482807   -0.326715
 ---------------------------------------------------------------------
                    Distance matrix (angstroms):
                    1          2          3          4          5
     1  C    0.000000
     2  H    1.092222   0.000000
     3  H    1.092353   1.740895   0.000000
     4  C    1.525329   2.161175   2.124814   0.000000
     5  H    2.139619   3.047981   2.416906   1.093006   0.000000
     6  H    2.158168   2.468960   2.435816   1.105364   1.763928
     7  N    2.502971   2.836202   3.406875   1.455318   2.062024
     8  C    3.011180   2.784850   3.984220   2.413280   3.331927
     9  H    3.993751   3.786178   5.010052   3.351725   4.134859
    10  H    3.409991   3.041633   4.204026   2.703604   3.668015
    11  H    2.694354   2.197028   3.704331   2.699324   3.694778
    12  C    3.770764   4.188963   4.506005   2.389267   2.526205
    13  H    4.173665   4.475581   4.772980   2.706005   2.920311
    14  H    4.576456   4.891729   5.421177   3.337655   3.527492
    15  H    4.001436   4.655821   4.591669   2.621822   2.277175
    16  C    1.523917   2.157136   2.156749   2.547625   2.806853
    17  H    2.169724   2.497156   2.492312   3.492415   3.782195
    18  H    2.167099   3.067691   2.518939   2.794162   2.612783
    19  H    2.167690   2.521214   3.067083   2.823898   3.211805
                    6          7          8          9         10
     6  H    0.000000
     7  N    2.116624   0.000000
     8  C    2.682763   1.448758   0.000000
     9  H    3.672257   2.083637   1.089781   0.000000
    10  H    2.500050   2.131119   1.103955   1.776199   0.000000
    11  H    3.077113   2.097711   1.089031   1.758686   1.776431
    12  C    2.702573   1.448521   2.384052   2.585581   2.724809
    13  H    2.550908   2.132533   2.702665   2.990256   2.578392
    14  H    3.702602   2.088362   2.616909   2.340513   3.070755
    15  H    3.056159   2.088496   3.331794   3.579585   3.726262
    16  C    3.490220   3.008837   3.623417   4.354004   4.362777
    17  H    4.311835   4.025828   4.437387   5.165261   5.126557
    18  H    3.798979   3.315256   4.262617   4.934006   5.016785
    19  H    3.822651   2.721230   3.160470   3.673124   4.084959
                   11         12         13         14         15
    11  H    0.000000
    12  C    3.334664   0.000000
    13  H    3.725766   1.103771   0.000000
    14  H    3.587737   1.090147   1.775652   0.000000
    15  H    4.162870   1.090101   1.776087   1.764953   0.000000
    16  C    3.160765   4.285416   4.991793   4.888094   4.361830
    17  H    3.772770   5.350655   6.019447   5.932555   5.450261
    18  H    4.011216   4.340115   5.113150   4.974811   4.141387
    19  H    2.668342   4.008744   4.836414   4.387871   4.214644
                   16         17         18         19
    16  C    0.000000
    17  H    1.090189   0.000000
    18  H    1.091610   1.764997   0.000000
    19  H    1.089410   1.768714   1.756614   0.000000
 Stoichiometry    C5H13N
 Framework group  C1[X(C5H13N)]
 Deg. of freedom    51
 Full point group                 C1      NOp   1
 RotChk:  IX=0 Diff= 1.73D-02
 Largest Abelian subgroup         C1      NOp   1
 Largest concise Abelian subgroup C1      NOp   1
                         Standard orientation:                         
 ---------------------------------------------------------------------
 Center     Atomic      Atomic             Coordinates (Angstroms)
 Number     Number       Type             X           Y           Z
 ---------------------------------------------------------------------
      1          6           0        1.561171   -0.024925    0.618692
      2          1           0        1.539705    0.986187    1.031172
      3          1           0        2.184576   -0.608360    1.300017
      4          6           0        0.163291   -0.634717    0.645383
      5          1           0        0.238322   -1.685841    0.355260
      6          1           0       -0.221148   -0.617592    1.681599
      7          7           0       -0.780376   -0.003876   -0.265377
      8          6           0       -1.051732    1.374590    0.088312
      9          1           0       -1.774906    1.794248   -0.610635
     10          1           0       -1.461198    1.476221    1.108472
     11          1           0       -0.144814    1.974105    0.024522
     12          6           0       -2.009839   -0.766258   -0.338892
     13          1           0       -2.536465   -0.817848    0.629774
     14          1           0       -2.683922   -0.313816   -1.066442
     15          1           0       -1.796111   -1.784891   -0.662971
     16          6           0        2.185620   -0.007354   -0.771300
     17          1           0        3.196694    0.399352   -0.742469
     18          1           0        2.239648   -1.016048   -1.185100
     19          1           0        1.591180    0.593397   -1.458725
 ---------------------------------------------------------------------
 Rotational constants (GHZ):           5.8278076           2.1290412           1.9527726
 Leave Link  202 at Fri Sep 18 08:02:34 2026, MaxMem=  4294967296 cpu:               0.0 elap:               0.0
 (Enter /opt/apps/Gaussian/G16C/g16/l301.exe)
 Standard basis: 6-311+G(2d,2p) (5D, 7F)
 Ernie: Thresh=  0.10000D-02 Tol=  0.10000D-05 Strict=F.
 There are   291 symmetry adapted cartesian basis functions of A   symmetry.
 There are   279 symmetry adapted basis functions of A   symmetry.
   279 basis functions,   395 primitive gaussians,   291 cartesian basis functions
    25 alpha electrons       25 beta electrons
       nuclear repulsion energy       264.6899874427 Hartrees.
 IExCor= 4639 DFT=T Ex+Corr=wB97XD ExCW=0 ScaHFX=  1.000000
 ScaDFX=  1.000000  1.000000  1.000000  1.000000 ScalE2=  1.000000  1.000000
 IRadAn=      5 IRanWt=     -1 IRanGd=            0 ICorTp=0 IEmpDi=121
 HFx  wShort=  0.000000 wLong=  0.200000 cFull=  0.222036 cShort=  0.000000 cLong=  0.777964
 DFx  wShort=  0.000000 wLong=  0.200000 cFull=  0.000000 cShort=  0.000000 cLong=  1.000000
 NAtoms=   19 NActive=   19 NUniq=   19 SFac= 1.00D+00 NAtFMM=   60 NAOKFM=F Big=F
 Integral buffers will be    131072 words long.
 Raffenetti 2 integral format.
 Two-electron integral symmetry is turned on.
 R6Disp:  Grimme-D2 Dispersion energy=       -0.0112911698 Hartrees.
 Nuclear repulsion after empirical dispersion term =      264.6786962730 Hartrees.
 Leave Link  301 at Fri Sep 18 08:02:34 2026, MaxMem=  4294967296 cpu:               0.0 elap:               0.0
 (Enter /opt/apps/Gaussian/G16C/g16/l302.exe)
 NPDir=0 NMtPBC=     1 NCelOv=     1 NCel=       1 NClECP=     1 NCelD=      1
         NCelK=      1 NCelE2=     1 NClLst=     1 CellRange=     0.0.
 One-electron integrals computed using PRISM.
 One-electron integral symmetry used in STVInt
 NBasis=   279 RedAO= T EigKep=  3.49D-05  NBF=   279
 NBsUse=   279 1.00D-06 EigRej= -1.00D+00 NBFU=   279
 Precomputing XC quadrature grid using
 IXCGrd= 4 IRadAn=           5 IRanWt=          -1 IRanGd=           0 AccXCQ= 0.00D+00.
 Generated NRdTot=       0 NPtTot=           0 NUsed=           0 NTot=          32
 NSgBfM=   291   291   291   291   291 MxSgAt=    19 MxSgA2=    19.
 Leave Link  302 at Fri Sep 18 08:02:34 2026, MaxMem=  4294967296 cpu:               1.9 elap:               0.2
 (Enter /opt/apps/Gaussian/G16C/g16/l303.exe)
 DipDrv:  MaxL=1.
 Leave Link  303 at Fri Sep 18 08:02:34 2026, MaxMem=  4294967296 cpu:               0.1 elap:               0.0
 (Enter /opt/apps/Gaussian/G16C/g16/l401.exe)
 Initial guess from the checkpoint file:  "aminopropyl.chk"
 B after Tr=    -0.000000   -0.000000    0.000000
         Rot=    0.999982   -0.005914   -0.000544    0.000138 Ang=  -0.68 deg.
 Guess basis will be translated and rotated to current coordinates.
 JPrj=2 DoOrth=T DoCkMO=T.
 Generating alternative initial guess.
 ExpMin= 4.38D-02 ExpMax= 6.29D+03 ExpMxC= 9.49D+02 IAcc=3 IRadAn=         5 AccDes= 0.00D+00
 Harris functional with IExCor= 4639 and IRadAn=       5 diagonalized for initial guess.
 HarFok:  IExCor= 4639 AccDes= 0.00D+00 IRadAn=         5 IDoV= 1 UseB2=F ITyADJ=14
 ICtDFT=  3500011 ScaDFX=  1.000000  1.000000  1.000000  1.000000
 FoFCou: FMM=F IPFlag=           0 FMFlag=      100000 FMFlg1=           0
         NFxFlg=           0 DoJE=T BraDBF=F KetDBF=T FulRan=T
         wScrn=  0.000000 ICntrl=       500 IOpCl=  0 I1Cent=   200000004 NGrid=           0
         NMat0=    1 NMatS0=      1 NMatT0=    0 NMatD0=    1 NMtDS0=    0 NMtDT0=    0
 Petite list used in FoFCou.
 Harris En= -240.796084394686    
 Leave Link  401 at Fri Sep 18 08:02:35 2026, MaxMem=  4294967296 cpu:              10.4 elap:               0.8
 (Enter /opt/apps/Gaussian/G16C/g16/l502.exe)
 Integral symmetry usage will be decided dynamically.
 Closed shell SCF:
 Using DIIS extrapolation, IDIIS=  1040.
 NGot=  4294967296 LenX=  4294789954 LenY=  4294704832
 Requested convergence on RMS density matrix=1.00D-08 within  32 cycles.
 Requested convergence on MAX density matrix=1.00D-06.
 Requested convergence on             energy=1.00D-06.
 No special actions if energy rises.
 Fock matrices will be formed incrementally for  20 cycles.

 Cycle   1  Pass 1  IDiag  1:
 FoFJK:  IHMeth= 1 ICntrl=       0 DoSepK=T KAlg= 0 I1Cent=           0 FoldK=F
 IRaf=         1 NMat=       1 IRICut=       1 DoRegI=T DoRafI=F ISym2E= 0 IDoP0=0 IntGTp=1.
 FoFCou: FMM=F IPFlag=           0 FMFlag=      100000 FMFlg1=           0
         NFxFlg=           0 DoJE=T BraDBF=F KetDBF=F FulRan=T
         wScrn=  0.000000 ICntrl=       500 IOpCl=  0 I1Cent=           0 NGrid=           0
         NMat0=    1 NMatS0=      1 NMatT0=    0 NMatD0=    1 NMtDS0=    0 NMtDT0=    0
 Symmetry not used in FoFCou.
 E= -253.104277891499    
 DIIS: error= 3.22D-04 at cycle   1 NSaved=   1.
 NSaved= 1 IEnMin= 1 EnMin= -253.104277891499     IErMin= 1 ErrMin= 3.22D-04
 ErrMax= 3.22D-04  0.00D+00 EMaxC= 1.00D-01 BMatC= 3.80D-05 BMatP= 3.80D-05
 IDIUse=3 WtCom= 9.97D-01 WtEn= 3.22D-03
 Coeff-Com:  0.100D+01
 Coeff-En:   0.100D+01
 Coeff:      0.100D+01
 Gap=     0.629 Goal=   None    Shift=    0.000
 RMSDP=2.93D-05 MaxDP=1.04D-03              OVMax= 1.79D-03

 Cycle   2  Pass 1  IDiag  1:
 RMSU=  2.93D-05    CP:  1.00D+00
 E= -253.104334451343     Delta-E=       -0.000056559844 Rises=F Damp=F
 DIIS: error= 5.67D-05 at cycle   2 NSaved=   2.
 NSaved= 2 IEnMin= 2 EnMin= -253.104334451343     IErMin= 2 ErrMin= 5.67D-05
 ErrMax= 5.67D-05  0.00D+00 EMaxC= 1.00D-01 BMatC= 1.30D-06 BMatP= 3.80D-05
 IDIUse=1 WtCom= 1.00D+00 WtEn= 0.00D+00
 Coeff-Com: -0.175D+00 0.117D+01
 Coeff:     -0.175D+00 0.117D+01
 Gap=     0.359 Goal=   None    Shift=    0.000
 RMSDP=7.29D-06 MaxDP=1.67D-04 DE=-5.66D-05 OVMax= 5.74D-04

 Cycle   3  Pass 1  IDiag  1:
 RMSU=  5.02D-06    CP:  1.00D+00  1.18D+00
 E= -253.104337672396     Delta-E=       -0.000003221053 Rises=F Damp=F
 DIIS: error= 8.17D-06 at cycle   3 NSaved=   3.
 NSaved= 3 IEnMin= 3 EnMin= -253.104337672396     IErMin= 3 ErrMin= 8.17D-06
 ErrMax= 8.17D-06  0.00D+00 EMaxC= 1.00D-01 BMatC= 5.35D-08 BMatP= 1.30D-06
 IDIUse=1 WtCom= 1.00D+00 WtEn= 0.00D+00
 Coeff-Com: -0.191D-01 0.464D-01 0.973D+00
 Coeff:     -0.191D-01 0.464D-01 0.973D+00
 Gap=     0.359 Goal=   None    Shift=    0.000
 RMSDP=1.70D-06 MaxDP=5.15D-05 DE=-3.22D-06 OVMax= 8.96D-05

 Cycle   4  Pass 1  IDiag  1:
 RMSU=  1.18D-06    CP:  1.00D+00  1.19D+00  1.24D+00
 E= -253.104337750328     Delta-E=       -0.000000077932 Rises=F Damp=F
 DIIS: error= 6.59D-06 at cycle   4 NSaved=   4.
 NSaved= 4 IEnMin= 4 EnMin= -253.104337750328     IErMin= 4 ErrMin= 6.59D-06
 ErrMax= 6.59D-06  0.00D+00 EMaxC= 1.00D-01 BMatC= 2.73D-08 BMatP= 5.35D-08
 IDIUse=1 WtCom= 1.00D+00 WtEn= 0.00D+00
 Coeff-Com:  0.957D-02-0.103D+00 0.443D+00 0.650D+00
 Coeff:      0.957D-02-0.103D+00 0.443D+00 0.650D+00
 Gap=     0.359 Goal=   None    Shift=    0.000
 RMSDP=6.75D-07 MaxDP=3.48D-05 DE=-7.79D-08 OVMax= 4.67D-05

 Cycle   5  Pass 1  IDiag  1:
 RMSU=  4.76D-07    CP:  1.00D+00  1.19D+00  1.33D+00  1.05D+00
 E= -253.104337774295     Delta-E=       -0.000000023967 Rises=F Damp=F
 DIIS: error= 2.00D-06 at cycle   5 NSaved=   5.
 NSaved= 5 IEnMin= 5 EnMin= -253.104337774295     IErMin= 5 ErrMin= 2.00D-06
 ErrMax= 2.00D-06  0.00D+00 EMaxC= 1.00D-01 BMatC= 1.16D-09 BMatP= 2.73D-08
 IDIUse=1 WtCom= 1.00D+00 WtEn= 0.00D+00
 Coeff-Com:  0.428D-02-0.369D-01 0.807D-01 0.221D+00 0.731D+00
 Coeff:      0.428D-02-0.369D-01 0.807D-01 0.221D+00 0.731D+00
 Gap=     0.359 Goal=   None    Shift=    0.000
 RMSDP=2.48D-07 MaxDP=7.93D-06 DE=-2.40D-08 OVMax= 1.03D-05

 Cycle   6  Pass 1  IDiag  1:
 RMSU=  1.63D-07    CP:  1.00D+00  1.19D+00  1.35D+00  1.17D+00  1.13D+00
 E= -253.104337775557     Delta-E=       -0.000000001261 Rises=F Damp=F
 DIIS: error= 3.28D-07 at cycle   6 NSaved=   6.
 NSaved= 6 IEnMin= 6 EnMin= -253.104337775557     IErMin= 6 ErrMin= 3.28D-07
 ErrMax= 3.28D-07  0.00D+00 EMaxC= 1.00D-01 BMatC= 6.78D-11 BMatP= 1.16D-09
 IDIUse=1 WtCom= 1.00D+00 WtEn= 0.00D+00
 Coeff-Com: -0.149D-03 0.351D-02-0.317D-01-0.269D-01 0.142D+00 0.913D+00
 Coeff:     -0.149D-03 0.351D-02-0.317D-01-0.269D-01 0.142D+00 0.913D+00
 Gap=     0.359 Goal=   None    Shift=    0.000
 RMSDP=1.40D-07 MaxDP=4.64D-06 DE=-1.26D-09 OVMax= 4.80D-06

 Cycle   7  Pass 1  IDiag  1:
 RMSU=  4.53D-08    CP:  1.00D+00  1.19D+00  1.36D+00  1.24D+00  1.30D+00
                    CP:  1.28D+00
 E= -253.104337775672     Delta-E=       -0.000000000116 Rises=F Damp=F
 DIIS: error= 1.29D-07 at cycle   7 NSaved=   7.
 NSaved= 7 IEnMin= 7 EnMin= -253.104337775672     IErMin= 7 ErrMin= 1.29D-07
 ErrMax= 1.29D-07  0.00D+00 EMaxC= 1.00D-01 BMatC= 8.82D-12 BMatP= 6.78D-11
 IDIUse=1 WtCom= 1.00D+00 WtEn= 0.00D+00
 Coeff-Com: -0.367D-03 0.395D-02-0.167D-01-0.253D-01-0.473D-02 0.322D+00
 Coeff-Com:  0.721D+00
 Coeff:     -0.367D-03 0.395D-02-0.167D-01-0.253D-01-0.473D-02 0.322D+00
 Coeff:      0.721D+00
 Gap=     0.359 Goal=   None    Shift=    0.000
 RMSDP=3.68D-08 MaxDP=1.68D-06 DE=-1.16D-10 OVMax= 1.25D-06

 Cycle   8  Pass 1  IDiag  1:
 RMSU=  1.18D-08    CP:  1.00D+00  1.19D+00  1.36D+00  1.26D+00  1.34D+00
                    CP:  1.39D+00  1.21D+00
 E= -253.104337775681     Delta-E=       -0.000000000008 Rises=F Damp=F
 DIIS: error= 2.61D-08 at cycle   8 NSaved=   8.
 NSaved= 8 IEnMin= 8 EnMin= -253.104337775681     IErMin= 8 ErrMin= 2.61D-08
 ErrMax= 2.61D-08  0.00D+00 EMaxC= 1.00D-01 BMatC= 3.10D-13 BMatP= 8.82D-12
 IDIUse=1 WtCom= 1.00D+00 WtEn= 0.00D+00
 Coeff-Com: -0.327D-04 0.210D-03 0.450D-03-0.104D-02-0.134D-01-0.297D-01
 Coeff-Com:  0.875D-01 0.956D+00
 Coeff:     -0.327D-04 0.210D-03 0.450D-03-0.104D-02-0.134D-01-0.297D-01
 Coeff:      0.875D-01 0.956D+00
 Gap=     0.359 Goal=   None    Shift=    0.000
 RMSDP=1.62D-08 MaxDP=8.68D-07 DE=-8.30D-12 OVMax= 5.72D-07

 Cycle   9  Pass 1  IDiag  1:
 RMSU=  3.22D-09    CP:  1.00D+00  1.19D+00  1.36D+00  1.26D+00  1.36D+00
                    CP:  1.45D+00  1.38D+00  1.26D+00
 E= -253.104337775680     Delta-E=        0.000000000001 Rises=F Damp=F
 DIIS: error= 8.79D-09 at cycle   9 NSaved=   9.
 NSaved= 9 IEnMin= 8 EnMin= -253.104337775681     IErMin= 9 ErrMin= 8.79D-09
 ErrMax= 8.79D-09  0.00D+00 EMaxC= 1.00D-01 BMatC= 2.27D-14 BMatP= 3.10D-13
 IDIUse=1 WtCom= 1.00D+00 WtEn= 0.00D+00
 Coeff-Com:  0.228D-04-0.269D-03 0.136D-02 0.179D-02-0.220D-02-0.279D-01
 Coeff-Com: -0.405D-01 0.144D+00 0.924D+00
 Coeff:      0.228D-04-0.269D-03 0.136D-02 0.179D-02-0.220D-02-0.279D-01
 Coeff:     -0.405D-01 0.144D+00 0.924D+00
 Gap=     0.359 Goal=   None    Shift=    0.000
 RMSDP=4.13D-09 MaxDP=2.39D-07 DE= 7.96D-13 OVMax= 2.10D-07

 SCF Done:  E(RwB97XD) =  -253.104337776     A.U. after    9 cycles
            NFock=  9  Conv=0.41D-08     -V/T= 2.0047
 KE= 2.519227543326D+02 PE=-1.116120469823D+03 EE= 3.464146814420D+02
 Leave Link  502 at Fri Sep 18 08:02:50 2026, MaxMem=  4294967296 cpu:             230.8 elap:              15.4
 (Enter /opt/apps/Gaussian/G16C/g16/l508.exe)
 QCSCF skips out because SCF is already converged.
 Leave Link  508 at Fri Sep 18 08:02:50 2026, MaxMem=  4294967296 cpu:               0.0 elap:               0.0
 (Enter /opt/apps/Gaussian/G16C/g16/l701.exe)
 ... and contract with generalized density number  0.
 Compute integral first derivatives.
 R6Disp: Adding Grimme-D2 dispersion energy 1st derivatives to the gradient.
 Leave Link  701 at Fri Sep 18 08:02:50 2026, MaxMem=  4294967296 cpu:               1.2 elap:               0.1
 (Enter /opt/apps/Gaussian/G16C/g16/l702.exe)
 L702 exits ... SP integral derivatives will be done elsewhere.
 Leave Link  702 at Fri Sep 18 08:02:50 2026, MaxMem=  4294967296 cpu:               0.0 elap:               0.0
 (Enter /opt/apps/Gaussian/G16C/g16/l703.exe)
 Integral derivatives from FoFJK, PRISM(SPDF).
 Compute integral first derivatives, UseDBF=F ICtDFT=           0.
 Calling FoFJK, ICntrl=      2127 FMM=F ISym2X=0 I1Cent= 0 IOpClX= 0 NMat=1 NMatS=1 NMatT=0.
 FoFJK:  IHMeth= 1 ICntrl=    2127 DoSepK=T KAlg= 0 I1Cent=           0 FoldK=F
 IRaf=         1 NMat=       1 IRICut=       1 DoRegI=T DoRafI=F ISym2E= 0 IDoP0=0 IntGTp=1.
 FoFCou: FMM=F IPFlag=           0 FMFlag=      100000 FMFlg1=         800
         NFxFlg=           0 DoJE=F BraDBF=F KetDBF=F FulRan=T
         wScrn=  0.000000 ICntrl=      2527 IOpCl=  0 I1Cent=           0 NGrid=           0
         NMat0=    1 NMatS0=      1 NMatT0=    0 NMatD0=    1 NMtDS0=    0 NMtDT0=    0
 Symmetry not used in FoFCou.
 Leave Link  703 at Fri Sep 18 08:02:56 2026, MaxMem=  4294967296 cpu:              91.4 elap:               5.8
 (Enter /opt/apps/Gaussian/G16C/g16/l716.exe)
 Dipole        =-9.67676180D-02 1.17622998D-03 2.11222088D-01
 ***** Axes restored to original set *****
 -------------------------------------------------------------------
 Center     Atomic                   Forces (Hartrees/Bohr)
 Number     Number              X              Y              Z
 -------------------------------------------------------------------
      1        6           0.000063296    0.000081569   -0.000127026
      2        1           0.000020193   -0.000000909    0.000028918
      3        1          -0.000030032   -0.000034828    0.000033574
      4        6          -0.000003156   -0.000115976    0.000158692
      5        1          -0.000019157    0.000021053    0.000003655
      6        1           0.000034716    0.000004209   -0.000076141
      7        7          -0.000068394   -0.000003392   -0.000102064
      8        6          -0.000023397   -0.000004994    0.000042761
      9        1           0.000020743   -0.000001963    0.000034832
     10        1           0.000023916   -0.000029799   -0.000043853
     11        1          -0.000013227    0.000025288   -0.000001947
     12        6           0.000005465    0.000116260    0.000008229
     13        1           0.000022264   -0.000046844   -0.000036125
     14        1           0.000031421   -0.000016889    0.000046563
     15        1          -0.000042799   -0.000006670   -0.000002140
     16        6          -0.000023311    0.000014853    0.000074196
     17        1          -0.000003816    0.000047545   -0.000023987
     18        1          -0.000046024   -0.000018814   -0.000010898
     19        1           0.000051297   -0.000029701   -0.000007240
 -------------------------------------------------------------------
 Cartesian Forces:  Max     0.000158692 RMS     0.000049441
 Leave Link  716 at Fri Sep 18 08:02:56 2026, MaxMem=  4294967296 cpu:               0.3 elap:               0.0
 (Enter /opt/apps/Gaussian/G16C/g16/l103.exe)

 GradGradGradGradGradGradGradGradGradGradGradGradGradGradGradGradGradGrad
 Berny optimization.
 Using GEDIIS/GDIIS optimizer.
 FormGI is forming the generalized inverse of G from B-inverse, IUseBI=4.
 Internal  Forces:  Max     0.000074272 RMS     0.000027236
 Search for a local minimum.
 Step number   6 out of a maximum of   97
 All quantities printed in internal units (Hartrees-Bohrs-Radians)
 RMS Force = .27236D-04 SwitMx=.10000D-02 MixMth= 2
 Mixed Optimization -- En-DIIS/RFO-DIIS
 Swapping is turned off.
 Update second derivatives using D2CorX and points    1    2    3    4    5
                                                      6
 DE= -1.13D-05 DEPred=-1.10D-05 R= 1.02D+00
 TightC=F SS=  1.41D+00  RLast= 3.70D-02 DXNew= 1.5651D+00 1.1115D-01
 Trust test= 1.02D+00 RLast= 3.70D-02 DXMaxT set to 9.31D-01
 ITU=  1  1  1  1  1  0
     Eigenvalues ---    0.00237   0.00358   0.00691   0.00766   0.00768
     Eigenvalues ---    0.02413   0.03498   0.04436   0.04576   0.05373
     Eigenvalues ---    0.05403   0.05488   0.07109   0.07149   0.07431
     Eigenvalues ---    0.07483   0.08478   0.09636   0.12324   0.13048
     Eigenvalues ---    0.14811   0.15863   0.16000   0.16000   0.16000
     Eigenvalues ---    0.16013   0.16037   0.16083   0.16332   0.17615
     Eigenvalues ---    0.18559   0.22038   0.26165   0.27986   0.30604
     Eigenvalues ---    0.31952   0.35658   0.36737   0.37131   0.37185
     Eigenvalues ---    0.37208   0.37230   0.37230   0.37230   0.37230
     Eigenvalues ---    0.37230   0.37230   0.37230   0.37340   0.37913
     Eigenvalues ---    0.39645
 En-DIIS/RFO-DIIS/Sim-DIIS IScMMF=       -3 using points:     6    5    4    3
 RFO step:  Lambda=-4.67057655D-07.
 NNeg= 0 NGDIIS= 4 SimSw=  2.50D-01 Rises=F DC= -1.13D-05 SmlDif=  1.00D-05
 NRisDI= 0 DoIntr=F SqrtH=F CThrHd= 10.0 CDAdj=  3.0
 RMS Error=  0.5751121037D-03 NUsed= 4 OKEnD=T EnDIS=F
 InvSVX:  RCond= 1.47D-05 Info=           0 Equed=N FErr=  5.28D-15 BErr=  1.03D-16
 DidBck=F Rises=F RFO-DIIS coefs:    0.98553   -0.00626    0.03101   -0.01028
 Iteration  1 RMS(Cart)=  0.00111834 RMS(Int)=  0.00000081
 Iteration  2 RMS(Cart)=  0.00000062 RMS(Int)=  0.00000066
 ITry= 1 IFail=0 DXMaxC= 4.62D-03 DCOld= 1.00D+10 DXMaxT= 9.31D-01 DXLimC= 3.00D+00 Rises=F
 Variable       Old X    -DE/DX   Delta X   Delta X   Delta X     New X
                                 (Linear)    (Quad)   (Total)
    R1        2.06400   0.00001  -0.00002   0.00005   0.00003   2.06403
    R2        2.06425  -0.00001  -0.00004   0.00002  -0.00002   2.06423
    R3        2.88245   0.00006  -0.00015   0.00045   0.00030   2.88275
    R4        2.87979   0.00004  -0.00007   0.00021   0.00014   2.87993
    R5        2.06548   0.00001  -0.00002   0.00005   0.00003   2.06552
    R6        2.08883   0.00007  -0.00004   0.00022   0.00018   2.08902
    R7        2.75015  -0.00007   0.00001  -0.00023  -0.00022   2.74994
    R8        2.73775   0.00000  -0.00003   0.00002  -0.00000   2.73775
    R9        2.73731  -0.00004  -0.00003  -0.00010  -0.00013   2.73718
   R10        2.05939   0.00004  -0.00002   0.00013   0.00011   2.05950
   R11        2.08617   0.00006  -0.00005   0.00021   0.00016   2.08634
   R12        2.05797   0.00002  -0.00003   0.00010   0.00007   2.05804
   R13        2.08582   0.00006  -0.00005   0.00023   0.00018   2.08601
   R14        2.06008   0.00006  -0.00003   0.00018   0.00016   2.06024
   R15        2.05999   0.00004  -0.00003   0.00015   0.00011   2.06011
   R16        2.06016   0.00005  -0.00004   0.00019   0.00015   2.06031
   R17        2.06284   0.00005  -0.00003   0.00016   0.00013   2.06297
   R18        2.05869   0.00002  -0.00001   0.00007   0.00005   2.05874
    A1        1.84430   0.00002  -0.00004   0.00052   0.00049   1.84479
    A2        1.92354   0.00002   0.00005  -0.00006  -0.00001   1.92353
    A3        1.91967   0.00000  -0.00002   0.00001  -0.00001   1.91967
    A4        1.87400  -0.00001   0.00001  -0.00020  -0.00019   1.87380
    A5        1.91900   0.00002   0.00009  -0.00003   0.00005   1.91906
    A6        1.97806  -0.00005  -0.00008  -0.00020  -0.00028   1.97778
    A7        1.89326   0.00000  -0.00000  -0.00008  -0.00008   1.89318
    A8        1.90598  -0.00003   0.00008  -0.00041  -0.00033   1.90565
    A9        1.99325  -0.00005  -0.00022   0.00001  -0.00020   1.99305
   A10        1.86252   0.00001  -0.00004   0.00031   0.00027   1.86279
   A11        1.87053   0.00001   0.00001   0.00008   0.00009   1.87061
   A12        1.93310   0.00005   0.00019   0.00011   0.00030   1.93340
   A13        1.96179   0.00001  -0.00001   0.00022   0.00020   1.96200
   A14        1.93262   0.00002   0.00001   0.00029   0.00030   1.93292
   A15        1.93285  -0.00002   0.00006  -0.00003   0.00002   1.93287
   A16        1.91146   0.00001   0.00008   0.00001   0.00009   1.91156
   A17        1.96348   0.00000  -0.00007   0.00010   0.00004   1.96352
   A18        1.93212  -0.00003  -0.00005  -0.00014  -0.00018   1.93194
   A19        1.88714   0.00000   0.00001   0.00004   0.00005   1.88720
   A20        1.87871   0.00000   0.00001  -0.00001  -0.00001   1.87870
   A21        1.88844   0.00001   0.00001  -0.00001   0.00001   1.88845
   A22        1.96603   0.00000  -0.00016   0.00021   0.00005   1.96608
   A23        1.91799   0.00002   0.00006   0.00004   0.00010   1.91810
   A24        1.91823  -0.00001   0.00003  -0.00010  -0.00007   1.91817
   A25        1.88607  -0.00001   0.00004  -0.00012  -0.00009   1.88598
   A26        1.88680  -0.00000   0.00002  -0.00007  -0.00006   1.88674
   A27        1.88667   0.00000   0.00002   0.00004   0.00006   1.88672
   A28        1.93929   0.00001   0.00002   0.00004   0.00006   1.93935
   A29        1.93412  -0.00001   0.00001  -0.00006  -0.00004   1.93408
   A30        1.93726  -0.00007  -0.00004  -0.00042  -0.00046   1.93680
   A31        1.88478   0.00000  -0.00000   0.00007   0.00007   1.88484
   A32        1.89338   0.00003  -0.00001   0.00016   0.00014   1.89353
   A33        1.87273   0.00004   0.00002   0.00024   0.00025   1.87299
    D1       -3.01010  -0.00001   0.00143  -0.00022   0.00121  -3.00889
    D2       -0.98649  -0.00001   0.00141  -0.00011   0.00130  -0.98519
    D3        1.18847   0.00000   0.00156  -0.00028   0.00129   1.18976
    D4       -1.00942   0.00001   0.00142   0.00026   0.00168  -1.00775
    D5        1.01418   0.00001   0.00140   0.00037   0.00177   1.01595
    D6       -3.09404   0.00002   0.00155   0.00020   0.00175  -3.09229
    D7        1.11330   0.00001   0.00148  -0.00005   0.00143   1.11473
    D8        3.13690   0.00001   0.00146   0.00006   0.00153   3.13842
    D9       -0.97132   0.00002   0.00161  -0.00010   0.00151  -0.96982
   D10        1.01808   0.00001  -0.00026   0.00035   0.00009   1.01817
   D11        3.11363   0.00002  -0.00024   0.00043   0.00019   3.11382
   D12       -1.09046   0.00002  -0.00024   0.00042   0.00018  -1.09028
   D13       -1.00589  -0.00002  -0.00026  -0.00027  -0.00053  -1.00641
   D14        1.08967  -0.00002  -0.00024  -0.00019  -0.00043   1.08923
   D15       -3.11443  -0.00002  -0.00023  -0.00021  -0.00044  -3.11487
   D16       -3.10320   0.00000  -0.00027   0.00014  -0.00013  -3.10333
   D17       -1.00765   0.00001  -0.00025   0.00022  -0.00004  -1.00768
   D18        1.07145   0.00001  -0.00025   0.00020  -0.00004   1.07140
   D19       -1.12878   0.00001  -0.00012   0.00049   0.00037  -1.12840
   D20        2.98239   0.00001  -0.00019   0.00015  -0.00003   2.98235
   D21        3.05703   0.00002   0.00002   0.00053   0.00054   3.05757
   D22        0.88501   0.00002  -0.00005   0.00019   0.00013   0.88514
   D23        1.03168  -0.00003  -0.00003   0.00005   0.00001   1.03169
   D24       -1.14034  -0.00003  -0.00010  -0.00029  -0.00039  -1.14074
   D25       -3.12364  -0.00001   0.00011  -0.00022  -0.00011  -3.12376
   D26       -1.02453  -0.00000   0.00014  -0.00009   0.00005  -1.02448
   D27        1.09070  -0.00001   0.00008  -0.00013  -0.00005   1.09065
   D28       -0.95175   0.00001   0.00016   0.00029   0.00045  -0.95130
   D29        1.14737   0.00002   0.00019   0.00042   0.00061   1.14798
   D30       -3.02059   0.00001   0.00013   0.00039   0.00051  -3.02008
   D31        1.09366   0.00000  -0.00001   0.00002   0.00002   1.09368
   D32       -3.08557   0.00000  -0.00002   0.00003   0.00001  -3.08556
   D33       -1.01139   0.00001   0.00006   0.00004   0.00010  -1.01129
   D34       -1.09476  -0.00001  -0.00003  -0.00045  -0.00048  -1.09524
   D35        1.00920  -0.00001  -0.00005  -0.00044  -0.00049   1.00871
   D36        3.08337  -0.00000   0.00003  -0.00042  -0.00040   3.08298
         Item               Value     Threshold  Converged?
 Maximum Force            0.000074     0.000450     YES
 RMS     Force            0.000027     0.000300     YES
 Maximum Displacement     0.004616     0.001800     NO 
 RMS     Displacement     0.001118     0.001200     YES
 Predicted change in Energy=-2.326728D-07
 Lowest energy point so far.  Saving SCF results.
 GradGradGradGradGradGradGradGradGradGradGradGradGradGradGradGradGradGrad

 Leave Link  103 at Fri Sep 18 08:02:56 2026, MaxMem=  4294967296 cpu:               0.2 elap:               0.0
 (Enter /opt/apps/Gaussian/G16C/g16/l202.exe)
                          Input orientation:                          
 ---------------------------------------------------------------------
 Center     Atomic      Atomic             Coordinates (Angstroms)
 Number     Number       Type             X           Y           Z
 ---------------------------------------------------------------------
      1          6           0       -6.942228   -0.515066   -2.251755
      2          1           0       -5.949584   -0.170064   -2.549445
      3          1           0       -7.541059   -0.516111   -3.165325
      4          6           0       -6.871876   -1.954636   -1.751954
      5          1           0       -7.890988   -2.315690   -1.591482
      6          1           0       -6.428999   -2.591428   -2.539608
      7          7           0       -6.156107   -2.115281   -0.495178
      8          6           0       -4.753233   -1.772516   -0.610717
      9          1           0       -4.260412   -1.926554    0.349048
     10          1           0       -4.230066   -2.382951   -1.367403
     11          1           0       -4.634160   -0.723567   -0.878293
     12          6           0       -6.315023   -3.460606    0.017518
     13          1           0       -5.888715   -4.224976   -0.655180
     14          1           0       -5.821685   -3.549437    0.985674
     15          1           0       -7.373416   -3.682743    0.155037
     16          6           0       -7.545288    0.447487   -1.235702
     17          1           0       -7.613822    1.456460   -1.643083
     18          1           0       -8.549957    0.130323   -0.949689
     19          1           0       -6.945134    0.481738   -0.327123
 ---------------------------------------------------------------------
                    Distance matrix (angstroms):
                    1          2          3          4          5
     1  C    0.000000
     2  H    1.092239   0.000000
     3  H    1.092341   1.741221   0.000000
     4  C    1.525488   2.161322   2.124800   0.000000
     5  H    2.139709   3.048025   2.416178   1.093023   0.000000
     6  H    2.158134   2.468388   2.436214   1.105460   1.764196
     7  N    2.502845   2.836641   3.406628   1.455204   2.062003
     8  C    3.010962   2.785279   3.984539   2.413347   3.332033
     9  H    3.993571   3.786796   5.010270   3.351827   4.134993
    10  H    3.409823   3.041519   4.204794   2.703792   3.668390
    11  H    2.693891   2.197603   3.704540   2.699294   3.694648
    12  C    3.770835   4.189333   4.505963   2.389364   2.526535
    13  H    4.174011   4.475964   4.773546   2.706281   2.920809
    14  H    4.576459   4.892197   5.421080   3.337799   3.527872
    15  H    4.001594   4.656226   4.591347   2.621929   2.277508
    16  C    1.523993   2.157211   2.156846   2.547587   2.807354
    17  H    2.169893   2.497351   2.492700   3.492552   3.782671
    18  H    2.167186   3.067799   2.518887   2.794037   2.613258
    19  H    2.167449   2.520849   3.066956   2.823372   3.212297
                    6          7          8          9         10
     6  H    0.000000
     7  N    2.116809   0.000000
     8  C    2.683175   1.448756   0.000000
     9  H    3.672759   2.083746   1.089838   0.000000
    10  H    2.500566   2.131210   1.104042   1.776351   0.000000
    11  H    3.077388   2.097610   1.089068   1.758758   1.776535
    12  C    2.703212   1.448452   2.384013   2.585470   2.725141
    13  H    2.551755   2.132584   2.702935   2.990416   2.579037
    14  H    3.703272   2.088437   2.616773   2.340217   3.070979
    15  H    3.056797   2.088435   3.331773   3.579474   3.726652
    16  C    3.490169   3.007653   3.621408   4.351771   4.361126
    17  H    4.311956   4.024916   4.435656   5.163209   5.125123
    18  H    3.799241   3.313583   4.260377   4.931293   5.015226
    19  H    3.821758   2.719432   3.156979   3.669443   4.081693
                   11         12         13         14         15
    11  H    0.000000
    12  C    3.334541   0.000000
    13  H    3.726064   1.103867   0.000000
    14  H    3.587497   1.090230   1.775739   0.000000
    15  H    4.162694   1.090162   1.776178   1.765106   0.000000
    16  C    3.158128   4.284543   4.991307   4.886791   4.361479
    17  H    3.770386   5.349955   6.019191   5.931368   5.449995
    18  H    4.008453   4.338800   5.112491   4.972900   4.140548
    19  H    2.664048   4.007231   4.834956   4.385881   4.214120
                   16         17         18         19
    16  C    0.000000
    17  H    1.090267   0.000000
    18  H    1.091676   1.765158   0.000000
    19  H    1.089437   1.768891   1.756854   0.000000
 Stoichiometry    C5H13N
 Framework group  C1[X(C5H13N)]
 Deg. of freedom    51
 Full point group                 C1      NOp   1
 RotChk:  IX=0 Diff= 2.50D-03
 Largest Abelian subgroup         C1      NOp   1
 Largest concise Abelian subgroup C1      NOp   1
                         Standard orientation:                         
 ---------------------------------------------------------------------
 Center     Atomic      Atomic             Coordinates (Angstroms)
 Number     Number       Type             X           Y           Z
 ---------------------------------------------------------------------
      1          6           0        1.561376   -0.026708    0.618769
      2          1           0        1.540501    0.983383    1.033819
      3          1           0        2.184971   -0.612478    1.297895
      4          6           0        0.163163   -0.636163    0.644819
      5          1           0        0.237911   -1.686908    0.353187
      6          1           0       -0.220872   -0.620133    1.681305
      7          7           0       -0.780134   -0.003669   -0.264993
      8          6           0       -1.050662    1.374597    0.090101
      9          1           0       -1.773612    1.795515   -0.608411
     10          1           0       -1.459963    1.475495    1.110494
     11          1           0       -0.143262    1.973504    0.026813
     12          6           0       -2.010033   -0.765082   -0.339894
     13          1           0       -2.536966   -0.817826    0.628652
     14          1           0       -2.683805   -0.311127   -1.066913
     15          1           0       -1.796831   -1.783430   -0.665417
     16          6           0        2.184502   -0.005744   -0.771853
     17          1           0        3.195788    0.400643   -0.743033
     18          1           0        2.237753   -1.013457   -1.188311
     19          1           0        1.589258    0.597107   -1.456782
 ---------------------------------------------------------------------
 Rotational constants (GHZ):           5.8266031           2.1297445           1.9534834
 Leave Link  202 at Fri Sep 18 08:02:56 2026, MaxMem=  4294967296 cpu:               0.0 elap:               0.0
 (Enter /opt/apps/Gaussian/G16C/g16/l301.exe)
 Standard basis: 6-311+G(2d,2p) (5D, 7F)
 Ernie: Thresh=  0.10000D-02 Tol=  0.10000D-05 Strict=F.
 There are   291 symmetry adapted cartesian basis functions of A   symmetry.
 There are   279 symmetry adapted basis functions of A   symmetry.
   279 basis functions,   395 primitive gaussians,   291 cartesian basis functions
    25 alpha electrons       25 beta electrons
       nuclear repulsion energy       264.6997229416 Hartrees.
 IExCor= 4639 DFT=T Ex+Corr=wB97XD ExCW=0 ScaHFX=  1.000000
 ScaDFX=  1.000000  1.000000  1.000000  1.000000 ScalE2=  1.000000  1.000000
 IRadAn=      5 IRanWt=     -1 IRanGd=            0 ICorTp=0 IEmpDi=121
 HFx  wShort=  0.000000 wLong=  0.200000 cFull=  0.222036 cShort=  0.000000 cLong=  0.777964
 DFx  wShort=  0.000000 wLong=  0.200000 cFull=  0.000000 cShort=  0.000000 cLong=  1.000000
 NAtoms=   19 NActive=   19 NUniq=   19 SFac= 1.00D+00 NAtFMM=   60 NAOKFM=F Big=F
 Integral buffers will be    131072 words long.
 Raffenetti 2 integral format.
 Two-electron integral symmetry is turned on.
 R6Disp:  Grimme-D2 Dispersion energy=       -0.0112941852 Hartrees.
 Nuclear repulsion after empirical dispersion term =      264.6884287564 Hartrees.
 Leave Link  301 at Fri Sep 18 08:02:56 2026, MaxMem=  4294967296 cpu:               0.0 elap:               0.0
 (Enter /opt/apps/Gaussian/G16C/g16/l302.exe)
 NPDir=0 NMtPBC=     1 NCelOv=     1 NCel=       1 NClECP=     1 NCelD=      1
         NCelK=      1 NCelE2=     1 NClLst=     1 CellRange=     0.0.
 One-electron integrals computed using PRISM.
 One-electron integral symmetry used in STVInt
 NBasis=   279 RedAO= T EigKep=  3.49D-05  NBF=   279
 NBsUse=   279 1.00D-06 EigRej= -1.00D+00 NBFU=   279
 Precomputing XC quadrature grid using
 IXCGrd= 4 IRadAn=           5 IRanWt=          -1 IRanGd=           0 AccXCQ= 0.00D+00.
 Generated NRdTot=       0 NPtTot=           0 NUsed=           0 NTot=          32
 NSgBfM=   291   291   291   291   291 MxSgAt=    19 MxSgA2=    19.
 Leave Link  302 at Fri Sep 18 08:02:57 2026, MaxMem=  4294967296 cpu:               2.0 elap:               0.2
 (Enter /opt/apps/Gaussian/G16C/g16/l303.exe)
 DipDrv:  MaxL=1.
 Leave Link  303 at Fri Sep 18 08:02:57 2026, MaxMem=  4294967296 cpu:               0.1 elap:               0.0
 (Enter /opt/apps/Gaussian/G16C/g16/l401.exe)
 Initial guess from the checkpoint file:  "aminopropyl.chk"
 B after Tr=     0.000000   -0.000000   -0.000000
         Rot=    1.000000   -0.000842   -0.000094    0.000127 Ang=  -0.10 deg.
 Guess basis will be translated and rotated to current coordinates.
 JPrj=2 DoOrth=T DoCkMO=T.
 Leave Link  401 at Fri Sep 18 08:02:57 2026, MaxMem=  4294967296 cpu:               0.6 elap:               0.1
 (Enter /opt/apps/Gaussian/G16C/g16/l502.exe)
 Integral symmetry usage will be decided dynamically.
 Closed shell SCF:
 Using DIIS extrapolation, IDIIS=  1040.
 NGot=  4294967296 LenX=  4294789954 LenY=  4294704832
 Requested convergence on RMS density matrix=1.00D-08 within  32 cycles.
 Requested convergence on MAX density matrix=1.00D-06.
 Requested convergence on             energy=1.00D-06.
 No special actions if energy rises.
 Fock matrices will be formed incrementally for  20 cycles.

 Cycle   1  Pass 1  IDiag  1:
 FoFJK:  IHMeth= 1 ICntrl=       0 DoSepK=T KAlg= 0 I1Cent=           0 FoldK=F
 IRaf=         1 NMat=       1 IRICut=       1 DoRegI=T DoRafI=F ISym2E= 0 IDoP0=0 IntGTp=1.
 FoFCou: FMM=F IPFlag=           0 FMFlag=      100000 FMFlg1=           0
         NFxFlg=           0 DoJE=T BraDBF=F KetDBF=F FulRan=T
         wScrn=  0.000000 ICntrl=       500 IOpCl=  0 I1Cent=           0 NGrid=           0
         NMat0=    1 NMatS0=      1 NMatT0=    0 NMatD0=    1 NMtDS0=    0 NMtDT0=    0
 Symmetry not used in FoFCou.
 E= -253.104336714921    
 DIIS: error= 3.99D-05 at cycle   1 NSaved=   1.
 NSaved= 1 IEnMin= 1 EnMin= -253.104336714921     IErMin= 1 ErrMin= 3.99D-05
 ErrMax= 3.99D-05  0.00D+00 EMaxC= 1.00D-01 BMatC= 8.47D-07 BMatP= 8.47D-07
 IDIUse=1 WtCom= 1.00D+00 WtEn= 0.00D+00
 Coeff-Com:  0.100D+01
 Coeff:      0.100D+01
 Gap=     0.629 Goal=   None    Shift=    0.000
 RMSDP=4.57D-06 MaxDP=1.26D-04              OVMax= 2.42D-04

 Cycle   2  Pass 1  IDiag  1:
 RMSU=  4.57D-06    CP:  1.00D+00
 E= -253.104337927511     Delta-E=       -0.000001212590 Rises=F Damp=F
 DIIS: error= 7.24D-06 at cycle   2 NSaved=   2.
 NSaved= 2 IEnMin= 2 EnMin= -253.104337927511     IErMin= 2 ErrMin= 7.24D-06
 ErrMax= 7.24D-06  0.00D+00 EMaxC= 1.00D-01 BMatC= 2.87D-08 BMatP= 8.47D-07
 IDIUse=1 WtCom= 1.00D+00 WtEn= 0.00D+00
 Coeff-Com: -0.162D+00 0.116D+01
 Coeff:     -0.162D+00 0.116D+01
 Gap=     0.359 Goal=   None    Shift=    0.000
 RMSDP=1.10D-06 MaxDP=2.96D-05 DE=-1.21D-06 OVMax= 7.79D-05

 Cycle   3  Pass 1  IDiag  1:
 RMSU=  7.43D-07    CP:  1.00D+00  1.18D+00
 E= -253.104337994740     Delta-E=       -0.000000067229 Rises=F Damp=F
 DIIS: error= 1.87D-06 at cycle   3 NSaved=   3.
 NSaved= 3 IEnMin= 3 EnMin= -253.104337994740     IErMin= 3 ErrMin= 1.87D-06
 ErrMax= 1.87D-06  0.00D+00 EMaxC= 1.00D-01 BMatC= 2.35D-09 BMatP= 2.87D-08
 IDIUse=1 WtCom= 1.00D+00 WtEn= 0.00D+00
 Coeff-Com: -0.435D-01 0.215D+00 0.829D+00
 Coeff:     -0.435D-01 0.215D+00 0.829D+00
 Gap=     0.359 Goal=   None    Shift=    0.000
 RMSDP=2.55D-07 MaxDP=1.03D-05 DE=-6.72D-08 OVMax= 1.28D-05

 Cycle   4  Pass 1  IDiag  1:
 RMSU=  2.15D-07    CP:  1.00D+00  1.19D+00  1.16D+00
 E= -253.104337997472     Delta-E=       -0.000000002732 Rises=F Damp=F
 DIIS: error= 1.15D-06 at cycle   4 NSaved=   4.
 NSaved= 4 IEnMin= 4 EnMin= -253.104337997472     IErMin= 4 ErrMin= 1.15D-06
 ErrMax= 1.15D-06  0.00D+00 EMaxC= 1.00D-01 BMatC= 5.91D-10 BMatP= 2.35D-09
 IDIUse=1 WtCom= 1.00D+00 WtEn= 0.00D+00
 Coeff-Com:  0.743D-02-0.911D-01 0.303D+00 0.780D+00
 Coeff:      0.743D-02-0.911D-01 0.303D+00 0.780D+00
 Gap=     0.359 Goal=   None    Shift=    0.000
 RMSDP=1.41D-07 MaxDP=5.28D-06 DE=-2.73D-09 OVMax= 7.37D-06

 Cycle   5  Pass 1  IDiag  1:
 RMSU=  9.05D-08    CP:  1.00D+00  1.20D+00  1.28D+00  1.18D+00
 E= -253.104337998098     Delta-E=       -0.000000000627 Rises=F Damp=F
 DIIS: error= 3.36D-07 at cycle   5 NSaved=   5.
 NSaved= 5 IEnMin= 5 EnMin= -253.104337998098     IErMin= 5 ErrMin= 3.36D-07
 ErrMax= 3.36D-07  0.00D+00 EMaxC= 1.00D-01 BMatC= 3.60D-11 BMatP= 5.91D-10
 IDIUse=1 WtCom= 1.00D+00 WtEn= 0.00D+00
 Coeff-Com:  0.467D-02-0.438D-01 0.750D-01 0.288D+00 0.677D+00
 Coeff:      0.467D-02-0.438D-01 0.750D-01 0.288D+00 0.677D+00
 Gap=     0.359 Goal=   None    Shift=    0.000
 RMSDP=4.03D-08 MaxDP=1.79D-06 DE=-6.27D-10 OVMax= 2.32D-06

 Cycle   6  Pass 1  IDiag  1:
 RMSU=  2.35D-08    CP:  1.00D+00  1.20D+00  1.31D+00  1.28D+00  1.19D+00
 E= -253.104337998124     Delta-E=       -0.000000000026 Rises=F Damp=F
 DIIS: error= 1.01D-07 at cycle   6 NSaved=   6.
 NSaved= 6 IEnMin= 6 EnMin= -253.104337998124     IErMin= 6 ErrMin= 1.01D-07
 ErrMax= 1.01D-07  0.00D+00 EMaxC= 1.00D-01 BMatC= 3.71D-12 BMatP= 3.60D-11
 IDIUse=1 WtCom= 1.00D+00 WtEn= 0.00D+00
 Coeff-Com:  0.423D-03-0.117D-02-0.175D-01-0.212D-01 0.213D+00 0.827D+00
 Coeff:      0.423D-03-0.117D-02-0.175D-01-0.212D-01 0.213D+00 0.827D+00
 Gap=     0.359 Goal=   None    Shift=    0.000
 RMSDP=2.76D-08 MaxDP=1.43D-06 DE=-2.59D-11 OVMax= 1.08D-06

 Cycle   7  Pass 1  IDiag  1:
 RMSU=  8.11D-09    CP:  1.00D+00  1.20D+00  1.32D+00  1.35D+00  1.39D+00
                    CP:  1.18D+00
 E= -253.104337998120     Delta-E=        0.000000000004 Rises=F Damp=F
 DIIS: error= 2.08D-08 at cycle   7 NSaved=   7.
 NSaved= 7 IEnMin= 6 EnMin= -253.104337998124     IErMin= 7 ErrMin= 2.08D-08
 ErrMax= 2.08D-08  0.00D+00 EMaxC= 1.00D-01 BMatC= 2.03D-13 BMatP= 3.71D-12
 IDIUse=1 WtCom= 1.00D+00 WtEn= 0.00D+00
 Coeff-Com: -0.348D-03 0.390D-02-0.112D-01-0.322D-01-0.132D-01 0.192D+00
 Coeff-Com:  0.861D+00
 Coeff:     -0.348D-03 0.390D-02-0.112D-01-0.322D-01-0.132D-01 0.192D+00
 Coeff:      0.861D+00
 Gap=     0.359 Goal=   None    Shift=    0.000
 RMSDP=1.02D-08 MaxDP=5.37D-07 DE= 4.09D-12 OVMax= 3.97D-07

 Cycle   8  Pass 1  IDiag  1:
 RMSU=  2.52D-09    CP:  1.00D+00  1.20D+00  1.32D+00  1.37D+00  1.47D+00
                    CP:  1.33D+00  1.26D+00
 E= -253.104337998125     Delta-E=       -0.000000000005 Rises=F Damp=F
 DIIS: error= 5.27D-09 at cycle   8 NSaved=   8.
 NSaved= 8 IEnMin= 8 EnMin= -253.104337998125     IErMin= 8 ErrMin= 5.27D-09
 ErrMax= 5.27D-09  0.00D+00 EMaxC= 1.00D-01 BMatC= 9.91D-15 BMatP= 2.03D-13
 IDIUse=1 WtCom= 1.00D+00 WtEn= 0.00D+00
 Coeff-Com: -0.668D-04 0.545D-03-0.282D-03-0.264D-02-0.126D-01-0.295D-01
 Coeff-Com:  0.954D-01 0.949D+00
 Coeff:     -0.668D-04 0.545D-03-0.282D-03-0.264D-02-0.126D-01-0.295D-01
 Coeff:      0.954D-01 0.949D+00
 Gap=     0.359 Goal=   None    Shift=    0.000
 RMSDP=2.81D-09 MaxDP=1.57D-07 DE=-4.89D-12 OVMax= 1.38D-07

 SCF Done:  E(RwB97XD) =  -253.104337998     A.U. after    8 cycles
            NFock=  8  Conv=0.28D-08     -V/T= 2.0047
 KE= 2.519217657955D+02 PE=-1.116139164651D+03 EE= 3.464246321006D+02
 Leave Link  502 at Fri Sep 18 08:03:10 2026, MaxMem=  4294967296 cpu:             203.6 elap:              13.6
 (Enter /opt/apps/Gaussian/G16C/g16/l508.exe)
 QCSCF skips out because SCF is already converged.
 Leave Link  508 at Fri Sep 18 08:03:10 2026, MaxMem=  4294967296 cpu:               0.0 elap:               0.0
 (Enter /opt/apps/Gaussian/G16C/g16/l701.exe)
 ... and contract with generalized density number  0.
 Compute integral first derivatives.
 R6Disp: Adding Grimme-D2 dispersion energy 1st derivatives to the gradient.
 Leave Link  701 at Fri Sep 18 08:03:10 2026, MaxMem=  4294967296 cpu:               0.9 elap:               0.1
 (Enter /opt/apps/Gaussian/G16C/g16/l702.exe)
 L702 exits ... SP integral derivatives will be done elsewhere.
 Leave Link  702 at Fri Sep 18 08:03:10 2026, MaxMem=  4294967296 cpu:               0.0 elap:               0.0
 (Enter /opt/apps/Gaussian/G16C/g16/l703.exe)
 Integral derivatives from FoFJK, PRISM(SPDF).
 Compute integral first derivatives, UseDBF=F ICtDFT=           0.
 Calling FoFJK, ICntrl=      2127 FMM=F ISym2X=0 I1Cent= 0 IOpClX= 0 NMat=1 NMatS=1 NMatT=0.
 FoFJK:  IHMeth= 1 ICntrl=    2127 DoSepK=T KAlg= 0 I1Cent=           0 FoldK=F
 IRaf=         1 NMat=       1 IRICut=       1 DoRegI=T DoRafI=F ISym2E= 0 IDoP0=0 IntGTp=1.
 FoFCou: FMM=F IPFlag=           0 FMFlag=      100000 FMFlg1=         800
         NFxFlg=           0 DoJE=F BraDBF=F KetDBF=F FulRan=T
         wScrn=  0.000000 ICntrl=      2527 IOpCl=  0 I1Cent=           0 NGrid=           0
         NMat0=    1 NMatS0=      1 NMatT0=    0 NMatD0=    1 NMtDS0=    0 NMtDT0=    0
 Symmetry not used in FoFCou.
 Leave Link  703 at Fri Sep 18 08:03:16 2026, MaxMem=  4294967296 cpu:              91.2 elap:               5.9
 (Enter /opt/apps/Gaussian/G16C/g16/l716.exe)
 Dipole        =-9.68698858D-02 9.74530186D-04 2.10873107D-01
 ***** Axes restored to original set *****
 -------------------------------------------------------------------
 Center     Atomic                   Forces (Hartrees/Bohr)
 Number     Number              X              Y              Z
 -------------------------------------------------------------------
      1        6           0.000015011    0.000036335   -0.000053791
      2        1          -0.000006210   -0.000005272    0.000010819
      3        1           0.000001122   -0.000011828    0.000012970
      4        6           0.000016341   -0.000043708    0.000065382
      5        1           0.000002906    0.000008395   -0.000001163
      6        1           0.000002311    0.000002206   -0.000013959
      7        7          -0.000006079   -0.000016479   -0.000034747
      8        6          -0.000006097    0.000008543    0.000003848
      9        1          -0.000003744   -0.000002103   -0.000000368
     10        1           0.000000740   -0.000002271   -0.000003491
     11        1           0.000003138    0.000004916   -0.000001223
     12        6          -0.000013162    0.000030329    0.000003929
     13        1           0.000002681   -0.000008939   -0.000005089
     14        1           0.000000387   -0.000002574    0.000000568
     15        1          -0.000005408   -0.000007934    0.000000010
     16        6          -0.000012111    0.000016851    0.000030536
     17        1           0.000000561   -0.000001054   -0.000003118
     18        1           0.000004534   -0.000001076   -0.000006923
     19        1           0.000003078   -0.000004337   -0.000004188
 -------------------------------------------------------------------
 Cartesian Forces:  Max     0.000065382 RMS     0.000016855
 Leave Link  716 at Fri Sep 18 08:03:16 2026, MaxMem=  4294967296 cpu:               0.0 elap:               0.0
 (Enter /opt/apps/Gaussian/G16C/g16/l103.exe)

 GradGradGradGradGradGradGradGradGradGradGradGradGradGradGradGradGradGrad
 Berny optimization.
 Using GEDIIS/GDIIS optimizer.
 FormGI is forming the generalized inverse of G from B-inverse, IUseBI=4.
 Internal  Forces:  Max     0.000044527 RMS     0.000007697
 Search for a local minimum.
 Step number   7 out of a maximum of   97
 All quantities printed in internal units (Hartrees-Bohrs-Radians)
 RMS Force = .76969D-05 SwitMx=.10000D-02 MixMth= 2
 Mixed Optimization -- En-DIIS/RFO-DIIS
 Swapping is turned off.
 Update second derivatives using D2CorX and points    1    2    3    4    5
                                                      6    7
 DE= -2.22D-07 DEPred=-2.33D-07 R= 9.56D-01
 Trust test= 9.56D-01 RLast= 4.99D-03 DXMaxT set to 9.31D-01
 ITU=  0  1  1  1  1  1  0
     Eigenvalues ---    0.00237   0.00368   0.00688   0.00765   0.00769
     Eigenvalues ---    0.02332   0.03519   0.04334   0.04469   0.05386
     Eigenvalues ---    0.05423   0.05491   0.07109   0.07168   0.07431
     Eigenvalues ---    0.07480   0.08420   0.09369   0.12272   0.12981
     Eigenvalues ---    0.14746   0.15618   0.15993   0.16000   0.16000
     Eigenvalues ---    0.16010   0.16038   0.16185   0.16470   0.17868
     Eigenvalues ---    0.18973   0.21899   0.26016   0.27997   0.29652
     Eigenvalues ---    0.31521   0.35442   0.36655   0.37071   0.37132
     Eigenvalues ---    0.37211   0.37230   0.37230   0.37230   0.37230
     Eigenvalues ---    0.37230   0.37230   0.37294   0.37574   0.38867
     Eigenvalues ---    0.39378
 En-DIIS/RFO-DIIS/Sim-DIIS IScMMF=       -3 using points:     7    6    5    4    3
 RFO step:  Lambda=-3.37795666D-08.
 NNeg= 0 NGDIIS= 5 SimSw=  2.50D-01 Rises=F DC= -2.22D-07 SmlDif=  1.00D-05
 NRisDI= 0 DoIntr=F SqrtH=F CThrHd= 10.0 CDAdj=  3.0
 RMS Error=  0.9491214250D-04 NUsed= 5 OKEnD=F EnDIS=F
 InvSVX:  RCond= 4.07D-07 Info=           0 Equed=N FErr=  7.17D-15 BErr=  7.81D-17
 DidBck=F Rises=F RFO-DIIS coefs:    1.21699   -0.19913   -0.01062   -0.00854    0.00131
 Iteration  1 RMS(Cart)=  0.00015205 RMS(Int)=  0.00000006
 Iteration  2 RMS(Cart)=  0.00000002 RMS(Int)=  0.00000006
 ITry= 1 IFail=0 DXMaxC= 4.34D-04 DCOld= 1.00D+10 DXMaxT= 9.31D-01 DXLimC= 3.00D+00 Rises=F
 Variable       Old X    -DE/DX   Delta X   Delta X   Delta X     New X
                                 (Linear)    (Quad)   (Total)
    R1        2.06403  -0.00001   0.00000  -0.00004  -0.00004   2.06400
    R2        2.06423  -0.00001   0.00000  -0.00004  -0.00004   2.06419
    R3        2.88275   0.00003   0.00011   0.00005   0.00016   2.88291
    R4        2.87993   0.00002   0.00005   0.00004   0.00009   2.88002
    R5        2.06552  -0.00001   0.00000  -0.00002  -0.00002   2.06550
    R6        2.08902   0.00001   0.00004  -0.00000   0.00004   2.08906
    R7        2.74994  -0.00004  -0.00006  -0.00011  -0.00017   2.74977
    R8        2.73775  -0.00000   0.00001  -0.00002  -0.00001   2.73774
    R9        2.73718  -0.00001  -0.00003  -0.00002  -0.00005   2.73713
   R10        2.05950  -0.00000   0.00002  -0.00002  -0.00000   2.05949
   R11        2.08634   0.00000   0.00004  -0.00002   0.00002   2.08636
   R12        2.05804   0.00001   0.00002   0.00001   0.00002   2.05806
   R13        2.08601   0.00001   0.00005  -0.00000   0.00004   2.08605
   R14        2.06024   0.00000   0.00004  -0.00002   0.00001   2.06025
   R15        2.06011   0.00001   0.00003  -0.00000   0.00002   2.06013
   R16        2.06031  -0.00000   0.00004  -0.00003   0.00001   2.06031
   R17        2.06297  -0.00000   0.00003  -0.00004  -0.00001   2.06296
   R18        2.05874  -0.00000   0.00001  -0.00002  -0.00001   2.05873
    A1        1.84479   0.00000   0.00012   0.00003   0.00015   1.84494
    A2        1.92353   0.00000  -0.00004   0.00002  -0.00002   1.92351
    A3        1.91967   0.00000  -0.00000   0.00002   0.00001   1.91968
    A4        1.87380  -0.00001  -0.00002  -0.00009  -0.00011   1.87370
    A5        1.91906   0.00001   0.00001   0.00005   0.00005   1.91911
    A6        1.97778  -0.00001  -0.00006  -0.00002  -0.00008   1.97770
    A7        1.89318  -0.00000  -0.00004  -0.00004  -0.00007   1.89310
    A8        1.90565  -0.00001  -0.00009  -0.00001  -0.00010   1.90555
    A9        1.99305   0.00000   0.00001  -0.00001   0.00000   1.99305
   A10        1.86279   0.00000   0.00007  -0.00002   0.00005   1.86284
   A11        1.87061   0.00000   0.00001   0.00001   0.00002   1.87063
   A12        1.93340   0.00001   0.00004   0.00008   0.00011   1.93351
   A13        1.96200  -0.00000   0.00006  -0.00002   0.00004   1.96204
   A14        1.93292  -0.00000   0.00007  -0.00001   0.00006   1.93298
   A15        1.93287   0.00001  -0.00000   0.00013   0.00013   1.93300
   A16        1.91156  -0.00000  -0.00000  -0.00002  -0.00003   1.91153
   A17        1.96352  -0.00000   0.00002  -0.00003  -0.00001   1.96351
   A18        1.93194   0.00000  -0.00002   0.00005   0.00003   1.93197
   A19        1.88720   0.00000   0.00000   0.00000   0.00001   1.88720
   A20        1.87870   0.00000  -0.00001   0.00001   0.00001   1.87871
   A21        1.88845  -0.00000  -0.00000  -0.00001  -0.00001   1.88844
   A22        1.96608   0.00000   0.00006  -0.00006   0.00001   1.96609
   A23        1.91810   0.00000   0.00000   0.00001   0.00001   1.91811
   A24        1.91817   0.00001  -0.00002   0.00009   0.00007   1.91824
   A25        1.88598  -0.00000  -0.00003  -0.00001  -0.00004   1.88593
   A26        1.88674  -0.00001  -0.00002  -0.00003  -0.00005   1.88670
   A27        1.88672  -0.00000   0.00001  -0.00001   0.00000   1.88672
   A28        1.93935  -0.00000   0.00000  -0.00001  -0.00001   1.93934
   A29        1.93408  -0.00001  -0.00002  -0.00004  -0.00006   1.93403
   A30        1.93680  -0.00001  -0.00009   0.00002  -0.00007   1.93674
   A31        1.88484   0.00000   0.00002  -0.00000   0.00002   1.88486
   A32        1.89353   0.00001   0.00004   0.00002   0.00006   1.89358
   A33        1.87299   0.00001   0.00006   0.00001   0.00006   1.87305
    D1       -3.00889  -0.00000   0.00007  -0.00001   0.00006  -3.00883
    D2       -0.98519  -0.00000   0.00009  -0.00007   0.00002  -0.98517
    D3        1.18976   0.00000   0.00007   0.00001   0.00009   1.18984
    D4       -1.00775   0.00000   0.00019  -0.00002   0.00017  -1.00758
    D5        1.01595  -0.00000   0.00020  -0.00007   0.00013   1.01607
    D6       -3.09229   0.00000   0.00019   0.00001   0.00020  -3.09210
    D7        1.11473   0.00000   0.00015  -0.00004   0.00011   1.11484
    D8        3.13842  -0.00000   0.00016  -0.00009   0.00007   3.13849
    D9       -0.96982   0.00000   0.00015  -0.00001   0.00014  -0.96968
   D10        1.01817   0.00000   0.00009  -0.00006   0.00003   1.01821
   D11        3.11382   0.00000   0.00011  -0.00010   0.00001   3.11383
   D12       -1.09028   0.00000   0.00011  -0.00010   0.00001  -1.09027
   D13       -1.00641  -0.00000  -0.00006  -0.00013  -0.00019  -1.00660
   D14        1.08923  -0.00001  -0.00005  -0.00016  -0.00021   1.08902
   D15       -3.11487  -0.00001  -0.00004  -0.00017  -0.00021  -3.11508
   D16       -3.10333   0.00000  -0.00000  -0.00004  -0.00004  -3.10337
   D17       -1.00768   0.00000   0.00001  -0.00007  -0.00006  -1.00774
   D18        1.07140   0.00000   0.00001  -0.00007  -0.00006   1.07134
   D19       -1.12840   0.00001  -0.00000   0.00007   0.00007  -1.12833
   D20        2.98235  -0.00000  -0.00010  -0.00007  -0.00017   2.98218
   D21        3.05757   0.00001   0.00003   0.00012   0.00015   3.05772
   D22        0.88514  -0.00000  -0.00007  -0.00002  -0.00009   0.88505
   D23        1.03169   0.00000  -0.00008   0.00011   0.00003   1.03172
   D24       -1.14074  -0.00001  -0.00018  -0.00004  -0.00022  -1.14096
   D25       -3.12376   0.00000   0.00001   0.00006   0.00007  -3.12369
   D26       -1.02448  -0.00000   0.00002   0.00003   0.00005  -1.02443
   D27        1.09065  -0.00000   0.00003   0.00003   0.00006   1.09071
   D28       -0.95130   0.00000   0.00015   0.00013   0.00028  -0.95102
   D29        1.14798   0.00000   0.00016   0.00010   0.00026   1.14824
   D30       -3.02008   0.00000   0.00016   0.00010   0.00027  -3.01981
   D31        1.09368   0.00000   0.00002   0.00013   0.00016   1.09383
   D32       -3.08556  -0.00000   0.00002   0.00009   0.00011  -3.08545
   D33       -1.01129   0.00000   0.00002   0.00014   0.00016  -1.01113
   D34       -1.09524   0.00000  -0.00011   0.00007  -0.00003  -1.09527
   D35        1.00871  -0.00000  -0.00011   0.00003  -0.00008   1.00863
   D36        3.08298   0.00000  -0.00011   0.00008  -0.00003   3.08295
         Item               Value     Threshold  Converged?
 Maximum Force            0.000045     0.000450     YES
 RMS     Force            0.000008     0.000300     YES
 Maximum Displacement     0.000434     0.001800     YES
 RMS     Displacement     0.000152     0.001200     YES
 Predicted change in Energy=-1.685310D-08
 Optimization completed.
    -- Stationary point found.
                           ----------------------------
                           !   Optimized Parameters   !
                           ! (Angstroms and Degrees)  !
 --------------------------                            --------------------------
 ! Name  Definition              Value          Derivative Info.                !
 --------------------------------------------------------------------------------
 ! R1    R(1,2)                  1.0922         -DE/DX =    0.0                 !
 ! R2    R(1,3)                  1.0923         -DE/DX =    0.0                 !
 ! R3    R(1,4)                  1.5255         -DE/DX =    0.0                 !
 ! R4    R(1,16)                 1.524          -DE/DX =    0.0                 !
 ! R5    R(4,5)                  1.093          -DE/DX =    0.0                 !
 ! R6    R(4,6)                  1.1055         -DE/DX =    0.0                 !
 ! R7    R(4,7)                  1.4552         -DE/DX =    0.0                 !
 ! R8    R(7,8)                  1.4488         -DE/DX =    0.0                 !
 ! R9    R(7,12)                 1.4485         -DE/DX =    0.0                 !
 ! R10   R(8,9)                  1.0898         -DE/DX =    0.0                 !
 ! R11   R(8,10)                 1.104          -DE/DX =    0.0                 !
 ! R12   R(8,11)                 1.0891         -DE/DX =    0.0                 !
 ! R13   R(12,13)                1.1039         -DE/DX =    0.0                 !
 ! R14   R(12,14)                1.0902         -DE/DX =    0.0                 !
 ! R15   R(12,15)                1.0902         -DE/DX =    0.0                 !
 ! R16   R(16,17)                1.0903         -DE/DX =    0.0                 !
 ! R17   R(16,18)                1.0917         -DE/DX =    0.0                 !
 ! R18   R(16,19)                1.0894         -DE/DX =    0.0                 !
 ! A1    A(2,1,3)              105.6987         -DE/DX =    0.0                 !
 ! A2    A(2,1,4)              110.2099         -DE/DX =    0.0                 !
 ! A3    A(2,1,16)             109.9888         -DE/DX =    0.0                 !
 ! A4    A(3,1,4)              107.361          -DE/DX =    0.0                 !
 ! A5    A(3,1,16)             109.9539         -DE/DX =    0.0                 !
 ! A6    A(4,1,16)             113.3185         -DE/DX =    0.0                 !
 ! A7    A(1,4,5)              108.471          -DE/DX =    0.0                 !
 ! A8    A(1,4,6)              109.1858         -DE/DX =    0.0                 !
 ! A9    A(1,4,7)              114.1934         -DE/DX =    0.0                 !
 ! A10   A(5,4,6)              106.73           -DE/DX =    0.0                 !
 ! A11   A(5,4,7)              107.1783         -DE/DX =    0.0                 !
 ! A12   A(6,4,7)              110.7756         -DE/DX =    0.0                 !
 ! A13   A(4,7,8)              112.4141         -DE/DX =    0.0                 !
 ! A14   A(4,7,12)             110.7484         -DE/DX =    0.0                 !
 ! A15   A(8,7,12)             110.7454         -DE/DX =    0.0                 !
 ! A16   A(7,8,9)              109.5241         -DE/DX =    0.0                 !
 ! A17   A(7,8,10)             112.5012         -DE/DX =    0.0                 !
 ! A18   A(7,8,11)             110.6919         -DE/DX =    0.0                 !
 ! A19   A(9,8,10)             108.1285         -DE/DX =    0.0                 !
 ! A20   A(9,8,11)             107.6416         -DE/DX =    0.0                 !
 ! A21   A(10,8,11)            108.2002         -DE/DX =    0.0                 !
 ! A22   A(7,12,13)            112.6481         -DE/DX =    0.0                 !
 ! A23   A(7,12,14)            109.8988         -DE/DX =    0.0                 !
 ! A24   A(7,12,15)            109.9028         -DE/DX =    0.0                 !
 ! A25   A(13,12,14)           108.0587         -DE/DX =    0.0                 !
 ! A26   A(13,12,15)           108.1025         -DE/DX =    0.0                 !
 ! A27   A(14,12,15)           108.1013         -DE/DX =    0.0                 !
 ! A28   A(1,16,17)            111.1164         -DE/DX =    0.0                 !
 ! A29   A(1,16,18)            110.8147         -DE/DX =    0.0                 !
 ! A30   A(1,16,19)            110.9707         -DE/DX =    0.0                 !
 ! A31   A(17,16,18)           107.9936         -DE/DX =    0.0                 !
 ! A32   A(17,16,19)           108.491          -DE/DX =    0.0                 !
 ! A33   A(18,16,19)           107.3142         -DE/DX =    0.0                 !
 ! D1    D(2,1,4,5)           -172.3964         -DE/DX =    0.0                 !
 ! D2    D(2,1,4,6)            -56.4472         -DE/DX =    0.0                 !
 ! D3    D(2,1,4,7)             68.168          -DE/DX =    0.0                 !
 ! D4    D(3,1,4,5)            -57.7397         -DE/DX =    0.0                 !
 ! D5    D(3,1,4,6)             58.2095         -DE/DX =    0.0                 !
 ! D6    D(3,1,4,7)           -177.1753         -DE/DX =    0.0                 !
 ! D7    D(16,1,4,5)            63.8692         -DE/DX =    0.0                 !
 ! D8    D(16,1,4,6)           179.8184         -DE/DX =    0.0                 !
 ! D9    D(16,1,4,7)           -55.5664         -DE/DX =    0.0                 !
 ! D10   D(2,1,16,17)           58.337          -DE/DX =    0.0                 !
 ! D11   D(2,1,16,18)          178.4088         -DE/DX =    0.0                 !
 ! D12   D(2,1,16,19)          -62.4684         -DE/DX =    0.0                 !
 ! D13   D(3,1,16,17)          -57.6633         -DE/DX =    0.0                 !
 ! D14   D(3,1,16,18)           62.4085         -DE/DX =    0.0                 !
 ! D15   D(3,1,16,19)         -178.4687         -DE/DX =    0.0                 !
 ! D16   D(4,1,16,17)         -177.8078         -DE/DX =    0.0                 !
 ! D17   D(4,1,16,18)          -57.736          -DE/DX =    0.0                 !
 ! D18   D(4,1,16,19)           61.3868         -DE/DX =    0.0                 !
 ! D19   D(1,4,7,8)            -64.6527         -DE/DX =    0.0                 !
 ! D20   D(1,4,7,12)           170.8763         -DE/DX =    0.0                 !
 ! D21   D(5,4,7,8)            175.1859         -DE/DX =    0.0                 !
 ! D22   D(5,4,7,12)            50.7149         -DE/DX =    0.0                 !
 ! D23   D(6,4,7,8)             59.1116         -DE/DX =    0.0                 !
 ! D24   D(6,4,7,12)           -65.3594         -DE/DX =    0.0                 !
 ! D25   D(4,7,8,9)           -178.978          -DE/DX =    0.0                 !
 ! D26   D(4,7,8,10)           -58.6984         -DE/DX =    0.0                 !
 ! D27   D(4,7,8,11)            62.4897         -DE/DX =    0.0                 !
 ! D28   D(12,7,8,9)           -54.5053         -DE/DX =    0.0                 !
 ! D29   D(12,7,8,10)           65.7743         -DE/DX =    0.0                 !
 ! D30   D(12,7,8,11)         -173.0377         -DE/DX =    0.0                 !
 ! D31   D(4,7,12,13)           62.6631         -DE/DX =    0.0                 !
 ! D32   D(4,7,12,14)         -176.7895         -DE/DX =    0.0                 !
 ! D33   D(4,7,12,15)          -57.9429         -DE/DX =    0.0                 !
 ! D34   D(8,7,12,13)          -62.7525         -DE/DX =    0.0                 !
 ! D35   D(8,7,12,14)           57.7949         -DE/DX =    0.0                 !
 ! D36   D(8,7,12,15)          176.6415         -DE/DX =    0.0                 !
 --------------------------------------------------------------------------------
 Lowest energy point so far.  Saving SCF results.
 Largest change from initial coordinates is atom    9       0.191 Angstoms.
 GradGradGradGradGradGradGradGradGradGradGradGradGradGradGradGradGradGrad

 Leave Link  103 at Fri Sep 18 08:03:16 2026, MaxMem=  4294967296 cpu:               0.1 elap:               0.0
 (Enter /opt/apps/Gaussian/G16C/g16/l202.exe)
                          Input orientation:                          
 ---------------------------------------------------------------------
 Center     Atomic      Atomic             Coordinates (Angstroms)
 Number     Number       Type             X           Y           Z
 ---------------------------------------------------------------------
      1          6           0       -6.942228   -0.515066   -2.251755
      2          1           0       -5.949584   -0.170064   -2.549445
      3          1           0       -7.541059   -0.516111   -3.165325
      4          6           0       -6.871876   -1.954636   -1.751954
      5          1           0       -7.890988   -2.315690   -1.591482
      6          1           0       -6.428999   -2.591428   -2.539608
      7          7           0       -6.156107   -2.115281   -0.495178
      8          6           0       -4.753233   -1.772516   -0.610717
      9          1           0       -4.260412   -1.926554    0.349048
     10          1           0       -4.230066   -2.382951   -1.367403
     11          1           0       -4.634160   -0.723567   -0.878293
     12          6           0       -6.315023   -3.460606    0.017518
     13          1           0       -5.888715   -4.224976   -0.655180
     14          1           0       -5.821685   -3.549437    0.985674
     15          1           0       -7.373416   -3.682743    0.155037
     16          6           0       -7.545288    0.447487   -1.235702
     17          1           0       -7.613822    1.456460   -1.643083
     18          1           0       -8.549957    0.130323   -0.949689
     19          1           0       -6.945134    0.481738   -0.327123
 ---------------------------------------------------------------------
                    Distance matrix (angstroms):
                    1          2          3          4          5
     1  C    0.000000
     2  H    1.092239   0.000000
     3  H    1.092341   1.741221   0.000000
     4  C    1.525488   2.161322   2.124800   0.000000
     5  H    2.139709   3.048025   2.416178   1.093023   0.000000
     6  H    2.158134   2.468388   2.436214   1.105460   1.764196
     7  N    2.502845   2.836641   3.406628   1.455204   2.062003
     8  C    3.010962   2.785279   3.984539   2.413347   3.332033
     9  H    3.993571   3.786796   5.010270   3.351827   4.134993
    10  H    3.409823   3.041519   4.204794   2.703792   3.668390
    11  H    2.693891   2.197603   3.704540   2.699294   3.694648
    12  C    3.770835   4.189333   4.505963   2.389364   2.526535
    13  H    4.174011   4.475964   4.773546   2.706281   2.920809
    14  H    4.576459   4.892197   5.421080   3.337799   3.527872
    15  H    4.001594   4.656226   4.591347   2.621929   2.277508
    16  C    1.523993   2.157211   2.156846   2.547587   2.807354
    17  H    2.169893   2.497351   2.492700   3.492552   3.782671
    18  H    2.167186   3.067799   2.518887   2.794037   2.613258
    19  H    2.167449   2.520849   3.066956   2.823372   3.212297
                    6          7          8          9         10
     6  H    0.000000
     7  N    2.116809   0.000000
     8  C    2.683175   1.448756   0.000000
     9  H    3.672759   2.083746   1.089838   0.000000
    10  H    2.500566   2.131210   1.104042   1.776351   0.000000
    11  H    3.077388   2.097610   1.089068   1.758758   1.776535
    12  C    2.703212   1.448452   2.384013   2.585470   2.725141
    13  H    2.551755   2.132584   2.702935   2.990416   2.579037
    14  H    3.703272   2.088437   2.616773   2.340217   3.070979
    15  H    3.056797   2.088435   3.331773   3.579474   3.726652
    16  C    3.490169   3.007653   3.621408   4.351771   4.361126
    17  H    4.311956   4.024916   4.435656   5.163209   5.125123
    18  H    3.799241   3.313583   4.260377   4.931293   5.015226
    19  H    3.821758   2.719432   3.156979   3.669443   4.081693
                   11         12         13         14         15
    11  H    0.000000
    12  C    3.334541   0.000000
    13  H    3.726064   1.103867   0.000000
    14  H    3.587497   1.090230   1.775739   0.000000
    15  H    4.162694   1.090162   1.776178   1.765106   0.000000
    16  C    3.158128   4.284543   4.991307   4.886791   4.361479
    17  H    3.770386   5.349955   6.019191   5.931368   5.449995
    18  H    4.008453   4.338800   5.112491   4.972900   4.140548
    19  H    2.664048   4.007231   4.834956   4.385881   4.214120
                   16         17         18         19
    16  C    0.000000
    17  H    1.090267   0.000000
    18  H    1.091676   1.765158   0.000000
    19  H    1.089437   1.768891   1.756854   0.000000
 Stoichiometry    C5H13N
 Framework group  C1[X(C5H13N)]
 Deg. of freedom    51
 Full point group                 C1      NOp   1
 RotChk:  IX=0 Diff= 8.99D-16
 Largest Abelian subgroup         C1      NOp   1
 Largest concise Abelian subgroup C1      NOp   1
                         Standard orientation:                         
 ---------------------------------------------------------------------
 Center     Atomic      Atomic             Coordinates (Angstroms)
 Number     Number       Type             X           Y           Z
 ---------------------------------------------------------------------
      1          6           0        1.561376   -0.026708    0.618769
      2          1           0        1.540501    0.983383    1.033819
      3          1           0        2.184971   -0.612478    1.297895
      4          6           0        0.163163   -0.636163    0.644819
      5          1           0        0.237911   -1.686908    0.353187
      6          1           0       -0.220872   -0.620133    1.681305
      7          7           0       -0.780134   -0.003669   -0.264993
      8          6           0       -1.050662    1.374597    0.090101
      9          1           0       -1.773612    1.795515   -0.608411
     10          1           0       -1.459963    1.475495    1.110494
     11          1           0       -0.143262    1.973504    0.026813
     12          6           0       -2.010033   -0.765082   -0.339894
     13          1           0       -2.536966   -0.817826    0.628652
     14          1           0       -2.683805   -0.311127   -1.066913
     15          1           0       -1.796831   -1.783430   -0.665417
     16          6           0        2.184502   -0.005744   -0.771853
     17          1           0        3.195788    0.400643   -0.743033
     18          1           0        2.237753   -1.013457   -1.188311
     19          1           0        1.589258    0.597107   -1.456782
 ---------------------------------------------------------------------
 Rotational constants (GHZ):           5.8266031           2.1297445           1.9534834
 Leave Link  202 at Fri Sep 18 08:03:16 2026, MaxMem=  4294967296 cpu:               0.0 elap:               0.0
 (Enter /opt/apps/Gaussian/G16C/g16/l601.exe)
 Copying SCF densities to generalized density rwf, IOpCl= 0 IROHF=0.

 **********************************************************************

            Population analysis using the SCF Density.

 **********************************************************************

 Orbital symmetries:
       Occupied  (A) (A) (A) (A) (A) (A) (A) (A) (A) (A) (A) (A)
                 (A) (A) (A) (A) (A) (A) (A) (A) (A) (A) (A) (A)
                 (A)
       Virtual   (A) (A) (A) (A) (A) (A) (A) (A) (A) (A) (A) (A)
                 (A) (A) (A) (A) (A) (A) (A) (A) (A) (A) (A) (A)
                 (A) (A) (A) (A) (A) (A) (A) (A) (A) (A) (A) (A)
                 (A) (A) (A) (A) (A) (A) (A) (A) (A) (A) (A) (A)
                 (A) (A) (A) (A) (A) (A) (A) (A) (A) (A) (A) (A)
                 (A) (A) (A) (A) (A) (A) (A) (A) (A) (A) (A) (A)
                 (A) (A) (A) (A) (A) (A) (A) (A) (A) (A) (A) (A)
                 (A) (A) (A) (A) (A) (A) (A) (A) (A) (A) (A) (A)
                 (A) (A) (A) (A) (A) (A) (A) (A) (A) (A) (A) (A)
                 (A) (A) (A) (A) (A) (A) (A) (A) (A) (A) (A) (A)
                 (A) (A) (A) (A) (A) (A) (A) (A) (A) (A) (A) (A)
                 (A) (A) (A) (A) (A) (A) (A) (A) (A) (A) (A) (A)
                 (A) (A) (A) (A) (A) (A) (A) (A) (A) (A) (A) (A)
                 (A) (A) (A) (A) (A) (A) (A) (A) (A) (A) (A) (A)
                 (A) (A) (A) (A) (A) (A) (A) (A) (A) (A) (A) (A)
                 (A) (A) (A) (A) (A) (A) (A) (A) (A) (A) (A) (A)
                 (A) (A) (A) (A) (A) (A) (A) (A) (A) (A) (A) (A)
                 (A) (A) (A) (A) (A) (A) (A) (A) (A) (A) (A) (A)
                 (A) (A) (A) (A) (A) (A) (A) (A) (A) (A) (A) (A)
                 (A) (A) (A) (A) (A) (A) (A) (A) (A) (A) (A) (A)
                 (A) (A) (A) (A) (A) (A) (A) (A) (A) (A) (A) (A)
                 (A) (A)
 The electronic state is 1-A.
 Alpha  occ. eigenvalues --  -14.42022 -10.29808 -10.29291 -10.29289 -10.27345
 Alpha  occ. eigenvalues --  -10.25999  -1.02603  -0.87605  -0.80275  -0.78514
 Alpha  occ. eigenvalues --   -0.71396  -0.65436  -0.57235  -0.56390  -0.54394
 Alpha  occ. eigenvalues --   -0.51438  -0.50038  -0.47704  -0.46638  -0.44859
 Alpha  occ. eigenvalues --   -0.44509  -0.42589  -0.40985  -0.40736  -0.29487
 Alpha virt. eigenvalues --    0.06421   0.07694   0.08037   0.08241   0.10336
 Alpha virt. eigenvalues --    0.10865   0.11011   0.11531   0.12145   0.13449
 Alpha virt. eigenvalues --    0.14181   0.14755   0.15258   0.15328   0.16627
 Alpha virt. eigenvalues --    0.17634   0.18140   0.19547   0.20623   0.21319
 Alpha virt. eigenvalues --    0.23243   0.24247   0.25170   0.25589   0.26615
 Alpha virt. eigenvalues --    0.27330   0.28036   0.28940   0.29254   0.30879
 Alpha virt. eigenvalues --    0.31280   0.32115   0.32249   0.33160   0.33382
 Alpha virt. eigenvalues --    0.34129   0.34939   0.35731   0.37357   0.38006
 Alpha virt. eigenvalues --    0.40720   0.42189   0.46198   0.47417   0.48518
 Alpha virt. eigenvalues --    0.50136   0.52151   0.52756   0.54444   0.56634
 Alpha virt. eigenvalues --    0.57188   0.58522   0.59436   0.59680   0.60999
 Alpha virt. eigenvalues --    0.61831   0.63453   0.63631   0.64439   0.64829
 Alpha virt. eigenvalues --    0.65283   0.66460   0.67436   0.68938   0.69950
 Alpha virt. eigenvalues --    0.70519   0.72468   0.73477   0.74060   0.75254
 Alpha virt. eigenvalues --    0.75707   0.76697   0.77532   0.78797   0.79710
 Alpha virt. eigenvalues --    0.84377   0.86393   0.88268   0.89467   0.93531
 Alpha virt. eigenvalues --    0.93910   0.96131   0.97739   0.98692   1.01453
 Alpha virt. eigenvalues --    1.03271   1.05776   1.07359   1.08992   1.09960
 Alpha virt. eigenvalues --    1.11465   1.12917   1.15096   1.17748   1.20328
 Alpha virt. eigenvalues --    1.21084   1.21330   1.22106   1.22953   1.24230
 Alpha virt. eigenvalues --    1.26162   1.26755   1.27676   1.28183   1.29877
 Alpha virt. eigenvalues --    1.31098   1.32597   1.33752   1.34063   1.36874
 Alpha virt. eigenvalues --    1.37998   1.38301   1.39158   1.41211   1.42152
 Alpha virt. eigenvalues --    1.44538   1.44999   1.45380   1.46520   1.48393
 Alpha virt. eigenvalues --    1.49150   1.49374   1.50715   1.51784   1.54430
 Alpha virt. eigenvalues --    1.55238   1.56305   1.58169   1.59494   1.60245
 Alpha virt. eigenvalues --    1.61521   1.63871   1.65972   1.66167   1.67118
 Alpha virt. eigenvalues --    1.68292   1.71306   1.71923   1.75017   1.77534
 Alpha virt. eigenvalues --    1.79410   1.83060   1.88831   1.95000   1.96981
 Alpha virt. eigenvalues --    2.03435   2.12641   2.17379   2.71515   2.75519
 Alpha virt. eigenvalues --    2.79610   2.80729   2.84940   2.89072   2.94874
 Alpha virt. eigenvalues --    2.97172   2.98966   3.02981   3.11155   3.12497
 Alpha virt. eigenvalues --    3.16981   3.17645   3.25703   3.27644   3.29361
 Alpha virt. eigenvalues --    3.31219   3.33216   3.35918   3.39017   3.40076
 Alpha virt. eigenvalues --    3.43031   3.46562   3.47280   3.48814   3.50706
 Alpha virt. eigenvalues --    3.52154   3.53625   3.56004   3.57117   3.59077
 Alpha virt. eigenvalues --    3.62086   3.63955   3.65075   3.65945   3.66772
 Alpha virt. eigenvalues --    3.69006   3.70237   3.72843   3.73552   3.76165
 Alpha virt. eigenvalues --    3.77796   3.78161   3.80694   3.82195   3.83950
 Alpha virt. eigenvalues --    3.87596   3.90894   3.92783   3.94823   3.97264
 Alpha virt. eigenvalues --    3.99442   4.00470   4.02566   4.07979   4.08571
 Alpha virt. eigenvalues --    4.09524   4.11922   4.12634   4.15366   4.16580
 Alpha virt. eigenvalues --    4.18006   4.19801   4.20228   4.21150   4.23621
 Alpha virt. eigenvalues --    4.24360   4.25621   4.26296   4.27308   4.29718
 Alpha virt. eigenvalues --    4.31761   4.33420   4.36879   4.37544   4.38375
 Alpha virt. eigenvalues --    4.42203   4.44270   4.44743   4.48043   4.52461
 Alpha virt. eigenvalues --    4.63205   4.86145   5.00640   5.08062   5.11393
 Alpha virt. eigenvalues --    5.11803   5.13992   5.17169   5.18506   5.21538
 Alpha virt. eigenvalues --    5.23940   5.25178   5.28215   5.41743   5.44149
 Alpha virt. eigenvalues --    5.57488   5.70200   5.75228  24.01692  24.06332
 Alpha virt. eigenvalues --   24.16397  24.17966  24.23655  35.67596
          Condensed to atoms (all electrons):
               1          2          3          4          5          6
     1  C    5.075208   0.488728   0.447277   0.205962  -0.025670  -0.023532
     2  H    0.488728   0.542994  -0.028146  -0.037642   0.005182  -0.008391
     3  H    0.447277  -0.028146   0.535966  -0.046232  -0.006911  -0.004038
     4  C    0.205962  -0.037642  -0.046232   5.035807   0.464491   0.431296
     5  H   -0.025670   0.005182  -0.006911   0.464491   0.542794  -0.030609
     6  H   -0.023532  -0.008391  -0.004038   0.431296  -0.030609   0.551658
     7  N   -0.058232  -0.004477   0.007285   0.223146  -0.062588  -0.036793
     8  C    0.013671  -0.005769   0.000947  -0.073925  -0.002592   0.000028
     9  H    0.001033   0.000172   0.000026   0.007075  -0.000161  -0.000633
    10  H   -0.011222  -0.000491  -0.000084   0.004391  -0.000286   0.010456
    11  H    0.010825  -0.004662   0.000452  -0.004309  -0.000227  -0.002539
    12  C   -0.025735  -0.000112  -0.000475  -0.034864  -0.000828  -0.002273
    13  H    0.000018  -0.000090  -0.000030  -0.008558  -0.003187   0.009868
    14  H    0.003201   0.000001   0.000017   0.006412   0.000322  -0.000597
    15  H   -0.009978   0.000038   0.000020   0.001389   0.005573  -0.001898
    16  C    0.187318  -0.054624  -0.013718   0.020347  -0.003798   0.000234
    17  H   -0.061322  -0.003366  -0.004742   0.031886  -0.000255  -0.000118
    18  H   -0.007566   0.004742  -0.006461  -0.014335   0.001024   0.000146
    19  H   -0.004464  -0.006560   0.005022  -0.031032  -0.000137  -0.000418
               7          8          9         10         11         12
     1  C   -0.058232   0.013671   0.001033  -0.011222   0.010825  -0.025735
     2  H   -0.004477  -0.005769   0.000172  -0.000491  -0.004662  -0.000112
     3  H    0.007285   0.000947   0.000026  -0.000084   0.000452  -0.000475
     4  C    0.223146  -0.073925   0.007075   0.004391  -0.004309  -0.034864
     5  H   -0.062588  -0.002592  -0.000161  -0.000286  -0.000227  -0.000828
     6  H   -0.036793   0.000028  -0.000633   0.010456  -0.002539  -0.002273
     7  N    6.902805   0.248625  -0.048928  -0.041436  -0.051829   0.229221
     8  C    0.248625   4.839957   0.432724   0.426130   0.431544  -0.045870
     9  H   -0.048928   0.432724   0.555075  -0.032601  -0.019219  -0.001603
    10  H   -0.041436   0.426130  -0.032601   0.579611  -0.035917  -0.004942
    11  H   -0.051829   0.431544  -0.019219  -0.035917   0.564852   0.003762
    12  C    0.229221  -0.045870  -0.001603  -0.004942   0.003762   4.806394
    13  H   -0.031544   0.002498  -0.003365   0.012361  -0.000918   0.418370
    14  H   -0.051455  -0.003929   0.005748  -0.002181   0.000225   0.429768
    15  H   -0.052796   0.000372   0.000369  -0.000590  -0.000228   0.445043
    16  C   -0.019105   0.003225  -0.002215   0.002381  -0.003141  -0.006851
    17  H    0.001800   0.000029   0.000005  -0.000001  -0.000033   0.000717
    18  H   -0.001944  -0.001026   0.000006   0.000011  -0.000157  -0.000937
    19  H   -0.005392   0.002793   0.000107  -0.000296   0.002808  -0.001765
              13         14         15         16         17         18
     1  C    0.000018   0.003201  -0.009978   0.187318  -0.061322  -0.007566
     2  H   -0.000090   0.000001   0.000038  -0.054624  -0.003366   0.004742
     3  H   -0.000030   0.000017   0.000020  -0.013718  -0.004742  -0.006461
     4  C   -0.008558   0.006412   0.001389   0.020347   0.031886  -0.014335
     5  H   -0.003187   0.000322   0.005573  -0.003798  -0.000255   0.001024
     6  H    0.009868  -0.000597  -0.001898   0.000234  -0.000118   0.000146
     7  N   -0.031544  -0.051455  -0.052796  -0.019105   0.001800  -0.001944
     8  C    0.002498  -0.003929   0.000372   0.003225   0.000029  -0.001026
     9  H   -0.003365   0.005748   0.000369  -0.002215   0.000005   0.000006
    10  H    0.012361  -0.002181  -0.000590   0.002381  -0.000001   0.000011
    11  H   -0.000918   0.000225  -0.000228  -0.003141  -0.000033  -0.000157
    12  C    0.418370   0.429768   0.445043  -0.006851   0.000717  -0.000937
    13  H    0.591083  -0.036294  -0.038083  -0.002024   0.000002   0.000015
    14  H   -0.036294   0.564002  -0.015898   0.000199  -0.000001  -0.000008
    15  H   -0.038083  -0.015898   0.560115   0.004310  -0.000004  -0.000052
    16  C   -0.002024   0.000199   0.004310   4.980753   0.427680   0.417885
    17  H    0.000002  -0.000001  -0.000004   0.427680   0.545830  -0.022822
    18  H    0.000015  -0.000008  -0.000052   0.417885  -0.022822   0.558186
    19  H   -0.000038   0.000064   0.000064   0.432691  -0.024590  -0.028531
              19
     1  C   -0.004464
     2  H   -0.006560
     3  H    0.005022
     4  C   -0.031032
     5  H   -0.000137
     6  H   -0.000418
     7  N   -0.005392
     8  C    0.002793
     9  H    0.000107
    10  H   -0.000296
    11  H    0.002808
    12  C   -0.001765
    13  H   -0.000038
    14  H    0.000064
    15  H    0.000064
    16  C    0.432691
    17  H   -0.024590
    18  H   -0.028531
    19  H    0.544283
 Mulliken charges:
               1
     1  C   -0.205520
     2  H    0.112474
     3  H    0.113824
     4  C   -0.181307
     5  H    0.117863
     6  H    0.108150
     7  N   -0.146363
     8  C   -0.269431
     9  H    0.106384
    10  H    0.094705
    11  H    0.108709
    12  C   -0.207021
    13  H    0.089915
    14  H    0.100404
    15  H    0.102234
    16  C   -0.371546
    17  H    0.109306
    18  H    0.101825
    19  H    0.115394
 Sum of Mulliken charges =  -0.00000
 Mulliken charges with hydrogens summed into heavy atoms:
               1
     1  C    0.020778
     4  C    0.044706
     7  N   -0.146363
     8  C    0.040367
    12  C    0.085532
    16  C   -0.045021
 Electronic spatial extent (au):  <R**2>=            752.5816
 Charge=             -0.0000 electrons
 Dipole moment (field-independent basis, Debye):
    X=             -0.2462    Y=              0.0025    Z=              0.5360  Tot=              0.5898
 Quadrupole moment (field-independent basis, Debye-Ang):
   XX=            -40.0346   YY=            -39.4851   ZZ=            -42.5949
   XY=             -0.2220   XZ=              1.0250   YZ=             -0.0685
 Traceless Quadrupole moment (field-independent basis, Debye-Ang):
   XX=              0.6702   YY=              1.2198   ZZ=             -1.8900
   XY=             -0.2220   XZ=              1.0250   YZ=             -0.0685
 Octapole moment (field-independent basis, Debye-Ang**2):
  XXX=             -2.8958  YYY=             -0.9692  ZZZ=              0.0478  XYY=             -0.3873
  XXY=              0.5203  XXZ=             -1.9367  XZZ=             -1.2974  YZZ=              0.1737
  YYZ=             -1.8882  XYZ=              0.1351
 Hexadecapole moment (field-independent basis, Debye-Ang**3):
 XXXX=           -668.6721 YYYY=           -219.6476 ZZZZ=           -164.4306 XXXY=             -0.2104
 XXXZ=             11.8261 YYYX=             -0.1737 YYYZ=              1.8474 ZZZX=              3.5420
 ZZZY=             -1.0799 XXYY=           -148.0050 XXZZ=           -137.9504 YYZZ=            -64.1575
 XXYZ=             -1.9752 YYXZ=              3.3563 ZZXY=             -1.8893
 N-N= 2.646884287564D+02 E-N=-1.116139164630D+03  KE= 2.519217657955D+02
 No NMR shielding tensors so no spin-rotation constants.
 Leave Link  601 at Fri Sep 18 08:03:17 2026, MaxMem=  4294967296 cpu:               1.2 elap:               0.1
 (Enter /opt/apps/Gaussian/G16C/g16/l9999.exe)
 Unable to Open any file for archive entry.
 1\1\GINC-NODE01\FOpt\RwB97XD\6-311+G(2d,2p)\C5H13N1\TREYROUPP\18-Sep-2
 026\0\\#p opt freq wb97xd/6-311+g(2d,2p) scf=xqc\\opt+freq\\0,1\C,-6.9
 422278437,-0.5150657332,-2.2517552913\H,-5.9495841515,-0.1700639728,-2
 .549445314\H,-7.5410594596,-0.5161113098,-3.1653245911\C,-6.8718760258
 ,-1.9546364428,-1.7519544036\H,-7.8909878879,-2.3156903411,-1.59148196
 34\H,-6.4289986866,-2.591427952,-2.5396080236\N,-6.1561071981,-2.11528
 05851,-0.4951784689\C,-4.7532325954,-1.7725161863,-0.6107166124\H,-4.2
 604120285,-1.9265540572,0.3490476244\H,-4.2300662706,-2.3829514022,-1.
 3674032445\H,-4.6341597751,-0.7235671405,-0.8782930537\C,-6.315023233,
 -3.4606064041,0.0175177155\H,-5.8887153625,-4.2249757275,-0.6551804459
 \H,-5.8216849688,-3.5494372108,0.9856741371\H,-7.3734164888,-3.6827430
 887,0.1550374808\C,-7.5452875055,0.4474873511,-1.2357020985\H,-7.61382
 24396,1.4564600559,-1.6430828594\H,-8.549956737,0.1303229431,-0.949688
 7362\H,-6.9451337919,0.4817383139,-0.327123471\\Version=AS64L-G16RevC.
 01\State=1-A\HF=-253.104338\RMSD=2.814e-09\RMSF=1.685e-05\Dipole=0.096
 0639,-0.1458502,-0.1528124\Quadrupole=0.6139529,-0.1130173,-0.5009355,
 0.5199432,0.7883075,-0.9597314\PG=C01 [X(C5H13N1)]\\@
 The archive entry for this job was punched.


 COLLEGE PROFESSOR: SOMEONE WHO TALKS IN OTHER PEOPLE'S SLEEP.
 Leave Link 9999 at Fri Sep 18 08:03:17 2026, MaxMem=  4294967296 cpu:               0.1 elap:               0.0
 Job cpu time:       0 days  0 hours 42 minutes 34.5 seconds.
 Elapsed time:       0 days  0 hours  2 minutes 50.2 seconds.
 File lengths (MBytes):  RWF=     52 Int=      0 D2E=      0 Chk=      8 Scr=      1
 Normal termination of Gaussian 16 at Fri Sep 18 08:03:17 2026.
 (Enter /opt/apps/Gaussian/G16C/g16/l1.exe)
 Link1:  Proceeding to internal job step number  2.
 ----------------------------------------------------------------------
 #P Geom=AllCheck Guess=TCheck SCRF=Check GenChk RwB97XD/6-311+G(2d,2p)
  Freq
 ----------------------------------------------------------------------
 1/10=4,29=7,30=1,38=1,40=1/1,3;
 2/12=2,40=1/2;
 3/5=4,6=6,7=212,11=2,14=-4,25=1,30=1,70=2,71=2,74=-58,116=1,140=1/1,2,3;
 4/5=101/1;
 5/5=2,8=3,13=1,38=6,98=1/2,8;
 8/6=4,10=90,11=11/1;
 11/6=1,8=1,9=11,15=111,16=1/1,2,10;
 10/6=1/2;
 6/7=2,8=2,9=2,10=2,28=1/1;
 7/8=1,10=1,25=1/1,2,3,16;
 1/10=4,30=1/3;
 99//99;
 Leave Link    1 at Fri Sep 18 08:03:17 2026, MaxMem=  4294967296 cpu:               0.0 elap:               0.0
 (Enter /opt/apps/Gaussian/G16C/g16/l101.exe)
 Structure from the checkpoint file:  "aminopropyl.chk"
 --------
 opt+freq
 --------
 Charge =  0 Multiplicity = 1
 Redundant internal coordinates found in file.  (old form).
 C,0,-6.9422278437,-0.5150657332,-2.2517552913
 H,0,-5.9495841515,-0.1700639728,-2.549445314
 H,0,-7.5410594596,-0.5161113098,-3.1653245911
 C,0,-6.8718760258,-1.9546364428,-1.7519544036
 H,0,-7.8909878879,-2.3156903411,-1.5914819634
 H,0,-6.4289986866,-2.591427952,-2.5396080236
 N,0,-6.1561071981,-2.1152805851,-0.4951784689
 C,0,-4.7532325954,-1.7725161863,-0.6107166124
 H,0,-4.2604120285,-1.9265540572,0.3490476244
 H,0,-4.2300662706,-2.3829514022,-1.3674032445
 H,0,-4.6341597751,-0.7235671405,-0.8782930537
 C,0,-6.315023233,-3.4606064041,0.0175177155
 H,0,-5.8887153625,-4.2249757275,-0.6551804459
 H,0,-5.8216849688,-3.5494372108,0.9856741371
 H,0,-7.3734164888,-3.6827430887,0.1550374808
 C,0,-7.5452875055,0.4474873511,-1.2357020985
 H,0,-7.6138224396,1.4564600559,-1.6430828594
 H,0,-8.549956737,0.1303229431,-0.9496887362
 H,0,-6.9451337919,0.4817383139,-0.327123471
 Recover connectivity data from disk.
 ITRead=  0  0  0  0  0  0  0  0  0  0  0  0  0  0  0  0  0  0  0
 MicOpt= -1 -1 -1 -1 -1 -1 -1 -1 -1 -1 -1 -1 -1 -1 -1 -1 -1 -1 -1
 NAtoms=     19 NQM=       19 NQMF=       0 NMMI=      0 NMMIF=      0
                NMic=       0 NMicF=      0.
                    Isotopes and Nuclear Properties:
 (Nuclear quadrupole moments (NQMom) in fm**2, nuclear magnetic moments (NMagM)
  in nuclear magnetons)

  Atom         1           2           3           4           5           6           7           8           9          10
 IAtWgt=          12           1           1          12           1           1          14          12           1           1
 AtmWgt=  12.0000000   1.0078250   1.0078250  12.0000000   1.0078250   1.0078250  14.0030740  12.0000000   1.0078250   1.0078250
 NucSpn=           0           1           1           0           1           1           2           0           1           1
 AtZEff=   3.6000000   1.0000000   1.0000000   3.6000000   1.0000000   1.0000000   4.5500000   3.6000000   1.0000000   1.0000000
 NQMom=    0.0000000   0.0000000   0.0000000   0.0000000   0.0000000   0.0000000   2.0440000   0.0000000   0.0000000   0.0000000
 NMagM=    0.0000000   2.7928460   2.7928460   0.0000000   2.7928460   2.7928460   0.4037610   0.0000000   2.7928460   2.7928460
 AtZNuc=   6.0000000   1.0000000   1.0000000   6.0000000   1.0000000   1.0000000   7.0000000   6.0000000   1.0000000   1.0000000

  Atom        11          12          13          14          15          16          17          18          19
 IAtWgt=           1          12           1           1           1          12           1           1           1
 AtmWgt=   1.0078250  12.0000000   1.0078250   1.0078250   1.0078250  12.0000000   1.0078250   1.0078250   1.0078250
 NucSpn=           1           0           1           1           1           0           1           1           1
 AtZEff=   1.0000000   3.6000000   1.0000000   1.0000000   1.0000000   3.6000000   1.0000000   1.0000000   1.0000000
 NQMom=    0.0000000   0.0000000   0.0000000   0.0000000   0.0000000   0.0000000   0.0000000   0.0000000   0.0000000
 NMagM=    2.7928460   0.0000000   2.7928460   2.7928460   2.7928460   0.0000000   2.7928460   2.7928460   2.7928460
 AtZNuc=   1.0000000   6.0000000   1.0000000   1.0000000   1.0000000   6.0000000   1.0000000   1.0000000   1.0000000
 Leave Link  101 at Fri Sep 18 08:03:17 2026, MaxMem=  4294967296 cpu:               0.2 elap:               0.2
 (Enter /opt/apps/Gaussian/G16C/g16/l103.exe)

 GradGradGradGradGradGradGradGradGradGradGradGradGradGradGradGradGradGrad
 Berny optimization.
 Initialization pass.
                           ----------------------------
                           !    Initial Parameters    !
                           ! (Angstroms and Degrees)  !
 --------------------------                            --------------------------
 ! Name  Definition              Value          Derivative Info.                !
 --------------------------------------------------------------------------------
 ! R1    R(1,2)                  1.0922         calculate D2E/DX2 analytically  !
 ! R2    R(1,3)                  1.0923         calculate D2E/DX2 analytically  !
 ! R3    R(1,4)                  1.5255         calculate D2E/DX2 analytically  !
 ! R4    R(1,16)                 1.524          calculate D2E/DX2 analytically  !
 ! R5    R(4,5)                  1.093          calculate D2E/DX2 analytically  !
 ! R6    R(4,6)                  1.1055         calculate D2E/DX2 analytically  !
 ! R7    R(4,7)                  1.4552         calculate D2E/DX2 analytically  !
 ! R8    R(7,8)                  1.4488         calculate D2E/DX2 analytically  !
 ! R9    R(7,12)                 1.4485         calculate D2E/DX2 analytically  !
 ! R10   R(8,9)                  1.0898         calculate D2E/DX2 analytically  !
 ! R11   R(8,10)                 1.104          calculate D2E/DX2 analytically  !
 ! R12   R(8,11)                 1.0891         calculate D2E/DX2 analytically  !
 ! R13   R(12,13)                1.1039         calculate D2E/DX2 analytically  !
 ! R14   R(12,14)                1.0902         calculate D2E/DX2 analytically  !
 ! R15   R(12,15)                1.0902         calculate D2E/DX2 analytically  !
 ! R16   R(16,17)                1.0903         calculate D2E/DX2 analytically  !
 ! R17   R(16,18)                1.0917         calculate D2E/DX2 analytically  !
 ! R18   R(16,19)                1.0894         calculate D2E/DX2 analytically  !
 ! A1    A(2,1,3)              105.6987         calculate D2E/DX2 analytically  !
 ! A2    A(2,1,4)              110.2099         calculate D2E/DX2 analytically  !
 ! A3    A(2,1,16)             109.9888         calculate D2E/DX2 analytically  !
 ! A4    A(3,1,4)              107.361          calculate D2E/DX2 analytically  !
 ! A5    A(3,1,16)             109.9539         calculate D2E/DX2 analytically  !
 ! A6    A(4,1,16)             113.3185         calculate D2E/DX2 analytically  !
 ! A7    A(1,4,5)              108.471          calculate D2E/DX2 analytically  !
 ! A8    A(1,4,6)              109.1858         calculate D2E/DX2 analytically  !
 ! A9    A(1,4,7)              114.1934         calculate D2E/DX2 analytically  !
 ! A10   A(5,4,6)              106.73           calculate D2E/DX2 analytically  !
 ! A11   A(5,4,7)              107.1783         calculate D2E/DX2 analytically  !
 ! A12   A(6,4,7)              110.7756         calculate D2E/DX2 analytically  !
 ! A13   A(4,7,8)              112.4141         calculate D2E/DX2 analytically  !
 ! A14   A(4,7,12)             110.7484         calculate D2E/DX2 analytically  !
 ! A15   A(8,7,12)             110.7454         calculate D2E/DX2 analytically  !
 ! A16   A(7,8,9)              109.5241         calculate D2E/DX2 analytically  !
 ! A17   A(7,8,10)             112.5012         calculate D2E/DX2 analytically  !
 ! A18   A(7,8,11)             110.6919         calculate D2E/DX2 analytically  !
 ! A19   A(9,8,10)             108.1285         calculate D2E/DX2 analytically  !
 ! A20   A(9,8,11)             107.6416         calculate D2E/DX2 analytically  !
 ! A21   A(10,8,11)            108.2002         calculate D2E/DX2 analytically  !
 ! A22   A(7,12,13)            112.6481         calculate D2E/DX2 analytically  !
 ! A23   A(7,12,14)            109.8988         calculate D2E/DX2 analytically  !
 ! A24   A(7,12,15)            109.9028         calculate D2E/DX2 analytically  !
 ! A25   A(13,12,14)           108.0587         calculate D2E/DX2 analytically  !
 ! A26   A(13,12,15)           108.1025         calculate D2E/DX2 analytically  !
 ! A27   A(14,12,15)           108.1013         calculate D2E/DX2 analytically  !
 ! A28   A(1,16,17)            111.1164         calculate D2E/DX2 analytically  !
 ! A29   A(1,16,18)            110.8147         calculate D2E/DX2 analytically  !
 ! A30   A(1,16,19)            110.9707         calculate D2E/DX2 analytically  !
 ! A31   A(17,16,18)           107.9936         calculate D2E/DX2 analytically  !
 ! A32   A(17,16,19)           108.491          calculate D2E/DX2 analytically  !
 ! A33   A(18,16,19)           107.3142         calculate D2E/DX2 analytically  !
 ! D1    D(2,1,4,5)           -172.3964         calculate D2E/DX2 analytically  !
 ! D2    D(2,1,4,6)            -56.4472         calculate D2E/DX2 analytically  !
 ! D3    D(2,1,4,7)             68.168          calculate D2E/DX2 analytically  !
 ! D4    D(3,1,4,5)            -57.7397         calculate D2E/DX2 analytically  !
 ! D5    D(3,1,4,6)             58.2095         calculate D2E/DX2 analytically  !
 ! D6    D(3,1,4,7)           -177.1753         calculate D2E/DX2 analytically  !
 ! D7    D(16,1,4,5)            63.8692         calculate D2E/DX2 analytically  !
 ! D8    D(16,1,4,6)           179.8184         calculate D2E/DX2 analytically  !
 ! D9    D(16,1,4,7)           -55.5664         calculate D2E/DX2 analytically  !
 ! D10   D(2,1,16,17)           58.337          calculate D2E/DX2 analytically  !
 ! D11   D(2,1,16,18)          178.4088         calculate D2E/DX2 analytically  !
 ! D12   D(2,1,16,19)          -62.4684         calculate D2E/DX2 analytically  !
 ! D13   D(3,1,16,17)          -57.6633         calculate D2E/DX2 analytically  !
 ! D14   D(3,1,16,18)           62.4085         calculate D2E/DX2 analytically  !
 ! D15   D(3,1,16,19)         -178.4687         calculate D2E/DX2 analytically  !
 ! D16   D(4,1,16,17)         -177.8078         calculate D2E/DX2 analytically  !
 ! D17   D(4,1,16,18)          -57.736          calculate D2E/DX2 analytically  !
 ! D18   D(4,1,16,19)           61.3868         calculate D2E/DX2 analytically  !
 ! D19   D(1,4,7,8)            -64.6527         calculate D2E/DX2 analytically  !
 ! D20   D(1,4,7,12)           170.8763         calculate D2E/DX2 analytically  !
 ! D21   D(5,4,7,8)            175.1859         calculate D2E/DX2 analytically  !
 ! D22   D(5,4,7,12)            50.7149         calculate D2E/DX2 analytically  !
 ! D23   D(6,4,7,8)             59.1116         calculate D2E/DX2 analytically  !
 ! D24   D(6,4,7,12)           -65.3594         calculate D2E/DX2 analytically  !
 ! D25   D(4,7,8,9)           -178.978          calculate D2E/DX2 analytically  !
 ! D26   D(4,7,8,10)           -58.6984         calculate D2E/DX2 analytically  !
 ! D27   D(4,7,8,11)            62.4897         calculate D2E/DX2 analytically  !
 ! D28   D(12,7,8,9)           -54.5053         calculate D2E/DX2 analytically  !
 ! D29   D(12,7,8,10)           65.7743         calculate D2E/DX2 analytically  !
 ! D30   D(12,7,8,11)         -173.0377         calculate D2E/DX2 analytically  !
 ! D31   D(4,7,12,13)           62.6631         calculate D2E/DX2 analytically  !
 ! D32   D(4,7,12,14)         -176.7895         calculate D2E/DX2 analytically  !
 ! D33   D(4,7,12,15)          -57.9429         calculate D2E/DX2 analytically  !
 ! D34   D(8,7,12,13)          -62.7525         calculate D2E/DX2 analytically  !
 ! D35   D(8,7,12,14)           57.7949         calculate D2E/DX2 analytically  !
 ! D36   D(8,7,12,15)          176.6415         calculate D2E/DX2 analytically  !
 --------------------------------------------------------------------------------
 Trust Radius=3.00D-01 FncErr=1.00D-07 GrdErr=1.00D-07 EigMax=2.50D+02 EigMin=1.00D-04
 Number of steps in this run=      2 maximum allowed number of steps=      2.
 GradGradGradGradGradGradGradGradGradGradGradGradGradGradGradGradGradGrad

 Leave Link  103 at Fri Sep 18 08:03:17 2026, MaxMem=  4294967296 cpu:               0.0 elap:               0.0
 (Enter /opt/apps/Gaussian/G16C/g16/l202.exe)
                          Input orientation:                          
 ---------------------------------------------------------------------
 Center     Atomic      Atomic             Coordinates (Angstroms)
 Number     Number       Type             X           Y           Z
 ---------------------------------------------------------------------
      1          6           0       -6.942228   -0.515066   -2.251755
      2          1           0       -5.949584   -0.170064   -2.549445
      3          1           0       -7.541059   -0.516111   -3.165325
      4          6           0       -6.871876   -1.954636   -1.751954
      5          1           0       -7.890988   -2.315690   -1.591482
      6          1           0       -6.428999   -2.591428   -2.539608
      7          7           0       -6.156107   -2.115281   -0.495178
      8          6           0       -4.753233   -1.772516   -0.610717
      9          1           0       -4.260412   -1.926554    0.349048
     10          1           0       -4.230066   -2.382951   -1.367403
     11          1           0       -4.634160   -0.723567   -0.878293
     12          6           0       -6.315023   -3.460606    0.017518
     13          1           0       -5.888715   -4.224976   -0.655180
     14          1           0       -5.821685   -3.549437    0.985674
     15          1           0       -7.373416   -3.682743    0.155037
     16          6           0       -7.545288    0.447487   -1.235702
     17          1           0       -7.613822    1.456460   -1.643083
     18          1           0       -8.549957    0.130323   -0.949689
     19          1           0       -6.945134    0.481738   -0.327123
 ---------------------------------------------------------------------
                    Distance matrix (angstroms):
                    1          2          3          4          5
     1  C    0.000000
     2  H    1.092239   0.000000
     3  H    1.092341   1.741221   0.000000
     4  C    1.525488   2.161322   2.124800   0.000000
     5  H    2.139709   3.048025   2.416178   1.093023   0.000000
     6  H    2.158134   2.468388   2.436214   1.105460   1.764196
     7  N    2.502845   2.836641   3.406628   1.455204   2.062003
     8  C    3.010962   2.785279   3.984539   2.413347   3.332033
     9  H    3.993571   3.786796   5.010270   3.351827   4.134993
    10  H    3.409823   3.041519   4.204794   2.703792   3.668390
    11  H    2.693891   2.197603   3.704540   2.699294   3.694648
    12  C    3.770835   4.189333   4.505963   2.389364   2.526535
    13  H    4.174011   4.475964   4.773546   2.706281   2.920809
    14  H    4.576459   4.892197   5.421080   3.337799   3.527872
    15  H    4.001594   4.656226   4.591347   2.621929   2.277508
    16  C    1.523993   2.157211   2.156846   2.547587   2.807354
    17  H    2.169893   2.497351   2.492700   3.492552   3.782671
    18  H    2.167186   3.067799   2.518887   2.794037   2.613258
    19  H    2.167449   2.520849   3.066956   2.823372   3.212297
                    6          7          8          9         10
     6  H    0.000000
     7  N    2.116809   0.000000
     8  C    2.683175   1.448756   0.000000
     9  H    3.672759   2.083746   1.089838   0.000000
    10  H    2.500566   2.131210   1.104042   1.776351   0.000000
    11  H    3.077388   2.097610   1.089068   1.758758   1.776535
    12  C    2.703212   1.448452   2.384013   2.585470   2.725141
    13  H    2.551755   2.132584   2.702935   2.990416   2.579037
    14  H    3.703272   2.088437   2.616773   2.340217   3.070979
    15  H    3.056797   2.088435   3.331773   3.579474   3.726652
    16  C    3.490169   3.007653   3.621408   4.351771   4.361126
    17  H    4.311956   4.024916   4.435656   5.163209   5.125123
    18  H    3.799241   3.313583   4.260377   4.931293   5.015226
    19  H    3.821758   2.719432   3.156979   3.669443   4.081693
                   11         12         13         14         15
    11  H    0.000000
    12  C    3.334541   0.000000
    13  H    3.726064   1.103867   0.000000
    14  H    3.587497   1.090230   1.775739   0.000000
    15  H    4.162694   1.090162   1.776178   1.765106   0.000000
    16  C    3.158128   4.284543   4.991307   4.886791   4.361479
    17  H    3.770386   5.349955   6.019191   5.931368   5.449995
    18  H    4.008453   4.338800   5.112491   4.972900   4.140548
    19  H    2.664048   4.007231   4.834956   4.385881   4.214120
                   16         17         18         19
    16  C    0.000000
    17  H    1.090267   0.000000
    18  H    1.091676   1.765158   0.000000
    19  H    1.089437   1.768891   1.756854   0.000000
 Stoichiometry    C5H13N
 Framework group  C1[X(C5H13N)]
 Deg. of freedom    51
 Full point group                 C1      NOp   1
 RotChk:  IX=0 Diff= 8.47D-16
 Largest Abelian subgroup         C1      NOp   1
 Largest concise Abelian subgroup C1      NOp   1
                         Standard orientation:                         
 ---------------------------------------------------------------------
 Center     Atomic      Atomic             Coordinates (Angstroms)
 Number     Number       Type             X           Y           Z
 ---------------------------------------------------------------------
      1          6           0        1.561376   -0.026708    0.618769
      2          1           0        1.540501    0.983383    1.033819
      3          1           0        2.184971   -0.612478    1.297895
      4          6           0        0.163163   -0.636163    0.644819
      5          1           0        0.237911   -1.686908    0.353187
      6          1           0       -0.220872   -0.620133    1.681305
      7          7           0       -0.780134   -0.003669   -0.264993
      8          6           0       -1.050662    1.374597    0.090101
      9          1           0       -1.773612    1.795515   -0.608411
     10          1           0       -1.459963    1.475495    1.110494
     11          1           0       -0.143262    1.973504    0.026813
     12          6           0       -2.010033   -0.765082   -0.339894
     13          1           0       -2.536966   -0.817826    0.628652
     14          1           0       -2.683805   -0.311127   -1.066913
     15          1           0       -1.796831   -1.783430   -0.665417
     16          6           0        2.184502   -0.005744   -0.771853
     17          1           0        3.195788    0.400643   -0.743033
     18          1           0        2.237753   -1.013457   -1.188311
     19          1           0        1.589258    0.597107   -1.456782
 ---------------------------------------------------------------------
 Rotational constants (GHZ):           5.8266031           2.1297445           1.9534834
 Leave Link  202 at Fri Sep 18 08:03:17 2026, MaxMem=  4294967296 cpu:               0.0 elap:               0.0
 (Enter /opt/apps/Gaussian/G16C/g16/l301.exe)
 Standard basis: 6-311+G(2d,2p) (5D, 7F)
 Ernie: Thresh=  0.10000D-02 Tol=  0.10000D-05 Strict=F.
 There are   291 symmetry adapted cartesian basis functions of A   symmetry.
 There are   279 symmetry adapted basis functions of A   symmetry.
   279 basis functions,   395 primitive gaussians,   291 cartesian basis functions
    25 alpha electrons       25 beta electrons
       nuclear repulsion energy       264.6997229416 Hartrees.
 IExCor= 4639 DFT=T Ex+Corr=wB97XD ExCW=0 ScaHFX=  1.000000
 ScaDFX=  1.000000  1.000000  1.000000  1.000000 ScalE2=  1.000000  1.000000
 IRadAn=      5 IRanWt=     -1 IRanGd=            0 ICorTp=0 IEmpDi=121
 HFx  wShort=  0.000000 wLong=  0.200000 cFull=  0.222036 cShort=  0.000000 cLong=  0.777964
 DFx  wShort=  0.000000 wLong=  0.200000 cFull=  0.000000 cShort=  0.000000 cLong=  1.000000
 NAtoms=   19 NActive=   19 NUniq=   19 SFac= 1.00D+00 NAtFMM=   60 NAOKFM=F Big=F
 Integral buffers will be    131072 words long.
 Raffenetti 2 integral format.
 Two-electron integral symmetry is turned on.
 R6Disp:  Grimme-D2 Dispersion energy=       -0.0112941852 Hartrees.
 Nuclear repulsion after empirical dispersion term =      264.6884287564 Hartrees.
 Leave Link  301 at Fri Sep 18 08:03:17 2026, MaxMem=  4294967296 cpu:               0.1 elap:               0.0
 (Enter /opt/apps/Gaussian/G16C/g16/l302.exe)
 NPDir=0 NMtPBC=     1 NCelOv=     1 NCel=       1 NClECP=     1 NCelD=      1
         NCelK=      1 NCelE2=     1 NClLst=     1 CellRange=     0.0.
 One-electron integrals computed using PRISM.
 One-electron integral symmetry used in STVInt
 NBasis=   279 RedAO= T EigKep=  3.49D-05  NBF=   279
 NBsUse=   279 1.00D-06 EigRej= -1.00D+00 NBFU=   279
 Precomputing XC quadrature grid using
 IXCGrd= 4 IRadAn=           5 IRanWt=          -1 IRanGd=           0 AccXCQ= 0.00D+00.
 Generated NRdTot=       0 NPtTot=           0 NUsed=           0 NTot=          32
 NSgBfM=   291   291   291   291   291 MxSgAt=    19 MxSgA2=    19.
 Leave Link  302 at Fri Sep 18 08:03:17 2026, MaxMem=  4294967296 cpu:               2.2 elap:               0.2
 (Enter /opt/apps/Gaussian/G16C/g16/l303.exe)
 DipDrv:  MaxL=1.
 Leave Link  303 at Fri Sep 18 08:03:17 2026, MaxMem=  4294967296 cpu:               0.1 elap:               0.0
 (Enter /opt/apps/Gaussian/G16C/g16/l401.exe)
 Initial guess from the checkpoint file:  "aminopropyl.chk"
 B after Tr=    -0.000000    0.000000    0.000000
         Rot=    1.000000    0.000000   -0.000000   -0.000000 Ang=   0.00 deg.
 Guess basis will be translated and rotated to current coordinates.
 JPrj=2 DoOrth=T DoCkMO=T.
 Leave Link  401 at Fri Sep 18 08:03:17 2026, MaxMem=  4294967296 cpu:               0.8 elap:               0.1
 (Enter /opt/apps/Gaussian/G16C/g16/l502.exe)
 Integral symmetry usage will be decided dynamically.
 Closed shell SCF:
 Using DIIS extrapolation, IDIIS=  1040.
 NGot=  4294967296 LenX=  4294789954 LenY=  4294704832
 Requested convergence on RMS density matrix=1.00D-08 within  32 cycles.
 Requested convergence on MAX density matrix=1.00D-06.
 Requested convergence on             energy=1.00D-06.
 No special actions if energy rises.
 Fock matrices will be formed incrementally for  20 cycles.

 Cycle   1  Pass 1  IDiag  1:
 FoFJK:  IHMeth= 1 ICntrl=       0 DoSepK=T KAlg= 0 I1Cent=           0 FoldK=F
 IRaf=         1 NMat=       1 IRICut=       1 DoRegI=T DoRafI=F ISym2E= 0 IDoP0=0 IntGTp=1.
 FoFCou: FMM=F IPFlag=           0 FMFlag=      100000 FMFlg1=           0
         NFxFlg=           0 DoJE=T BraDBF=F KetDBF=F FulRan=T
         wScrn=  0.000000 ICntrl=       500 IOpCl=  0 I1Cent=           0 NGrid=           0
         NMat0=    1 NMatS0=      1 NMatT0=    0 NMatD0=    1 NMtDS0=    0 NMtDT0=    0
 Symmetry not used in FoFCou.
 E= -253.104337998133    
 DIIS: error= 2.13D-09 at cycle   1 NSaved=   1.
 NSaved= 1 IEnMin= 1 EnMin= -253.104337998133     IErMin= 1 ErrMin= 2.13D-09
 ErrMax= 2.13D-09  0.00D+00 EMaxC= 1.00D-01 BMatC= 1.35D-15 BMatP= 1.35D-15
 IDIUse=1 WtCom= 1.00D+00 WtEn= 0.00D+00
 Coeff-Com:  0.100D+01
 Coeff:      0.100D+01
 Gap=     0.359 Goal=   None    Shift=    0.000
 RMSDP=4.85D-10 MaxDP=2.20D-08              OVMax= 4.25D-08

 SCF Done:  E(RwB97XD) =  -253.104337998     A.U. after    1 cycles
            NFock=  1  Conv=0.48D-09     -V/T= 2.0047
 KE= 2.519217656624D+02 PE=-1.116139164497D+03 EE= 3.464246320798D+02
 Leave Link  502 at Fri Sep 18 08:03:19 2026, MaxMem=  4294967296 cpu:              27.1 elap:               1.8
 (Enter /opt/apps/Gaussian/G16C/g16/l508.exe)
 QCSCF skips out because SCF is already converged.
 Leave Link  508 at Fri Sep 18 08:03:19 2026, MaxMem=  4294967296 cpu:               0.0 elap:               0.0
 (Enter /opt/apps/Gaussian/G16C/g16/l801.exe)
 DoSCS=F DFT=T ScalE2(SS,OS)=  1.000000  1.000000
 Range of M.O.s used for correlation:     1   279
 NBasis=   279 NAE=    25 NBE=    25 NFC=     0 NFV=     0
 NROrb=    279 NOA=    25 NOB=    25 NVA=   254 NVB=   254

 **** Warning!!: The largest alpha MO coefficient is  0.43442179D+02

 Leave Link  801 at Fri Sep 18 08:03:19 2026, MaxMem=  4294967296 cpu:               0.0 elap:               0.0
 (Enter /opt/apps/Gaussian/G16C/g16/l1101.exe)
 Using compressed storage, NAtomX=    19.
 Will process     20 centers per pass.
 R6Disp: Adding Grimme-D2 dispersion energy 1st derivatives to the gradient.
 Leave Link 1101 at Fri Sep 18 08:03:19 2026, MaxMem=  4294967296 cpu:               1.6 elap:               0.2
 (Enter /opt/apps/Gaussian/G16C/g16/l1102.exe)
 Symmetrizing basis deriv contribution to polar:
 IMax=3 JMax=2 DiffMx= 0.00D+00
 Leave Link 1102 at Fri Sep 18 08:03:19 2026, MaxMem=  4294967296 cpu:               0.1 elap:               0.0
 (Enter /opt/apps/Gaussian/G16C/g16/l1110.exe)
 Forming Gx(P) for the SCF density, NAtomX=    19.
 Integral derivatives from FoFJK, PRISM(SPDF).
 Do as many integral derivatives as possible in FoFJK.
 G2DrvN: MDV=    4294965203.
 G2DrvN: will do    20 centers at a time, making    1 passes.
 Calling FoFCou, ICntrl=  3107 FMM=F I1Cent=   0 AccDes= 0.00D+00.
 FoFJK:  IHMeth= 1 ICntrl=    3107 DoSepK=T KAlg= 0 I1Cent=           0 FoldK=F
 IRaf=         1 NMat=       1 IRICut=       1 DoRegI=T DoRafI=F ISym2E= 0 IDoP0=0 IntGTp=1.
 FoFCou: FMM=F IPFlag=           0 FMFlag=      100000 FMFlg1=           0
         NFxFlg=           0 DoJE=F BraDBF=F KetDBF=F FulRan=T
         wScrn=  0.000000 ICntrl=      3507 IOpCl=  0 I1Cent=           0 NGrid=           0
         NMat0=    1 NMatS0=      1 NMatT0=    0 NMatD0=    1 NMtDS0=    0 NMtDT0=    0
 Symmetry not used in FoFCou.
 End of G2Drv F.D. properties file   721 does not exist.
 End of G2Drv F.D. properties file   722 does not exist.
 End of G2Drv F.D. properties file   788 does not exist.
 Leave Link 1110 at Fri Sep 18 08:03:51 2026, MaxMem=  4294967296 cpu:             508.8 elap:              32.1
 (Enter /opt/apps/Gaussian/G16C/g16/l1002.exe)
 Minotr:  Closed shell wavefunction.
          IDoAtm=1111111111111111111
          Direct CPHF calculation.
          Differentiating once with respect to electric field.
                with respect to dipole field.
          Differentiating once with respect to nuclear coordinates.
          Requested convergence is 1.0D-08 RMS, and 1.0D-07 maximum.
          Secondary convergence is 1.0D-12 RMS, and 1.0D-12 maximum.
          NewPWx=T KeepS1=F KeepF1=F KeepIn=T MapXYZ=F SortEE=F KeepMc=T.
         5824 words used for storage of precomputed grid.
 Keep R1 ints in memory in canonical form, NReq=1554615963.
 FoFCou: FMM=F IPFlag=           0 FMFlag=           0 FMFlg1=           0
         NFxFlg=           0 DoJE=F BraDBF=F KetDBF=F FulRan=T
         wScrn=  0.000000 ICntrl=       600 IOpCl=  0 I1Cent=           0 NGrid=           0
         NMat0=    1 NMatS0=  39060 NMatT0=    0 NMatD0=    1 NMtDS0=    0 NMtDT0=    0
 Symmetry not used in FoFCou.
 Two-electron integral symmetry not used.
          MDV=    4294967296 using IRadAn=       1.
          Solving linear equations simultaneously, MaxMat=       0.
          There are    60 degrees of freedom in the 1st order CPHF.  IDoFFX=6 NUNeed=     3.
     57 vectors produced by pass  0 Test12= 1.06D-14 1.67D-09 XBig12= 2.67D+01 1.09D+00.
 AX will form    57 AO Fock derivatives at one time.
     57 vectors produced by pass  1 Test12= 1.06D-14 1.67D-09 XBig12= 1.98D+00 2.66D-01.
     57 vectors produced by pass  2 Test12= 1.06D-14 1.67D-09 XBig12= 6.04D-02 5.81D-02.
     57 vectors produced by pass  3 Test12= 1.06D-14 1.67D-09 XBig12= 6.18D-04 6.40D-03.
     57 vectors produced by pass  4 Test12= 1.06D-14 1.67D-09 XBig12= 4.04D-06 3.45D-04.
     57 vectors produced by pass  5 Test12= 1.06D-14 1.67D-09 XBig12= 2.34D-08 1.99D-05.
     45 vectors produced by pass  6 Test12= 1.06D-14 1.67D-09 XBig12= 1.39D-10 1.22D-06.
      5 vectors produced by pass  7 Test12= 1.06D-14 1.67D-09 XBig12= 7.12D-13 9.24D-08.
      3 vectors produced by pass  8 Test12= 1.06D-14 1.67D-09 XBig12= 3.30D-15 5.81D-09.
 InvSVY:  IOpt=1 It=  1 EMax= 4.44D-15
 Solved reduced A of dimension   395 with    60 vectors.
 FullF1:  Do perturbations      1 to       3.
 Isotropic polarizability for W=    0.000000       72.43 Bohr**3.
 End of Minotr F.D. properties file   721 does not exist.
 End of Minotr F.D. properties file   722 does not exist.
 End of Minotr F.D. properties file   788 does not exist.
 Leave Link 1002 at Fri Sep 18 08:04:56 2026, MaxMem=  4294967296 cpu:            1006.1 elap:              64.3
 (Enter /opt/apps/Gaussian/G16C/g16/l601.exe)
 Copying SCF densities to generalized density rwf, IOpCl= 0 IROHF=0.

 **********************************************************************

            Population analysis using the SCF Density.

 **********************************************************************

 Orbital symmetries:
       Occupied  (A) (A) (A) (A) (A) (A) (A) (A) (A) (A) (A) (A)
                 (A) (A) (A) (A) (A) (A) (A) (A) (A) (A) (A) (A)
                 (A)
       Virtual   (A) (A) (A) (A) (A) (A) (A) (A) (A) (A) (A) (A)
                 (A) (A) (A) (A) (A) (A) (A) (A) (A) (A) (A) (A)
                 (A) (A) (A) (A) (A) (A) (A) (A) (A) (A) (A) (A)
                 (A) (A) (A) (A) (A) (A) (A) (A) (A) (A) (A) (A)
                 (A) (A) (A) (A) (A) (A) (A) (A) (A) (A) (A) (A)
                 (A) (A) (A) (A) (A) (A) (A) (A) (A) (A) (A) (A)
                 (A) (A) (A) (A) (A) (A) (A) (A) (A) (A) (A) (A)
                 (A) (A) (A) (A) (A) (A) (A) (A) (A) (A) (A) (A)
                 (A) (A) (A) (A) (A) (A) (A) (A) (A) (A) (A) (A)
                 (A) (A) (A) (A) (A) (A) (A) (A) (A) (A) (A) (A)
                 (A) (A) (A) (A) (A) (A) (A) (A) (A) (A) (A) (A)
                 (A) (A) (A) (A) (A) (A) (A) (A) (A) (A) (A) (A)
                 (A) (A) (A) (A) (A) (A) (A) (A) (A) (A) (A) (A)
                 (A) (A) (A) (A) (A) (A) (A) (A) (A) (A) (A) (A)
                 (A) (A) (A) (A) (A) (A) (A) (A) (A) (A) (A) (A)
                 (A) (A) (A) (A) (A) (A) (A) (A) (A) (A) (A) (A)
                 (A) (A) (A) (A) (A) (A) (A) (A) (A) (A) (A) (A)
                 (A) (A) (A) (A) (A) (A) (A) (A) (A) (A) (A) (A)
                 (A) (A) (A) (A) (A) (A) (A) (A) (A) (A) (A) (A)
                 (A) (A) (A) (A) (A) (A) (A) (A) (A) (A) (A) (A)
                 (A) (A) (A) (A) (A) (A) (A) (A) (A) (A) (A) (A)
                 (A) (A)
 The electronic state is 1-A.
 Alpha  occ. eigenvalues --  -14.42022 -10.29808 -10.29291 -10.29289 -10.27345
 Alpha  occ. eigenvalues --  -10.25999  -1.02603  -0.87605  -0.80275  -0.78514
 Alpha  occ. eigenvalues --   -0.71396  -0.65436  -0.57235  -0.56390  -0.54394
 Alpha  occ. eigenvalues --   -0.51438  -0.50038  -0.47704  -0.46638  -0.44859
 Alpha  occ. eigenvalues --   -0.44509  -0.42589  -0.40985  -0.40736  -0.29487
 Alpha virt. eigenvalues --    0.06421   0.07694   0.08037   0.08241   0.10336
 Alpha virt. eigenvalues --    0.10865   0.11011   0.11531   0.12145   0.13449
 Alpha virt. eigenvalues --    0.14181   0.14755   0.15258   0.15328   0.16627
 Alpha virt. eigenvalues --    0.17634   0.18140   0.19547   0.20623   0.21319
 Alpha virt. eigenvalues --    0.23243   0.24247   0.25170   0.25589   0.26615
 Alpha virt. eigenvalues --    0.27330   0.28036   0.28940   0.29254   0.30879
 Alpha virt. eigenvalues --    0.31280   0.32115   0.32249   0.33160   0.33382
 Alpha virt. eigenvalues --    0.34129   0.34939   0.35731   0.37357   0.38006
 Alpha virt. eigenvalues --    0.40720   0.42189   0.46198   0.47417   0.48518
 Alpha virt. eigenvalues --    0.50136   0.52151   0.52756   0.54444   0.56634
 Alpha virt. eigenvalues --    0.57188   0.58522   0.59436   0.59680   0.60999
 Alpha virt. eigenvalues --    0.61831   0.63453   0.63631   0.64439   0.64829
 Alpha virt. eigenvalues --    0.65283   0.66460   0.67436   0.68938   0.69950
 Alpha virt. eigenvalues --    0.70519   0.72468   0.73477   0.74060   0.75254
 Alpha virt. eigenvalues --    0.75707   0.76697   0.77532   0.78797   0.79710
 Alpha virt. eigenvalues --    0.84377   0.86393   0.88268   0.89467   0.93531
 Alpha virt. eigenvalues --    0.93910   0.96131   0.97739   0.98692   1.01453
 Alpha virt. eigenvalues --    1.03271   1.05776   1.07359   1.08992   1.09960
 Alpha virt. eigenvalues --    1.11465   1.12917   1.15096   1.17748   1.20328
 Alpha virt. eigenvalues --    1.21084   1.21330   1.22106   1.22953   1.24230
 Alpha virt. eigenvalues --    1.26162   1.26755   1.27676   1.28183   1.29877
 Alpha virt. eigenvalues --    1.31098   1.32597   1.33752   1.34063   1.36874
 Alpha virt. eigenvalues --    1.37998   1.38301   1.39158   1.41211   1.42152
 Alpha virt. eigenvalues --    1.44538   1.44999   1.45380   1.46520   1.48393
 Alpha virt. eigenvalues --    1.49150   1.49374   1.50715   1.51784   1.54430
 Alpha virt. eigenvalues --    1.55238   1.56305   1.58169   1.59494   1.60245
 Alpha virt. eigenvalues --    1.61521   1.63871   1.65972   1.66167   1.67118
 Alpha virt. eigenvalues --    1.68292   1.71306   1.71923   1.75017   1.77534
 Alpha virt. eigenvalues --    1.79410   1.83060   1.88831   1.95000   1.96981
 Alpha virt. eigenvalues --    2.03435   2.12641   2.17379   2.71515   2.75519
 Alpha virt. eigenvalues --    2.79610   2.80729   2.84940   2.89072   2.94874
 Alpha virt. eigenvalues --    2.97172   2.98966   3.02981   3.11155   3.12497
 Alpha virt. eigenvalues --    3.16981   3.17645   3.25703   3.27644   3.29361
 Alpha virt. eigenvalues --    3.31219   3.33216   3.35918   3.39017   3.40076
 Alpha virt. eigenvalues --    3.43031   3.46562   3.47280   3.48814   3.50706
 Alpha virt. eigenvalues --    3.52154   3.53625   3.56004   3.57117   3.59077
 Alpha virt. eigenvalues --    3.62086   3.63955   3.65075   3.65945   3.66772
 Alpha virt. eigenvalues --    3.69006   3.70237   3.72843   3.73552   3.76165
 Alpha virt. eigenvalues --    3.77796   3.78161   3.80694   3.82195   3.83950
 Alpha virt. eigenvalues --    3.87596   3.90894   3.92783   3.94823   3.97264
 Alpha virt. eigenvalues --    3.99442   4.00470   4.02566   4.07979   4.08571
 Alpha virt. eigenvalues --    4.09524   4.11922   4.12634   4.15366   4.16580
 Alpha virt. eigenvalues --    4.18006   4.19801   4.20228   4.21150   4.23621
 Alpha virt. eigenvalues --    4.24360   4.25621   4.26296   4.27308   4.29718
 Alpha virt. eigenvalues --    4.31761   4.33420   4.36879   4.37544   4.38375
 Alpha virt. eigenvalues --    4.42203   4.44270   4.44743   4.48043   4.52461
 Alpha virt. eigenvalues --    4.63205   4.86145   5.00640   5.08062   5.11393
 Alpha virt. eigenvalues --    5.11803   5.13992   5.17169   5.18506   5.21538
 Alpha virt. eigenvalues --    5.23940   5.25178   5.28215   5.41743   5.44149
 Alpha virt. eigenvalues --    5.57488   5.70200   5.75228  24.01692  24.06332
 Alpha virt. eigenvalues --   24.16397  24.17966  24.23655  35.67596
          Condensed to atoms (all electrons):
               1          2          3          4          5          6
     1  C    5.075208   0.488728   0.447277   0.205962  -0.025670  -0.023532
     2  H    0.488728   0.542994  -0.028146  -0.037642   0.005182  -0.008391
     3  H    0.447277  -0.028146   0.535966  -0.046232  -0.006911  -0.004038
     4  C    0.205962  -0.037642  -0.046232   5.035807   0.464491   0.431296
     5  H   -0.025670   0.005182  -0.006911   0.464491   0.542794  -0.030609
     6  H   -0.023532  -0.008391  -0.004038   0.431296  -0.030609   0.551658
     7  N   -0.058232  -0.004477   0.007285   0.223146  -0.062588  -0.036793
     8  C    0.013671  -0.005769   0.000947  -0.073925  -0.002592   0.000028
     9  H    0.001033   0.000172   0.000026   0.007075  -0.000161  -0.000633
    10  H   -0.011222  -0.000491  -0.000084   0.004391  -0.000286   0.010456
    11  H    0.010825  -0.004662   0.000452  -0.004309  -0.000227  -0.002539
    12  C   -0.025735  -0.000112  -0.000475  -0.034864  -0.000828  -0.002273
    13  H    0.000018  -0.000090  -0.000030  -0.008558  -0.003187   0.009868
    14  H    0.003201   0.000001   0.000017   0.006412   0.000322  -0.000597
    15  H   -0.009978   0.000038   0.000020   0.001389   0.005573  -0.001898
    16  C    0.187318  -0.054624  -0.013718   0.020347  -0.003798   0.000234
    17  H   -0.061322  -0.003366  -0.004742   0.031886  -0.000255  -0.000118
    18  H   -0.007566   0.004742  -0.006461  -0.014335   0.001024   0.000146
    19  H   -0.004464  -0.006560   0.005022  -0.031032  -0.000137  -0.000418
               7          8          9         10         11         12
     1  C   -0.058232   0.013671   0.001033  -0.011222   0.010825  -0.025735
     2  H   -0.004477  -0.005769   0.000172  -0.000491  -0.004662  -0.000112
     3  H    0.007285   0.000947   0.000026  -0.000084   0.000452  -0.000475
     4  C    0.223146  -0.073925   0.007075   0.004391  -0.004309  -0.034864
     5  H   -0.062588  -0.002592  -0.000161  -0.000286  -0.000227  -0.000828
     6  H   -0.036793   0.000028  -0.000633   0.010456  -0.002539  -0.002273
     7  N    6.902805   0.248625  -0.048928  -0.041436  -0.051829   0.229221
     8  C    0.248625   4.839957   0.432724   0.426130   0.431544  -0.045870
     9  H   -0.048928   0.432724   0.555075  -0.032601  -0.019219  -0.001603
    10  H   -0.041436   0.426130  -0.032601   0.579611  -0.035917  -0.004942
    11  H   -0.051829   0.431544  -0.019219  -0.035917   0.564852   0.003762
    12  C    0.229221  -0.045870  -0.001603  -0.004942   0.003762   4.806394
    13  H   -0.031544   0.002498  -0.003365   0.012361  -0.000918   0.418370
    14  H   -0.051455  -0.003929   0.005748  -0.002181   0.000225   0.429768
    15  H   -0.052796   0.000372   0.000369  -0.000590  -0.000228   0.445043
    16  C   -0.019105   0.003225  -0.002215   0.002381  -0.003141  -0.006851
    17  H    0.001800   0.000029   0.000005  -0.000001  -0.000033   0.000717
    18  H   -0.001944  -0.001026   0.000006   0.000011  -0.000157  -0.000937
    19  H   -0.005392   0.002793   0.000107  -0.000296   0.002808  -0.001765
              13         14         15         16         17         18
     1  C    0.000018   0.003201  -0.009978   0.187318  -0.061322  -0.007566
     2  H   -0.000090   0.000001   0.000038  -0.054624  -0.003366   0.004742
     3  H   -0.000030   0.000017   0.000020  -0.013718  -0.004742  -0.006461
     4  C   -0.008558   0.006412   0.001389   0.020347   0.031886  -0.014335
     5  H   -0.003187   0.000322   0.005573  -0.003798  -0.000255   0.001024
     6  H    0.009868  -0.000597  -0.001898   0.000234  -0.000118   0.000146
     7  N   -0.031544  -0.051455  -0.052796  -0.019105   0.001800  -0.001944
     8  C    0.002498  -0.003929   0.000372   0.003225   0.000029  -0.001026
     9  H   -0.003365   0.005748   0.000369  -0.002215   0.000005   0.000006
    10  H    0.012361  -0.002181  -0.000590   0.002381  -0.000001   0.000011
    11  H   -0.000918   0.000225  -0.000228  -0.003141  -0.000033  -0.000157
    12  C    0.418370   0.429768   0.445043  -0.006851   0.000717  -0.000937
    13  H    0.591083  -0.036294  -0.038083  -0.002024   0.000002   0.000015
    14  H   -0.036294   0.564002  -0.015898   0.000199  -0.000001  -0.000008
    15  H   -0.038083  -0.015898   0.560115   0.004310  -0.000004  -0.000052
    16  C   -0.002024   0.000199   0.004310   4.980753   0.427680   0.417885
    17  H    0.000002  -0.000001  -0.000004   0.427680   0.545830  -0.022822
    18  H    0.000015  -0.000008  -0.000052   0.417885  -0.022822   0.558186
    19  H   -0.000038   0.000064   0.000064   0.432691  -0.024590  -0.028531
              19
     1  C   -0.004464
     2  H   -0.006560
     3  H    0.005022
     4  C   -0.031032
     5  H   -0.000137
     6  H   -0.000418
     7  N   -0.005392
     8  C    0.002793
     9  H    0.000107
    10  H   -0.000296
    11  H    0.002808
    12  C   -0.001765
    13  H   -0.000038
    14  H    0.000064
    15  H    0.000064
    16  C    0.432691
    17  H   -0.024590
    18  H   -0.028531
    19  H    0.544283
 Mulliken charges:
               1
     1  C   -0.205520
     2  H    0.112474
     3  H    0.113824
     4  C   -0.181307
     5  H    0.117863
     6  H    0.108150
     7  N   -0.146363
     8  C   -0.269431
     9  H    0.106384
    10  H    0.094705
    11  H    0.108709
    12  C   -0.207021
    13  H    0.089915
    14  H    0.100404
    15  H    0.102234
    16  C   -0.371546
    17  H    0.109306
    18  H    0.101825
    19  H    0.115394
 Sum of Mulliken charges =   0.00000
 Mulliken charges with hydrogens summed into heavy atoms:
               1
     1  C    0.020778
     4  C    0.044706
     7  N   -0.146363
     8  C    0.040368
    12  C    0.085532
    16  C   -0.045021
 APT charges:
               1
     1  C    0.084635
     2  H   -0.037290
     3  H   -0.040480
     4  C    0.367777
     5  H   -0.036235
     6  H   -0.103741
     7  N   -0.672669
     8  C    0.317454
     9  H   -0.015895
    10  H   -0.078811
    11  H   -0.012204
    12  C    0.350043
    13  H   -0.084852
    14  H   -0.023368
    15  H   -0.016463
    16  C    0.047287
    17  H   -0.027493
    18  H   -0.019333
    19  H    0.001638
 Sum of APT charges =   0.00000
 APT charges with hydrogens summed into heavy atoms:
               1
     1  C    0.006865
     4  C    0.227801
     7  N   -0.672669
     8  C    0.210544
    12  C    0.225360
    16  C    0.002099
 Electronic spatial extent (au):  <R**2>=            752.5816
 Charge=              0.0000 electrons
 Dipole moment (field-independent basis, Debye):
    X=             -0.2462    Y=              0.0025    Z=              0.5360  Tot=              0.5898
 Quadrupole moment (field-independent basis, Debye-Ang):
   XX=            -40.0346   YY=            -39.4851   ZZ=            -42.5949
   XY=             -0.2220   XZ=              1.0250   YZ=             -0.0685
 Traceless Quadrupole moment (field-independent basis, Debye-Ang):
   XX=              0.6702   YY=              1.2198   ZZ=             -1.8900
   XY=             -0.2220   XZ=              1.0250   YZ=             -0.0685
 Octapole moment (field-independent basis, Debye-Ang**2):
  XXX=             -2.8958  YYY=             -0.9692  ZZZ=              0.0478  XYY=             -0.3873
  XXY=              0.5203  XXZ=             -1.9367  XZZ=             -1.2974  YZZ=              0.1737
  YYZ=             -1.8882  XYZ=              0.1351
 Hexadecapole moment (field-independent basis, Debye-Ang**3):
 XXXX=           -668.6721 YYYY=           -219.6476 ZZZZ=           -164.4306 XXXY=             -0.2104
 XXXZ=             11.8261 YYYX=             -0.1737 YYYZ=              1.8474 ZZZX=              3.5420
 ZZZY=             -1.0799 XXYY=           -148.0050 XXZZ=           -137.9504 YYZZ=            -64.1575
 XXYZ=             -1.9752 YYXZ=              3.3563 ZZXY=             -1.8893
 N-N= 2.646884287564D+02 E-N=-1.116139164182D+03  KE= 2.519217656624D+02
  Exact polarizability:      79.644       0.406      69.394      -0.602      -0.028      68.256
 Approx polarizability:      75.333      -0.081      74.992       0.077       0.082      74.817
 No NMR shielding tensors so no spin-rotation constants.
 Leave Link  601 at Fri Sep 18 08:04:56 2026, MaxMem=  4294967296 cpu:               0.8 elap:               0.1
 (Enter /opt/apps/Gaussian/G16C/g16/l701.exe)
 ... and contract with generalized density number  0.
 Compute integral second derivatives.
 R6Disp: Adding Grimme-D2 dispersion energy 2nd derivatives to the Hessian.
 Leave Link  701 at Fri Sep 18 08:04:56 2026, MaxMem=  4294967296 cpu:               1.2 elap:               0.1
 (Enter /opt/apps/Gaussian/G16C/g16/l702.exe)
 L702 exits ... SP integral derivatives will be done elsewhere.
 Leave Link  702 at Fri Sep 18 08:04:56 2026, MaxMem=  4294967296 cpu:               0.0 elap:               0.0
 (Enter /opt/apps/Gaussian/G16C/g16/l703.exe)
 Integral derivatives from FoFJK, PRISM(SPDF).
 Compute integral second derivatives, UseDBF=F ICtDFT=           0.
 Calling FoFJK, ICntrl=    100127 FMM=F ISym2X=0 I1Cent= 0 IOpClX= 0 NMat=1 NMatS=1 NMatT=0.
 FoFJK:  IHMeth= 1 ICntrl=  100127 DoSepK=T KAlg= 0 I1Cent=           0 FoldK=F
 IRaf=         1 NMat=       1 IRICut=       1 DoRegI=T DoRafI=F ISym2E= 0 IDoP0=0 IntGTp=1.
 FoFCou: FMM=F IPFlag=           0 FMFlag=      100000 FMFlg1=         800
         NFxFlg=           0 DoJE=F BraDBF=F KetDBF=F FulRan=T
         wScrn=  0.000000 ICntrl=    100527 IOpCl=  0 I1Cent=           0 NGrid=           0
         NMat0=    1 NMatS0=      1 NMatT0=    0 NMatD0=    1 NMtDS0=    0 NMtDT0=    0
 Symmetry not used in FoFCou.
 Leave Link  703 at Fri Sep 18 08:05:45 2026, MaxMem=  4294967296 cpu:             752.0 elap:              48.6
 (Enter /opt/apps/Gaussian/G16C/g16/l716.exe)
 Dipole        =-9.68698835D-02 9.74634531D-04 2.10873142D-01
 Polarizability= 7.96435823D+01 4.06170224D-01 6.93939735D+01
                -6.02434053D-01-2.81296872D-02 6.82561019D+01
 Full mass-weighted force constant matrix:
 Low frequencies ---   -0.0005   -0.0000    0.0005    7.2822    9.4273   11.2257
 Low frequencies ---   69.9151  135.0101  205.9135
 Diagonal vibrational polarizability:
        3.8008952       2.0929951       3.8854102
 Harmonic frequencies (cm**-1), IR intensities (KM/Mole), Raman scattering
 activities (A**4/AMU), depolarization ratios for plane and unpolarized
 incident light, reduced masses (AMU), force constants (mDyne/A),
 and normal coordinates:
                      1                      2                      3
                      A                      A                      A
 Frequencies --     69.8945               135.0068               205.9069
 Red. masses --      2.5046                 2.0046                 1.2337
 Frc consts  --      0.0072                 0.0215                 0.0308
 IR Inten    --      0.1648                 0.4352                 0.3569
  Atom  AN      X      Y      Z        X      Y      Z        X      Y      Z
     1   6    -0.03  -0.06   0.04    -0.03   0.05  -0.03    -0.02   0.02   0.01
     2   1    -0.05  -0.13   0.22    -0.15   0.09  -0.12    -0.08   0.04  -0.04
     3   1    -0.01  -0.16  -0.06    -0.09   0.15   0.11     0.03   0.09   0.02
     4   6    -0.01  -0.10  -0.03     0.01  -0.03  -0.14     0.00  -0.04   0.03
     5   1     0.01  -0.08  -0.08     0.07   0.00  -0.26     0.02  -0.03   0.02
     6   1    -0.04  -0.15  -0.04    -0.00  -0.17  -0.14    -0.00  -0.05   0.03
     7   7    -0.00  -0.08  -0.03    -0.06   0.01  -0.05     0.02  -0.02   0.03
     8   6     0.16  -0.02  -0.15    -0.03  -0.00   0.03     0.07  -0.01   0.02
     9   1     0.12  -0.03  -0.11    -0.18  -0.02   0.18    -0.00  -0.02   0.09
    10   1     0.27   0.13  -0.11     0.17  -0.04   0.11     0.18   0.03   0.06
    11   1     0.20  -0.10  -0.31    -0.07   0.03  -0.14     0.06  -0.01  -0.10
    12   6    -0.08   0.03   0.12    -0.08   0.02   0.10     0.01   0.02  -0.06
    13   1    -0.03   0.19   0.16     0.06   0.01   0.17    -0.09   0.07  -0.11
    14   1    -0.08   0.01   0.11    -0.18   0.03   0.20     0.09   0.02  -0.14
    15   1    -0.20  -0.03   0.23    -0.13   0.02   0.05     0.01   0.01  -0.00
    16   6    -0.04   0.20   0.04     0.18  -0.04   0.07    -0.08   0.00  -0.02
    17   1    -0.04   0.19   0.12     0.10   0.16   0.17    -0.26   0.47  -0.15
    18   1    -0.04   0.28  -0.14     0.45  -0.10   0.23     0.37  -0.07   0.21
    19   1    -0.04   0.32   0.15     0.18  -0.26  -0.12    -0.39  -0.42  -0.12
                      4                      5                      6
                      A                      A                      A
 Frequencies --    243.8117               261.0485               315.3301
 Red. masses --      1.1189                 1.1127                 1.6662
 Frc consts  --      0.0392                 0.0447                 0.0976
 IR Inten    --      0.2285                 0.3575                 0.3031
  Atom  AN      X      Y      Z        X      Y      Z        X      Y      Z
     1   6    -0.03   0.05   0.01     0.02  -0.00  -0.02    -0.07   0.16   0.00
     2   1    -0.07   0.07  -0.05     0.02  -0.01  -0.02    -0.23   0.22  -0.16
     3   1    -0.02   0.11   0.04     0.02  -0.00  -0.02    -0.01   0.36   0.12
     4   6    -0.00   0.00   0.00     0.01  -0.01  -0.00     0.03  -0.06  -0.03
     5   1     0.04   0.00  -0.00     0.02  -0.01  -0.01     0.18  -0.02  -0.12
     6   1    -0.02  -0.01  -0.00     0.05  -0.02   0.01    -0.01  -0.19  -0.04
     7   7     0.01  -0.01  -0.00    -0.01  -0.01   0.01     0.03  -0.05  -0.01
     8   6     0.04  -0.01   0.04    -0.04  -0.02   0.03     0.09  -0.06   0.04
     9   1    -0.32  -0.12   0.34     0.03  -0.00  -0.03     0.34   0.10  -0.13
    10   1     0.50   0.01   0.22    -0.15  -0.07  -0.01    -0.18  -0.12  -0.07
    11   1    -0.04   0.08  -0.42    -0.04  -0.01   0.15     0.17  -0.15   0.36
    12   6     0.01  -0.01  -0.04    -0.04   0.04  -0.00    -0.02   0.04  -0.00
    13   1    -0.08   0.06  -0.09    -0.32   0.51  -0.13     0.01   0.05   0.02
    14   1     0.08  -0.08  -0.15     0.21  -0.24  -0.40    -0.02   0.13   0.04
    15   1     0.05  -0.04   0.07    -0.02  -0.12   0.51    -0.12   0.03  -0.05
    16   6    -0.03  -0.02   0.01     0.05   0.01  -0.01    -0.06  -0.03   0.01
    17   1     0.07  -0.26   0.02     0.05   0.00   0.02     0.03  -0.25  -0.03
    18   1    -0.28  -0.02  -0.04     0.05   0.02  -0.03    -0.29  -0.07   0.08
    19   1     0.11   0.15   0.03     0.07   0.03  -0.02     0.07   0.05  -0.04
                      7                      8                      9
                      A                      A                      A
 Frequencies --    353.5929               396.3217               445.0429
 Red. masses --      2.5284                 1.8904                 2.0417
 Frc consts  --      0.1863                 0.1749                 0.2383
 IR Inten    --      3.3669                 3.2578                 0.2156
  Atom  AN      X      Y      Z        X      Y      Z        X      Y      Z
     1   6     0.01   0.03  -0.09    -0.01  -0.01   0.02     0.09   0.00   0.05
     2   1    -0.02   0.05  -0.14    -0.09  -0.00   0.01     0.03   0.02   0.02
     3   1     0.05   0.11  -0.05     0.01   0.03   0.04     0.14   0.05   0.04
     4   6    -0.00  -0.02   0.11     0.05  -0.10  -0.07     0.10  -0.06   0.03
     5   1    -0.04  -0.05   0.19     0.15   0.02  -0.47     0.14  -0.04  -0.04
     6   1     0.18   0.06   0.18     0.11  -0.53  -0.05     0.08  -0.13   0.02
     7   7    -0.10  -0.07   0.19    -0.04   0.07   0.15     0.08  -0.04   0.02
     8   6     0.04  -0.01  -0.02    -0.04   0.12  -0.06    -0.15  -0.07  -0.06
     9   1     0.10  -0.03  -0.09     0.01  -0.02  -0.20    -0.32  -0.34  -0.04
    10   1     0.06   0.25  -0.04    -0.11   0.36  -0.12    -0.12  -0.09  -0.05
    11   1     0.11  -0.12  -0.14    -0.03   0.11  -0.15    -0.32   0.17  -0.19
    12   6    -0.13  -0.00  -0.10     0.06  -0.04   0.01    -0.04   0.16  -0.01
    13   1    -0.28  -0.24  -0.20    -0.07  -0.11  -0.06    -0.00   0.17   0.01
    14   1     0.01   0.23  -0.08     0.10  -0.14  -0.09     0.02   0.44   0.10
    15   1    -0.14   0.08  -0.37     0.23  -0.02   0.05    -0.32   0.16  -0.18
    16   6     0.14   0.04  -0.05    -0.04  -0.03   0.02    -0.02  -0.01   0.01
    17   1     0.16   0.00   0.12    -0.02  -0.08  -0.04    -0.01  -0.03  -0.12
    18   1     0.17   0.07  -0.10    -0.11  -0.04   0.03    -0.09  -0.01   0.01
    19   1     0.28   0.12  -0.10    -0.04  -0.02   0.03    -0.09  -0.01   0.07
                     10                     11                     12
                      A                      A                      A
 Frequencies --    534.7101               765.3235               857.2626
 Red. masses --      2.4461                 1.4258                 2.1681
 Frc consts  --      0.4121                 0.4920                 0.9388
 IR Inten    --      1.0352                 7.0245                 9.4396
  Atom  AN      X      Y      Z        X      Y      Z        X      Y      Z
     1   6     0.19   0.07   0.12     0.09  -0.06   0.04     0.02   0.06   0.06
     2   1     0.41   0.00   0.28    -0.26   0.11  -0.39     0.04  -0.05   0.34
     3   1     0.06  -0.22  -0.01     0.15   0.41   0.38     0.27  -0.06  -0.28
     4   6     0.08   0.11  -0.08     0.02  -0.07   0.02    -0.03  -0.14   0.15
     5   1     0.24   0.15  -0.16    -0.12  -0.11   0.14     0.05  -0.12   0.06
     6   1     0.07  -0.04  -0.08     0.00   0.10   0.01    -0.18  -0.23   0.08
     7   7    -0.12  -0.02  -0.03    -0.01   0.02  -0.06     0.04   0.00  -0.10
     8   6     0.03  -0.01   0.01    -0.01   0.08   0.01    -0.02   0.14   0.02
     9   1     0.09   0.16   0.05     0.01   0.14   0.03    -0.05   0.15   0.05
    10   1     0.10   0.02   0.03    -0.00   0.05   0.01    -0.02   0.04   0.01
    11   1     0.15  -0.19   0.02     0.00   0.07   0.04    -0.04   0.18   0.05
    12   6    -0.15  -0.07  -0.05    -0.06  -0.04  -0.01    -0.07  -0.05  -0.02
    13   1    -0.20  -0.09  -0.08    -0.02  -0.04   0.00     0.05  -0.01   0.04
    14   1    -0.11  -0.05  -0.08    -0.11  -0.11  -0.01    -0.18  -0.14   0.02
    15   1    -0.13  -0.06  -0.07    -0.02  -0.04   0.02    -0.07  -0.07   0.04
    16   6    -0.02  -0.02   0.04     0.02  -0.01   0.00     0.03   0.05  -0.09
    17   1    -0.01  -0.05  -0.31    -0.02   0.11  -0.15     0.12  -0.16  -0.08
    18   1    -0.19  -0.08   0.16    -0.03   0.11  -0.29    -0.02  -0.11   0.29
    19   1    -0.22  -0.12   0.12    -0.20   0.12   0.31     0.22  -0.13  -0.40
                     13                     14                     15
                      A                      A                      A
 Frequencies --    902.6399               936.7034              1027.9286
 Red. masses --      2.2139                 1.3382                 1.8432
 Frc consts  --      1.0628                 0.6918                 1.1475
 IR Inten    --      3.9504                 2.5326                24.7781
  Atom  AN      X      Y      Z        X      Y      Z        X      Y      Z
     1   6    -0.03  -0.03  -0.13    -0.02  -0.01  -0.02     0.11  -0.01  -0.04
     2   1    -0.15  -0.11   0.04     0.29   0.08  -0.22     0.05   0.04  -0.15
     3   1     0.06  -0.06  -0.24     0.01  -0.01  -0.04     0.48   0.21  -0.20
     4   6     0.18  -0.02  -0.06     0.04   0.06   0.09    -0.00  -0.05   0.04
     5   1    -0.01  -0.14   0.30     0.34   0.17  -0.23    -0.14  -0.04  -0.03
     6   1     0.43   0.41   0.02    -0.07  -0.34   0.05    -0.04  -0.05   0.02
     7   7     0.04  -0.02  -0.02     0.04  -0.01  -0.04    -0.11   0.06  -0.02
     8   6    -0.01   0.10   0.02     0.00   0.03  -0.00    -0.04  -0.10  -0.05
     9   1    -0.01   0.05  -0.00    -0.02   0.07   0.04     0.02   0.17   0.05
    10   1    -0.05   0.09   0.00     0.02  -0.03   0.01     0.11  -0.08   0.02
    11   1    -0.05   0.17   0.04    -0.00   0.04   0.03     0.12  -0.34  -0.05
    12   6    -0.07  -0.05  -0.01    -0.05  -0.04  -0.01     0.05   0.09  -0.01
    13   1    -0.10  -0.03  -0.03    -0.01   0.02   0.00     0.13  -0.03   0.04
    14   1    -0.02  -0.00  -0.02    -0.05   0.01   0.02    -0.11  -0.15  -0.01
    15   1    -0.12  -0.05  -0.04    -0.12  -0.05  -0.01     0.32   0.13   0.06
    16   6    -0.11   0.01   0.14    -0.06  -0.06  -0.00    -0.08   0.01   0.06
    17   1    -0.08  -0.08   0.35    -0.15   0.13   0.47    -0.06  -0.06   0.34
    18   1    -0.06  -0.06   0.32     0.27   0.09  -0.31     0.06  -0.03   0.18
    19   1     0.07  -0.04  -0.05     0.11   0.16   0.05     0.14   0.02  -0.12
                     16                     17                     18
                      A                      A                      A
 Frequencies --   1076.7917              1106.4903              1113.0215
 Red. masses --      1.4877                 2.1732                 1.5445
 Frc consts  --      1.0163                 1.5676                 1.1273
 IR Inten    --     11.7754                 8.5014                 5.5769
  Atom  AN      X      Y      Z        X      Y      Z        X      Y      Z
     1   6    -0.02  -0.01   0.01    -0.08  -0.07   0.18     0.09  -0.03   0.06
     2   1    -0.04  -0.02   0.03    -0.41  -0.10   0.22    -0.06   0.04  -0.11
     3   1    -0.04  -0.01   0.03    -0.05   0.05   0.25     0.35   0.20   0.00
     4   6     0.02  -0.01   0.01     0.16   0.04  -0.01    -0.08   0.05  -0.09
     5   1     0.04  -0.01   0.03     0.08   0.02   0.06    -0.27   0.03  -0.08
     6   1     0.03  -0.01   0.01     0.14   0.15  -0.02    -0.31   0.09  -0.17
     7   7    -0.04  -0.07  -0.02    -0.03   0.05  -0.01     0.05  -0.00   0.03
     8   6    -0.11   0.06  -0.00    -0.01  -0.04  -0.05     0.02   0.01   0.04
     9   1     0.04   0.51   0.10    -0.02   0.16   0.08     0.04  -0.18  -0.09
    10   1     0.18   0.18   0.10     0.07  -0.19   0.00    -0.07   0.14  -0.01
    11   1     0.19  -0.41  -0.05     0.03  -0.10   0.06    -0.04   0.09  -0.05
    12   6     0.12  -0.02   0.01    -0.03   0.03   0.05     0.00  -0.08   0.04
    13   1     0.06   0.26  -0.01    -0.23  -0.19  -0.07    -0.20   0.04  -0.07
    14   1     0.29   0.32   0.07     0.07  -0.04  -0.10     0.28   0.24  -0.01
    15   1    -0.35  -0.11  -0.04     0.22   0.13  -0.09    -0.28  -0.10  -0.10
    16   6     0.01   0.00  -0.01    -0.03  -0.00  -0.15    -0.07   0.02  -0.03
    17   1     0.01   0.00  -0.04    -0.01  -0.05   0.16    -0.03  -0.08   0.25
    18   1    -0.01   0.00  -0.02     0.20  -0.01  -0.12     0.12  -0.03   0.11
    19   1    -0.01  -0.01  -0.00     0.25   0.03  -0.36     0.20   0.02  -0.24
                     19                     20                     21
                      A                      A                      A
 Frequencies --   1124.2378              1139.2726              1196.0890
 Red. masses --      1.3354                 1.6327                 1.6680
 Frc consts  --      0.9944                 1.2486                 1.4059
 IR Inten    --      2.7069                11.9056                17.7625
  Atom  AN      X      Y      Z        X      Y      Z        X      Y      Z
     1   6    -0.01   0.04   0.06    -0.02  -0.10  -0.02     0.03   0.04   0.05
     2   1     0.08   0.03   0.08    -0.34  -0.09  -0.04     0.06   0.04   0.08
     3   1    -0.06  -0.06   0.03     0.04   0.11   0.09    -0.01  -0.01   0.04
     4   6     0.04  -0.03  -0.04     0.03   0.10   0.06    -0.01  -0.03  -0.07
     5   1     0.13  -0.10   0.22    -0.15   0.19  -0.30    -0.11  -0.08   0.10
     6   1    -0.07   0.18  -0.09     0.21  -0.17   0.13     0.10   0.12  -0.01
     7   7    -0.02   0.01  -0.01     0.05   0.08   0.03    -0.05  -0.03   0.12
     8   6    -0.02  -0.03   0.10    -0.00  -0.07   0.01     0.05   0.05  -0.08
     9   1     0.16  -0.26  -0.23     0.07  -0.03  -0.04    -0.18   0.12   0.19
    10   1    -0.10   0.54   0.01     0.04   0.08   0.02     0.02  -0.43  -0.03
    11   1     0.04  -0.15  -0.27     0.05  -0.15  -0.08    -0.07   0.26   0.26
    12   6     0.01   0.03  -0.07    -0.04  -0.06  -0.09     0.04  -0.01  -0.10
    13   1     0.28   0.13   0.09     0.29   0.24   0.10     0.37   0.25   0.12
    14   1    -0.24  -0.12   0.07    -0.28  -0.04   0.14    -0.25  -0.03   0.16
    15   1    -0.00  -0.04   0.14    -0.29  -0.18   0.14    -0.21  -0.15   0.18
    16   6    -0.02  -0.03  -0.04     0.01   0.06   0.00    -0.03  -0.03  -0.03
    17   1    -0.05   0.04   0.13     0.08  -0.10  -0.11    -0.06   0.03   0.15
    18   1     0.13   0.02  -0.16    -0.11  -0.04   0.21     0.13   0.01  -0.11
    19   1     0.08   0.07  -0.04    -0.01  -0.10  -0.12     0.10   0.08  -0.05
                     22                     23                     24
                      A                      A                      A
 Frequencies --   1255.5356              1306.6625              1329.7472
 Red. masses --      1.9286                 1.6067                 1.4293
 Frc consts  --      1.7912                 1.6163                 1.4890
 IR Inten    --     10.2770                 9.4529                 8.0814
  Atom  AN      X      Y      Z        X      Y      Z        X      Y      Z
     1   6    -0.02   0.13   0.00     0.05   0.01   0.01     0.06   0.03   0.01
     2   1    -0.03  -0.02   0.37     0.33   0.12  -0.22     0.00   0.01   0.09
     3   1     0.10  -0.06  -0.27    -0.43  -0.10   0.36    -0.23  -0.04   0.22
     4   6     0.01  -0.07   0.00    -0.05  -0.03  -0.04    -0.04  -0.01   0.04
     5   1    -0.51  -0.07  -0.11    -0.25  -0.06  -0.02    -0.32   0.03  -0.18
     6   1     0.15   0.07   0.05     0.18  -0.00   0.05     0.65  -0.14   0.30
     7   7     0.09   0.15   0.01     0.15  -0.03   0.04    -0.08  -0.02  -0.10
     8   6    -0.03  -0.07  -0.03    -0.08   0.01  -0.02     0.05   0.01   0.05
     9   1     0.05   0.10  -0.01     0.04   0.23  -0.01     0.00  -0.21  -0.04
    10   1     0.12  -0.03   0.03     0.20   0.05   0.08    -0.17   0.03  -0.06
    11   1     0.06  -0.20  -0.03     0.09  -0.23   0.02    -0.05   0.14  -0.11
    12   6    -0.05  -0.07   0.02    -0.07   0.03   0.00     0.05  -0.00   0.02
    13   1    -0.15   0.01  -0.04     0.01  -0.17   0.02    -0.01   0.07  -0.01
    14   1     0.06   0.05   0.00    -0.11  -0.16  -0.07     0.13   0.07  -0.01
    15   1    -0.17  -0.07  -0.07     0.14   0.06   0.04    -0.02   0.02  -0.08
    16   6     0.02  -0.10   0.01    -0.05   0.04  -0.02    -0.04  -0.01  -0.02
    17   1    -0.10   0.19   0.03     0.00  -0.08   0.09    -0.04  -0.00   0.09
    18   1     0.07   0.05  -0.34     0.05  -0.02   0.16     0.10  -0.01   0.00
    19   1    -0.04   0.12   0.25     0.09   0.01  -0.17     0.09   0.07  -0.06
                     25                     26                     27
                      A                      A                      A
 Frequencies --   1332.9986              1389.0101              1421.4467
 Red. masses --      1.8528                 1.3476                 1.4096
 Frc consts  --      1.9397                 1.5318                 1.6781
 IR Inten    --     15.8408                 5.3117                 4.7919
  Atom  AN      X      Y      Z        X      Y      Z        X      Y      Z
     1   6    -0.03  -0.02   0.00    -0.11  -0.04   0.10     0.08   0.00  -0.05
     2   1     0.49   0.13  -0.34     0.40   0.13  -0.27    -0.32  -0.09   0.16
     3   1    -0.32  -0.09   0.22     0.43   0.13  -0.26    -0.09  -0.03   0.08
     4   6     0.05  -0.10   0.03    -0.03   0.01  -0.05    -0.10  -0.02  -0.01
     5   1     0.18  -0.14   0.21     0.01  -0.00   0.00     0.55  -0.00   0.12
     6   1    -0.11   0.08  -0.04     0.45   0.06   0.13     0.11   0.07   0.07
     7   7    -0.06   0.18  -0.01     0.01  -0.01  -0.01     0.03   0.05   0.01
     8   6     0.04  -0.06  -0.03    -0.01   0.01   0.01    -0.01  -0.01  -0.01
     9   1    -0.04  -0.10   0.02     0.00  -0.04  -0.03     0.02   0.01  -0.03
    10   1    -0.04  -0.10  -0.04     0.01  -0.04   0.01     0.05  -0.05   0.02
    11   1    -0.01   0.02   0.01     0.03  -0.05  -0.02     0.03  -0.07   0.00
    12   6     0.03  -0.08   0.02    -0.01   0.00   0.00    -0.02  -0.03   0.01
    13   1    -0.15   0.20  -0.06     0.04  -0.01   0.02    -0.01   0.07   0.01
    14   1     0.10   0.16   0.10     0.02  -0.01  -0.03     0.05   0.09   0.02
    15   1    -0.24  -0.09  -0.11     0.04   0.01  -0.00     0.06   0.00  -0.02
    16   6    -0.01   0.06  -0.00     0.01   0.01   0.05    -0.06  -0.02   0.09
    17   1     0.06  -0.10  -0.03     0.04  -0.02  -0.32    -0.02  -0.07  -0.36
    18   1    -0.04  -0.01   0.16     0.01   0.10  -0.20     0.26   0.14  -0.27
    19   1    -0.00  -0.08  -0.13     0.12  -0.12  -0.17     0.31   0.00  -0.23
                     28                     29                     30
                      A                      A                      A
 Frequencies --   1430.6020              1452.1421              1481.4465
 Red. masses --      1.3242                 1.1738                 1.1858
 Frc consts  --      1.5968                 1.4583                 1.5333
 IR Inten    --     12.1221                 0.8319                 0.8524
  Atom  AN      X      Y      Z        X      Y      Z        X      Y      Z
     1   6     0.01  -0.01   0.02    -0.00   0.00   0.01    -0.00   0.00  -0.02
     2   1    -0.06  -0.02   0.05     0.00   0.04  -0.08     0.04  -0.03   0.06
     3   1     0.15   0.07  -0.04    -0.01  -0.07  -0.05    -0.04   0.05   0.06
     4   6    -0.11  -0.01  -0.04     0.01  -0.00   0.00     0.05   0.03  -0.01
     5   1     0.46  -0.02   0.16    -0.06  -0.01  -0.00    -0.21  -0.08   0.25
     6   1     0.36   0.04   0.14     0.00  -0.01  -0.00    -0.12  -0.32  -0.04
     7   7     0.03   0.04   0.00    -0.00  -0.01  -0.00    -0.01  -0.00   0.00
     8   6    -0.02   0.00  -0.01     0.02  -0.09  -0.02    -0.01   0.07   0.02
     9   1     0.02  -0.05  -0.07     0.03   0.37   0.23     0.00  -0.25  -0.19
    10   1     0.09  -0.08   0.04    -0.04   0.42  -0.07     0.02  -0.34   0.06
    11   1     0.04  -0.09   0.02    -0.23   0.33   0.09     0.16  -0.21  -0.11
    12   6    -0.03  -0.03   0.01    -0.07  -0.04  -0.01    -0.07  -0.05  -0.02
    13   1     0.05   0.10   0.04     0.27   0.20   0.17     0.21   0.23   0.14
    14   1     0.09   0.11  -0.01     0.24   0.28  -0.08     0.18   0.30  -0.02
    15   1     0.11   0.02  -0.04     0.37   0.06  -0.00     0.39   0.05   0.00
    16   6     0.04  -0.00  -0.09    -0.00   0.00   0.00     0.00  -0.00   0.01
    17   1    -0.00   0.04   0.41     0.01  -0.02  -0.03    -0.03   0.07  -0.01
    18   1    -0.14  -0.16   0.29     0.03  -0.00   0.01    -0.09   0.03  -0.06
    19   1    -0.28   0.09   0.29     0.01   0.01   0.01     0.05  -0.05  -0.08
                     31                     32                     33
                      A                      A                      A
 Frequencies --   1491.7477              1496.5629              1501.3666
 Red. masses --      1.0547                 1.0537                 1.0476
 Frc consts  --      1.3828                 1.3905                 1.3913
 IR Inten    --      5.5961                 5.1291                 4.2705
  Atom  AN      X      Y      Z        X      Y      Z        X      Y      Z
     1   6     0.01   0.01   0.03    -0.00   0.00  -0.01     0.01  -0.02  -0.00
     2   1    -0.16   0.10  -0.23     0.09  -0.03   0.09     0.04  -0.03   0.01
     3   1    -0.03  -0.24  -0.16    -0.00   0.09   0.07    -0.00   0.06   0.08
     4   6    -0.00   0.02  -0.01    -0.01  -0.03   0.02    -0.01   0.01  -0.01
     5   1    -0.03  -0.04   0.17     0.05   0.05  -0.24     0.05  -0.03   0.11
     6   1     0.04  -0.18   0.01    -0.00   0.26  -0.00     0.03  -0.08   0.00
     7   7    -0.00   0.00  -0.00     0.01   0.00  -0.00     0.01   0.01  -0.00
     8   6    -0.02  -0.02   0.03     0.02   0.01   0.01     0.02  -0.01  -0.01
     9   1     0.36   0.23  -0.22    -0.07   0.05   0.11    -0.15   0.04   0.19
    10   1     0.13  -0.21   0.08    -0.26  -0.10  -0.09    -0.19   0.11  -0.09
    11   1    -0.19   0.24  -0.27     0.07  -0.11  -0.22     0.05  -0.07  -0.01
    12   6     0.03  -0.00  -0.02    -0.02   0.00  -0.04     0.00   0.01  -0.01
    13   1    -0.23  -0.08  -0.14    -0.03  -0.33  -0.04    -0.04  -0.14  -0.03
    14   1    -0.15   0.17   0.25     0.08   0.39   0.14    -0.00   0.04   0.02
    15   1     0.07  -0.07   0.23     0.12  -0.14   0.51    -0.05  -0.05   0.13
    16   6    -0.00  -0.01  -0.00     0.00   0.01  -0.00     0.02  -0.04   0.00
    17   1    -0.03   0.07  -0.05     0.05  -0.13   0.10    -0.23   0.59  -0.07
    18   1     0.00  -0.04   0.09     0.02   0.05  -0.10    -0.44  -0.10   0.13
    19   1     0.07   0.10   0.03    -0.13  -0.14  -0.02     0.36   0.16  -0.14
                     34                     35                     36
                      A                      A                      A
 Frequencies --   1506.2846              1511.5821              1515.2177
 Red. masses --      1.0532                 1.0516                 1.0842
 Frc consts  --      1.4079                 1.4157                 1.4666
 IR Inten    --     14.2831                 7.2918                15.4104
  Atom  AN      X      Y      Z        X      Y      Z        X      Y      Z
     1   6    -0.01  -0.01  -0.03    -0.02  -0.00   0.01     0.00   0.01   0.00
     2   1     0.18  -0.10   0.23    -0.03   0.05  -0.13    -0.05   0.00   0.02
     3   1     0.05   0.25   0.16     0.01  -0.09  -0.11     0.03   0.00  -0.04
     4   6    -0.00   0.01  -0.00     0.02  -0.00   0.01    -0.01   0.05  -0.04
     5   1    -0.04   0.01  -0.02    -0.04   0.02  -0.07    -0.07  -0.11   0.46
     6   1     0.03  -0.01   0.00    -0.03   0.05  -0.01     0.07  -0.46   0.01
     7   7    -0.00  -0.02  -0.02    -0.00  -0.00  -0.01     0.03   0.01  -0.00
     8   6    -0.02  -0.01  -0.02     0.00   0.02  -0.01     0.03  -0.02  -0.01
     9   1    -0.02  -0.13  -0.07    -0.18  -0.20   0.04    -0.23   0.08   0.31
    10   1     0.29   0.24   0.09     0.00   0.06  -0.01    -0.31   0.16  -0.16
    11   1    -0.04   0.08   0.37     0.13  -0.16   0.18     0.09  -0.14  -0.04
    12   6     0.03  -0.02  -0.02    -0.01  -0.01  -0.01     0.02   0.00   0.00
    13   1    -0.33   0.17  -0.19    -0.01  -0.04  -0.01    -0.18  -0.03  -0.10
    14   1    -0.26   0.17   0.36     0.01   0.14   0.06    -0.14  -0.03   0.11
    15   1     0.25   0.01   0.09     0.09  -0.03   0.13    -0.03  -0.01   0.03
    16   6     0.00  -0.00   0.00    -0.03  -0.02  -0.02    -0.01   0.01   0.00
    17   1    -0.01   0.01   0.02     0.01  -0.05  -0.33     0.09  -0.23   0.04
    18   1    -0.04   0.02  -0.05     0.39  -0.14   0.37     0.17   0.05  -0.07
    19   1    -0.00  -0.05  -0.04     0.14   0.48   0.28    -0.15  -0.07   0.06
                     37                     38                     39
                      A                      A                      A
 Frequencies --   1519.4508              1524.9483              2914.6658
 Red. masses --      1.0711                 1.0699                 1.0723
 Frc consts  --      1.4569                 1.4660                 5.3671
 IR Inten    --      9.8859                 8.2300                62.9652
  Atom  AN      X      Y      Z        X      Y      Z        X      Y      Z
     1   6     0.02   0.01   0.03     0.03   0.02   0.04     0.00  -0.00   0.00
     2   1    -0.17   0.11  -0.23    -0.28   0.13  -0.28     0.00  -0.03  -0.01
     3   1    -0.05  -0.25  -0.15    -0.08  -0.35  -0.20    -0.02   0.02  -0.02
     4   6    -0.00  -0.02   0.01     0.00   0.00   0.01     0.03   0.01  -0.07
     5   1     0.01   0.06  -0.26    -0.03  -0.01   0.03     0.02  -0.11  -0.05
     6   1    -0.03   0.25  -0.01     0.04  -0.06   0.03    -0.34   0.03   0.91
     7   7     0.02  -0.03   0.01    -0.02   0.01  -0.02    -0.00   0.00  -0.00
     8   6     0.01   0.03   0.01    -0.00   0.01  -0.03    -0.00   0.00   0.01
     9   1    -0.14   0.01   0.14    -0.15  -0.28  -0.03     0.01  -0.00   0.01
    10   1    -0.24  -0.04  -0.08     0.22   0.19   0.06     0.03   0.00  -0.08
    11   1     0.12  -0.17  -0.13     0.08  -0.08   0.42    -0.02  -0.01   0.00
    12   6     0.00  -0.03   0.01    -0.00   0.01  -0.01    -0.01  -0.00   0.01
    13   1    -0.21   0.42  -0.08     0.06  -0.21   0.01     0.06   0.00  -0.14
    14   1    -0.24  -0.03   0.22     0.11   0.12  -0.03     0.01  -0.01   0.02
    15   1     0.28   0.12  -0.24    -0.07  -0.07   0.20    -0.01   0.03   0.01
    16   6     0.01   0.00   0.00     0.02   0.01   0.01    -0.00   0.00   0.00
    17   1    -0.02   0.06   0.07     0.00   0.02   0.14    -0.00  -0.00  -0.00
    18   1    -0.12   0.01  -0.05    -0.17   0.07  -0.17    -0.00   0.00   0.00
    19   1    -0.01  -0.07  -0.05    -0.06  -0.21  -0.12     0.00  -0.00   0.00
                     40                     41                     42
                      A                      A                      A
 Frequencies --   2930.4739              2937.9992              3051.3035
 Red. masses --      1.0605                 1.0613                 1.0370
 Frc consts  --      5.3660                 5.3976                 5.6883
 IR Inten    --     46.6800               173.8575                30.8954
  Atom  AN      X      Y      Z        X      Y      Z        X      Y      Z
     1   6    -0.00   0.00   0.00     0.00   0.00   0.00    -0.01   0.00  -0.01
     2   1     0.00  -0.00  -0.00     0.00  -0.01  -0.01    -0.00   0.05   0.01
     3   1    -0.00  -0.00   0.00    -0.01   0.01  -0.01     0.07  -0.07   0.07
     4   6    -0.00   0.00   0.00     0.00   0.00  -0.01    -0.00   0.00   0.00
     5   1    -0.00  -0.00   0.00     0.00  -0.00  -0.00     0.00  -0.02  -0.01
     6   1     0.01  -0.00  -0.03    -0.05  -0.00   0.17     0.00   0.00   0.00
     7   7    -0.00  -0.00  -0.00     0.00  -0.00  -0.00    -0.00   0.00   0.00
     8   6     0.02  -0.01  -0.05     0.02  -0.01  -0.04     0.00   0.00  -0.00
     9   1    -0.07   0.05  -0.09    -0.05   0.03  -0.07     0.00  -0.00   0.00
    10   1    -0.27   0.05   0.68    -0.23   0.06   0.58    -0.00   0.00   0.00
    11   1     0.09   0.06  -0.02     0.07   0.05  -0.02    -0.02  -0.01   0.00
    12   6    -0.03  -0.00   0.04     0.03   0.01  -0.04     0.00   0.00   0.00
    13   1     0.29   0.02  -0.56    -0.34  -0.03   0.64     0.00   0.00  -0.00
    14   1     0.06  -0.04   0.08    -0.05   0.04  -0.08    -0.00   0.00  -0.00
    15   1    -0.03   0.09   0.04     0.02  -0.10  -0.05     0.00  -0.00  -0.00
    16   6     0.00   0.00  -0.00     0.00   0.00   0.00     0.02  -0.01  -0.04
    17   1    -0.00  -0.00  -0.00    -0.00  -0.00   0.00    -0.52  -0.22  -0.03
    18   1    -0.00   0.00   0.00    -0.00   0.00   0.00    -0.03   0.62   0.24
    19   1    -0.00  -0.00   0.00    -0.00   0.00  -0.00     0.26  -0.26   0.28
                     43                     44                     45
                      A                      A                      A
 Frequencies --   3055.1740              3063.0235              3081.0757
 Red. masses --      1.0661                 1.0834                 1.0707
 Frc consts  --      5.8632                 5.9890                 5.9886
 IR Inten    --     18.2679                25.2551                32.9153
  Atom  AN      X      Y      Z        X      Y      Z        X      Y      Z
     1   6    -0.02  -0.03  -0.05    -0.03   0.01  -0.03    -0.00   0.01  -0.00
     2   1    -0.03   0.67   0.26    -0.01   0.11   0.04     0.00  -0.05  -0.02
     3   1     0.29  -0.28   0.30     0.31  -0.30   0.33     0.03  -0.03   0.04
     4   6    -0.00   0.03   0.01     0.01  -0.06  -0.03     0.00  -0.00   0.00
     5   1     0.03  -0.42  -0.12    -0.06   0.78   0.22    -0.00   0.01   0.00
     6   1    -0.00   0.01   0.00    -0.04  -0.01   0.10     0.00  -0.00  -0.01
     7   7    -0.00   0.00   0.00     0.00  -0.00  -0.00     0.00  -0.00  -0.00
     8   6     0.00   0.00  -0.00     0.00  -0.00   0.00    -0.00  -0.00   0.01
     9   1     0.03  -0.01   0.03    -0.02   0.01  -0.02    -0.04   0.02  -0.04
    10   1    -0.01   0.00   0.02     0.00   0.00  -0.00     0.01  -0.00  -0.02
    11   1    -0.06  -0.04   0.00     0.00   0.00   0.00     0.04   0.02  -0.00
    12   6     0.00  -0.00  -0.00    -0.00   0.00   0.00    -0.02  -0.03  -0.07
    13   1    -0.01  -0.00   0.01     0.01   0.00  -0.02    -0.09  -0.01   0.15
    14   1     0.01  -0.01   0.01    -0.01   0.01  -0.00     0.43  -0.31   0.46
    15   1    -0.00   0.01   0.00     0.01  -0.04  -0.01    -0.14   0.63   0.19
    16   6     0.00   0.01   0.01     0.00  -0.00   0.01     0.00  -0.00   0.00
    17   1    -0.02  -0.01  -0.00    -0.01  -0.00  -0.00     0.00   0.00   0.00
    18   1     0.01  -0.12  -0.05     0.00  -0.03  -0.01    -0.00   0.01   0.00
    19   1    -0.03   0.04  -0.04    -0.04   0.04  -0.05    -0.01   0.01  -0.01
                     46                     47                     48
                      A                      A                      A
 Frequencies --   3087.9463              3092.3881              3119.5657
 Red. masses --      1.0948                 1.0755                 1.1015
 Frc consts  --      6.1505                 6.0596                 6.3156
 IR Inten    --     16.3884                39.3801                38.9721
  Atom  AN      X      Y      Z        X      Y      Z        X      Y      Z
     1   6     0.03  -0.07   0.01    -0.01   0.03  -0.00     0.00  -0.02  -0.00
     2   1    -0.01   0.50   0.21     0.01  -0.27  -0.11    -0.01   0.21   0.09
     3   1    -0.34   0.31  -0.36     0.13  -0.12   0.14    -0.06   0.05  -0.06
     4   6     0.00  -0.03  -0.01    -0.00   0.01   0.00     0.00  -0.00  -0.00
     5   1    -0.02   0.32   0.09     0.00  -0.08  -0.02    -0.00   0.05   0.01
     6   1    -0.01  -0.00   0.02     0.01  -0.00  -0.01    -0.00   0.00   0.01
     7   7    -0.00  -0.00  -0.00    -0.00   0.00  -0.00     0.00   0.00  -0.00
     8   6     0.01   0.02  -0.02     0.00   0.05  -0.05     0.01  -0.00   0.00
     9   1     0.18  -0.10   0.17     0.49  -0.27   0.46    -0.04   0.02  -0.04
    10   1    -0.03   0.01   0.06    -0.06   0.02   0.14     0.00   0.00  -0.00
    11   1    -0.25  -0.16   0.01    -0.45  -0.28   0.02    -0.03  -0.02   0.00
    12   6    -0.00  -0.00  -0.01    -0.00  -0.00  -0.00    -0.00   0.01  -0.00
    13   1    -0.00  -0.00   0.01     0.00  -0.00  -0.00    -0.00   0.00   0.00
    14   1     0.05  -0.04   0.06     0.01  -0.01   0.01     0.03  -0.02   0.03
    15   1    -0.01   0.05   0.02    -0.01   0.05   0.02     0.01  -0.05  -0.02
    16   6    -0.00   0.02  -0.01    -0.00  -0.01   0.00    -0.04  -0.08  -0.01
    17   1    -0.09  -0.03  -0.00     0.07   0.03   0.00     0.61   0.23   0.02
    18   1     0.00  -0.14  -0.05    -0.00   0.07   0.03    -0.04   0.62   0.25
    19   1     0.12  -0.11   0.13    -0.05   0.05  -0.05    -0.11   0.08  -0.12
                     49                     50                     51
                      A                      A                      A
 Frequencies --   3126.8447              3134.7685              3135.3352
 Red. masses --      1.1037                 1.1025                 1.1018
 Frc consts  --      6.3578                 6.3832                 6.3816
 IR Inten    --     28.9944                 8.0938                52.5793
  Atom  AN      X      Y      Z        X      Y      Z        X      Y      Z
     1   6     0.00  -0.00  -0.00     0.01  -0.01   0.00    -0.01   0.01  -0.01
     2   1    -0.00   0.04   0.02    -0.00   0.11   0.04    -0.00  -0.00  -0.00
     3   1    -0.01   0.01  -0.01    -0.07   0.07  -0.08     0.06  -0.06   0.07
     4   6     0.00  -0.00  -0.00     0.00  -0.00  -0.00     0.00   0.00  -0.00
     5   1    -0.00   0.04   0.01    -0.00   0.03   0.01     0.00  -0.00  -0.00
     6   1    -0.00  -0.00   0.00    -0.00  -0.00   0.01    -0.00   0.00   0.00
     7   7     0.00  -0.00   0.00    -0.00   0.00  -0.00    -0.00  -0.00  -0.00
     8   6    -0.01  -0.00  -0.00    -0.07  -0.01  -0.02    -0.06  -0.01  -0.02
     9   1     0.04  -0.02   0.04     0.31  -0.18   0.31     0.25  -0.15   0.26
    10   1    -0.00  -0.00  -0.00    -0.01  -0.00  -0.02    -0.01  -0.00  -0.01
    11   1     0.09   0.06  -0.01     0.48   0.31  -0.04     0.43   0.27  -0.03
    12   6     0.05  -0.08   0.02    -0.00   0.01  -0.00    -0.00   0.01  -0.00
    13   1     0.01  -0.02   0.01     0.00   0.00  -0.00    -0.00   0.00  -0.00
    14   1    -0.41   0.28  -0.46     0.04  -0.03   0.05     0.04  -0.03   0.04
    15   1    -0.14   0.66   0.22     0.01  -0.05  -0.02     0.01  -0.06  -0.02
    16   6    -0.00  -0.00  -0.00     0.05  -0.03   0.02    -0.06   0.03  -0.03
    17   1     0.05   0.02   0.00    -0.27  -0.12  -0.01     0.34   0.15   0.01
    18   1    -0.00   0.04   0.02     0.00   0.14   0.06    -0.01  -0.11  -0.05
    19   1     0.00  -0.00   0.00    -0.29   0.30  -0.34     0.34  -0.36   0.40

 -------------------
 - Thermochemistry -
 -------------------
 Temperature   298.150 Kelvin.  Pressure   1.00000 Atm.
 Atom     1 has atomic number  6 and mass  12.00000
 Atom     2 has atomic number  1 and mass   1.00783
 Atom     3 has atomic number  1 and mass   1.00783
 Atom     4 has atomic number  6 and mass  12.00000
 Atom     5 has atomic number  1 and mass   1.00783
 Atom     6 has atomic number  1 and mass   1.00783
 Atom     7 has atomic number  7 and mass  14.00307
 Atom     8 has atomic number  6 and mass  12.00000
 Atom     9 has atomic number  1 and mass   1.00783
 Atom    10 has atomic number  1 and mass   1.00783
 Atom    11 has atomic number  1 and mass   1.00783
 Atom    12 has atomic number  6 and mass  12.00000
 Atom    13 has atomic number  1 and mass   1.00783
 Atom    14 has atomic number  1 and mass   1.00783
 Atom    15 has atomic number  1 and mass   1.00783
 Atom    16 has atomic number  6 and mass  12.00000
 Atom    17 has atomic number  1 and mass   1.00783
 Atom    18 has atomic number  1 and mass   1.00783
 Atom    19 has atomic number  1 and mass   1.00783
 Molecular mass:    87.10480 amu.
 Principal axes and moments of inertia in atomic units:
                           1         2         3
     Eigenvalues --   309.74157 847.39800 923.85795
           X            0.99997   0.00251  -0.00741
           Y           -0.00244   0.99994   0.01032
           Z            0.00744  -0.01030   0.99992
 This molecule is an asymmetric top.
 Rotational symmetry number  1.
 Rotational temperatures (Kelvin)      0.27963     0.10221     0.09375
 Rotational constants (GHZ):           5.82660     2.12974     1.95348
 Zero-point vibrational energy     468958.5 (Joules/Mol)
                                  112.08378 (Kcal/Mol)
 Warning -- explicit consideration of  10 degrees of freedom as
           vibrations may cause significant error
 Vibrational temperatures:    100.56   194.24   296.25   350.79   375.59
          (Kelvin)            453.69   508.74   570.22   640.32   769.33
                             1101.13  1233.41  1298.70  1347.71  1478.96
                             1549.26  1591.99  1601.39  1617.53  1639.16
                             1720.91  1806.44  1880.00  1913.21  1917.89
                             1998.48  2045.14  2058.32  2089.31  2131.47
                             2146.29  2153.22  2160.13  2167.21  2174.83
                             2180.06  2186.15  2194.06  4193.55  4216.30
                             4227.13  4390.15  4395.71  4407.01  4432.98
                             4442.87  4449.26  4488.36  4498.83  4510.23
                             4511.05
 
 Zero-point correction=                           0.178617 (Hartree/Particle)
 Thermal correction to Energy=                    0.186507
 Thermal correction to Enthalpy=                  0.187451
 Thermal correction to Gibbs Free Energy=         0.147045
 Sum of electronic and zero-point Energies=           -252.925721
 Sum of electronic and thermal Energies=              -252.917831
 Sum of electronic and thermal Enthalpies=            -252.916887
 Sum of electronic and thermal Free Energies=         -252.957293
 
                     E (Thermal)             CV                S
                      KCal/Mol        Cal/Mol-Kelvin    Cal/Mol-Kelvin
 Total                  117.035             28.197             85.041
 Electronic               0.000              0.000              0.000
 Translational            0.889              2.981             39.306
 Rotational               0.889              2.981             26.986
 Vibrational            115.258             22.236             18.749
 Vibration     1          0.598              1.968              4.156
 Vibration     2          0.613              1.918              2.873
 Vibration     3          0.640              1.831              2.080
 Vibration     4          0.659              1.773              1.775
 Vibration     5          0.669              1.744              1.655
 Vibration     6          0.703              1.644              1.334
 Vibration     7          0.730              1.568              1.150
 Vibration     8          0.763              1.478              0.976
 Vibration     9          0.804              1.372              0.811
 Vibration    10          0.890              1.173              0.577
                       Q            Log10(Q)             Ln(Q)
 Total Bot       0.231152D-67        -67.636102       -155.737880
 Total V=0       0.332569D+15         14.521882         33.437869
 Vib (Bot)       0.410383D-80        -80.386810       -185.097471
 Vib (Bot)    1  0.295081D+01          0.469942          1.082081
 Vib (Bot)    2  0.150811D+01          0.178432          0.410855
 Vib (Bot)    3  0.966160D+00         -0.014951         -0.034426
 Vib (Bot)    4  0.802823D+00         -0.095380         -0.219621
 Vib (Bot)    5  0.743659D+00         -0.128626         -0.296172
 Vib (Bot)    6  0.597799D+00         -0.223445         -0.514501
 Vib (Bot)    7  0.520564D+00         -0.283526         -0.652843
 Vib (Bot)    8  0.450933D+00         -0.345888         -0.796436
 Vib (Bot)    9  0.386873D+00         -0.412432         -0.949659
 Vib (Bot)   10  0.297780D+00         -0.526104         -1.211400
 Vib (V=0)       0.590437D+02          1.771173          4.078277
 Vib (V=0)    1  0.349288D+01          0.543183          1.250725
 Vib (V=0)    2  0.208883D+01          0.319903          0.736605
 Vib (V=0)    3  0.158787D+01          0.200815          0.462395
 Vib (V=0)    4  0.144579D+01          0.160106          0.368658
 Vib (V=0)    5  0.139612D+01          0.144922          0.333696
 Vib (V=0)    6  0.127934D+01          0.106984          0.246341
 Vib (V=0)    7  0.122179D+01          0.086998          0.200320
 Vib (V=0)    8  0.117331D+01          0.069411          0.159825
 Vib (V=0)    9  0.113220D+01          0.053921          0.124158
 Vib (V=0)   10  0.108196D+01          0.034210          0.078771
 Electronic      0.100000D+01          0.000000          0.000000
 Translational   0.319534D+08          7.504517         17.279789
 Rotational      0.176275D+06          5.246192         12.079803
 ***** Axes restored to original set *****
 -------------------------------------------------------------------
 Center     Atomic                   Forces (Hartrees/Bohr)
 Number     Number              X              Y              Z
 -------------------------------------------------------------------
      1        6           0.000015012    0.000036339   -0.000053793
      2        1          -0.000006214   -0.000005273    0.000010820
      3        1           0.000001123   -0.000011828    0.000012973
      4        6           0.000016342   -0.000043704    0.000065381
      5        1           0.000002903    0.000008394   -0.000001163
      6        1           0.000002311    0.000002205   -0.000013961
      7        7          -0.000006066   -0.000016475   -0.000034745
      8        6          -0.000006096    0.000008541    0.000003846
      9        1          -0.000003747   -0.000002103   -0.000000372
     10        1           0.000000736   -0.000002266   -0.000003486
     11        1           0.000003137    0.000004911   -0.000001222
     12        6          -0.000013157    0.000030331    0.000003925
     13        1           0.000002680   -0.000008940   -0.000005087
     14        1           0.000000388   -0.000002575    0.000000569
     15        1          -0.000005414   -0.000007936    0.000000010
     16        6          -0.000012108    0.000016848    0.000030532
     17        1           0.000000561   -0.000001055   -0.000003118
     18        1           0.000004532   -0.000001076   -0.000006923
     19        1           0.000003077   -0.000004337   -0.000004188
 -------------------------------------------------------------------
 Cartesian Forces:  Max     0.000065381 RMS     0.000016854
 FormGI is forming the generalized inverse of G from B-inverse, IUseBI=4.
 Leave Link  716 at Fri Sep 18 08:05:45 2026, MaxMem=  4294967296 cpu:               0.1 elap:               0.0
 (Enter /opt/apps/Gaussian/G16C/g16/l103.exe)

 GradGradGradGradGradGradGradGradGradGradGradGradGradGradGradGradGradGrad
 Berny optimization.
 Red2BG is reusing G-inverse.
 Internal  Forces:  Max     0.000044523 RMS     0.000007697
 Search for a local minimum.
 Step number   1 out of a maximum of    2
 All quantities printed in internal units (Hartrees-Bohrs-Radians)
 Second derivative matrix not updated -- analytic derivatives used.
 ITU=  0
     Eigenvalues ---    0.00213   0.00345   0.00371   0.00509   0.00611
     Eigenvalues ---    0.02220   0.03598   0.03940   0.04524   0.04532
     Eigenvalues ---    0.04605   0.04947   0.06190   0.06206   0.06271
     Eigenvalues ---    0.06305   0.07195   0.08734   0.10743   0.12285
     Eigenvalues ---    0.12706   0.12769   0.13457   0.14396   0.15753
     Eigenvalues ---    0.16023   0.16318   0.16816   0.17007   0.19621
     Eigenvalues ---    0.20463   0.21745   0.25534   0.29340   0.30358
     Eigenvalues ---    0.30419   0.30635   0.31334   0.33189   0.33293
     Eigenvalues ---    0.33764   0.33933   0.34004   0.34150   0.34211
     Eigenvalues ---    0.34259   0.34505   0.34869   0.37352   0.37946
     Eigenvalues ---    0.39205
 Angle between quadratic step and forces=  59.29 degrees.
 Linear search not attempted -- first point.
 Iteration  1 RMS(Cart)=  0.00012891 RMS(Int)=  0.00000001
 Iteration  2 RMS(Cart)=  0.00000002 RMS(Int)=  0.00000000
 ITry= 1 IFail=0 DXMaxC= 4.92D-04 DCOld= 1.00D+10 DXMaxT= 3.00D-01 DXLimC= 3.00D+00 Rises=F
 Variable       Old X    -DE/DX   Delta X   Delta X   Delta X     New X
                                 (Linear)    (Quad)   (Total)
    R1        2.06403  -0.00001   0.00000  -0.00004  -0.00004   2.06399
    R2        2.06423  -0.00001   0.00000  -0.00004  -0.00004   2.06418
    R3        2.88275   0.00003   0.00000   0.00016   0.00016   2.88292
    R4        2.87993   0.00002   0.00000   0.00008   0.00008   2.88001
    R5        2.06552  -0.00001   0.00000  -0.00002  -0.00002   2.06550
    R6        2.08902   0.00001   0.00000   0.00004   0.00004   2.08906
    R7        2.74994  -0.00004   0.00000  -0.00019  -0.00019   2.74975
    R8        2.73775  -0.00000   0.00000  -0.00003  -0.00003   2.73773
    R9        2.73718  -0.00001   0.00000  -0.00006  -0.00006   2.73712
   R10        2.05950  -0.00000   0.00000  -0.00001  -0.00001   2.05949
   R11        2.08634   0.00000   0.00000   0.00002   0.00002   2.08635
   R12        2.05804   0.00001   0.00000   0.00002   0.00002   2.05806
   R13        2.08601   0.00001   0.00000   0.00004   0.00004   2.08605
   R14        2.06024   0.00000   0.00000   0.00001   0.00001   2.06024
   R15        2.06011   0.00001   0.00000   0.00002   0.00002   2.06012
   R16        2.06031  -0.00000   0.00000  -0.00000  -0.00000   2.06030
   R17        2.06297  -0.00000   0.00000  -0.00002  -0.00002   2.06295
   R18        2.05874  -0.00000   0.00000  -0.00001  -0.00001   2.05873
    A1        1.84479   0.00000   0.00000   0.00015   0.00015   1.84494
    A2        1.92353   0.00000   0.00000  -0.00001  -0.00001   1.92351
    A3        1.91967   0.00000   0.00000   0.00002   0.00002   1.91969
    A4        1.87380  -0.00001   0.00000  -0.00011  -0.00011   1.87369
    A5        1.91906   0.00001   0.00000   0.00005   0.00005   1.91911
    A6        1.97778  -0.00001   0.00000  -0.00008  -0.00008   1.97770
    A7        1.89318  -0.00000   0.00000  -0.00010  -0.00010   1.89308
    A8        1.90565  -0.00001   0.00000  -0.00012  -0.00012   1.90553
    A9        1.99305   0.00000   0.00000   0.00003   0.00003   1.99308
   A10        1.86279   0.00000   0.00000   0.00003   0.00003   1.86282
   A11        1.87061   0.00000   0.00000   0.00005   0.00005   1.87067
   A12        1.93340   0.00001   0.00000   0.00011   0.00011   1.93351
   A13        1.96200  -0.00000   0.00000   0.00005   0.00005   1.96205
   A14        1.93292  -0.00000   0.00000   0.00007   0.00007   1.93299
   A15        1.93287   0.00001   0.00000   0.00012   0.00012   1.93299
   A16        1.91156  -0.00000   0.00000  -0.00002  -0.00002   1.91154
   A17        1.96352  -0.00000   0.00000  -0.00000  -0.00000   1.96351
   A18        1.93194   0.00000   0.00000   0.00002   0.00002   1.93196
   A19        1.88720   0.00000   0.00000   0.00000   0.00000   1.88720
   A20        1.87870   0.00000   0.00000   0.00001   0.00001   1.87871
   A21        1.88845  -0.00000   0.00000  -0.00001  -0.00001   1.88844
   A22        1.96608   0.00000   0.00000   0.00001   0.00001   1.96610
   A23        1.91810   0.00000   0.00000   0.00003   0.00003   1.91812
   A24        1.91817   0.00001   0.00000   0.00006   0.00006   1.91822
   A25        1.88598  -0.00000   0.00000  -0.00004  -0.00004   1.88594
   A26        1.88674  -0.00001   0.00000  -0.00006  -0.00006   1.88669
   A27        1.88672  -0.00000   0.00000  -0.00000  -0.00000   1.88672
   A28        1.93935  -0.00000   0.00000  -0.00001  -0.00001   1.93934
   A29        1.93408  -0.00001   0.00000  -0.00006  -0.00006   1.93402
   A30        1.93680  -0.00001   0.00000  -0.00006  -0.00006   1.93674
   A31        1.88484   0.00000   0.00000   0.00002   0.00002   1.88486
   A32        1.89353   0.00001   0.00000   0.00006   0.00006   1.89358
   A33        1.87299   0.00001   0.00000   0.00006   0.00006   1.87305
    D1       -3.00889  -0.00000   0.00000  -0.00001  -0.00001  -3.00890
    D2       -0.98519  -0.00000   0.00000  -0.00010  -0.00010  -0.98529
    D3        1.18976   0.00000   0.00000  -0.00003  -0.00003   1.18973
    D4       -1.00775   0.00000   0.00000   0.00010   0.00010  -1.00765
    D5        1.01595  -0.00000   0.00000   0.00002   0.00002   1.01597
    D6       -3.09229   0.00000   0.00000   0.00008   0.00008  -3.09221
    D7        1.11473   0.00000   0.00000   0.00004   0.00004   1.11477
    D8        3.13842  -0.00000   0.00000  -0.00005  -0.00005   3.13838
    D9       -0.96982   0.00000   0.00000   0.00002   0.00002  -0.96980
   D10        1.01817   0.00000   0.00000   0.00000   0.00000   1.01818
   D11        3.11382   0.00000   0.00000  -0.00002  -0.00002   3.11380
   D12       -1.09028   0.00000   0.00000  -0.00002  -0.00002  -1.09030
   D13       -1.00641  -0.00000   0.00000  -0.00022  -0.00022  -1.00664
   D14        1.08923  -0.00001   0.00000  -0.00025  -0.00025   1.08899
   D15       -3.11487  -0.00001   0.00000  -0.00025  -0.00025  -3.11511
   D16       -3.10333   0.00000   0.00000  -0.00006  -0.00006  -3.10339
   D17       -1.00768   0.00000   0.00000  -0.00009  -0.00009  -1.00777
   D18        1.07140   0.00000   0.00000  -0.00009  -0.00009   1.07132
   D19       -1.12840   0.00001   0.00000   0.00017   0.00017  -1.12823
   D20        2.98235  -0.00000   0.00000  -0.00008  -0.00008   2.98228
   D21        3.05757   0.00001   0.00000   0.00024   0.00024   3.05781
   D22        0.88514  -0.00000   0.00000  -0.00001  -0.00001   0.88513
   D23        1.03169   0.00000   0.00000   0.00011   0.00011   1.03181
   D24       -1.14074  -0.00001   0.00000  -0.00014  -0.00014  -1.14087
   D25       -3.12376   0.00000   0.00000   0.00010   0.00010  -3.12365
   D26       -1.02448  -0.00000   0.00000   0.00009   0.00009  -1.02439
   D27        1.09065  -0.00000   0.00000   0.00009   0.00009   1.09074
   D28       -0.95130   0.00000   0.00000   0.00033   0.00033  -0.95097
   D29        1.14798   0.00000   0.00000   0.00031   0.00031   1.14829
   D30       -3.02008   0.00000   0.00000   0.00031   0.00031  -3.01977
   D31        1.09368   0.00000   0.00000   0.00018   0.00018   1.09386
   D32       -3.08556  -0.00000   0.00000   0.00016   0.00016  -3.08540
   D33       -1.01129   0.00000   0.00000   0.00021   0.00021  -1.01109
   D34       -1.09524   0.00000   0.00000  -0.00003  -0.00003  -1.09526
   D35        1.00871  -0.00000   0.00000  -0.00005  -0.00005   1.00866
   D36        3.08298   0.00000   0.00000  -0.00000  -0.00000   3.08297
         Item               Value     Threshold  Converged?
 Maximum Force            0.000045     0.000450     YES
 RMS     Force            0.000008     0.000300     YES
 Maximum Displacement     0.000492     0.001800     YES
 RMS     Displacement     0.000129     0.001200     YES
 Predicted change in Energy=-1.830385D-08
 Optimization completed.
    -- Stationary point found.
                           ----------------------------
                           !   Optimized Parameters   !
                           ! (Angstroms and Degrees)  !
 --------------------------                            --------------------------
 ! Name  Definition              Value          Derivative Info.                !
 --------------------------------------------------------------------------------
 ! R1    R(1,2)                  1.0922         -DE/DX =    0.0                 !
 ! R2    R(1,3)                  1.0923         -DE/DX =    0.0                 !
 ! R3    R(1,4)                  1.5255         -DE/DX =    0.0                 !
 ! R4    R(1,16)                 1.524          -DE/DX =    0.0                 !
 ! R5    R(4,5)                  1.093          -DE/DX =    0.0                 !
 ! R6    R(4,6)                  1.1055         -DE/DX =    0.0                 !
 ! R7    R(4,7)                  1.4552         -DE/DX =    0.0                 !
 ! R8    R(7,8)                  1.4488         -DE/DX =    0.0                 !
 ! R9    R(7,12)                 1.4485         -DE/DX =    0.0                 !
 ! R10   R(8,9)                  1.0898         -DE/DX =    0.0                 !
 ! R11   R(8,10)                 1.104          -DE/DX =    0.0                 !
 ! R12   R(8,11)                 1.0891         -DE/DX =    0.0                 !
 ! R13   R(12,13)                1.1039         -DE/DX =    0.0                 !
 ! R14   R(12,14)                1.0902         -DE/DX =    0.0                 !
 ! R15   R(12,15)                1.0902         -DE/DX =    0.0                 !
 ! R16   R(16,17)                1.0903         -DE/DX =    0.0                 !
 ! R17   R(16,18)                1.0917         -DE/DX =    0.0                 !
 ! R18   R(16,19)                1.0894         -DE/DX =    0.0                 !
 ! A1    A(2,1,3)              105.6987         -DE/DX =    0.0                 !
 ! A2    A(2,1,4)              110.2099         -DE/DX =    0.0                 !
 ! A3    A(2,1,16)             109.9888         -DE/DX =    0.0                 !
 ! A4    A(3,1,4)              107.361          -DE/DX =    0.0                 !
 ! A5    A(3,1,16)             109.9539         -DE/DX =    0.0                 !
 ! A6    A(4,1,16)             113.3185         -DE/DX =    0.0                 !
 ! A7    A(1,4,5)              108.471          -DE/DX =    0.0                 !
 ! A8    A(1,4,6)              109.1858         -DE/DX =    0.0                 !
 ! A9    A(1,4,7)              114.1934         -DE/DX =    0.0                 !
 ! A10   A(5,4,6)              106.73           -DE/DX =    0.0                 !
 ! A11   A(5,4,7)              107.1783         -DE/DX =    0.0                 !
 ! A12   A(6,4,7)              110.7756         -DE/DX =    0.0                 !
 ! A13   A(4,7,8)              112.4141         -DE/DX =    0.0                 !
 ! A14   A(4,7,12)             110.7484         -DE/DX =    0.0                 !
 ! A15   A(8,7,12)             110.7454         -DE/DX =    0.0                 !
 ! A16   A(7,8,9)              109.5241         -DE/DX =    0.0                 !
 ! A17   A(7,8,10)             112.5012         -DE/DX =    0.0                 !
 ! A18   A(7,8,11)             110.6919         -DE/DX =    0.0                 !
 ! A19   A(9,8,10)             108.1285         -DE/DX =    0.0                 !
 ! A20   A(9,8,11)             107.6416         -DE/DX =    0.0                 !
 ! A21   A(10,8,11)            108.2002         -DE/DX =    0.0                 !
 ! A22   A(7,12,13)            112.6481         -DE/DX =    0.0                 !
 ! A23   A(7,12,14)            109.8988         -DE/DX =    0.0                 !
 ! A24   A(7,12,15)            109.9028         -DE/DX =    0.0                 !
 ! A25   A(13,12,14)           108.0587         -DE/DX =    0.0                 !
 ! A26   A(13,12,15)           108.1025         -DE/DX =    0.0                 !
 ! A27   A(14,12,15)           108.1013         -DE/DX =    0.0                 !
 ! A28   A(1,16,17)            111.1164         -DE/DX =    0.0                 !
 ! A29   A(1,16,18)            110.8147         -DE/DX =    0.0                 !
 ! A30   A(1,16,19)            110.9707         -DE/DX =    0.0                 !
 ! A31   A(17,16,18)           107.9936         -DE/DX =    0.0                 !
 ! A32   A(17,16,19)           108.491          -DE/DX =    0.0                 !
 ! A33   A(18,16,19)           107.3142         -DE/DX =    0.0                 !
 ! D1    D(2,1,4,5)           -172.3964         -DE/DX =    0.0                 !
 ! D2    D(2,1,4,6)            -56.4472         -DE/DX =    0.0                 !
 ! D3    D(2,1,4,7)             68.168          -DE/DX =    0.0                 !
 ! D4    D(3,1,4,5)            -57.7397         -DE/DX =    0.0                 !
 ! D5    D(3,1,4,6)             58.2095         -DE/DX =    0.0                 !
 ! D6    D(3,1,4,7)           -177.1753         -DE/DX =    0.0                 !
 ! D7    D(16,1,4,5)            63.8692         -DE/DX =    0.0                 !
 ! D8    D(16,1,4,6)           179.8184         -DE/DX =    0.0                 !
 ! D9    D(16,1,4,7)           -55.5664         -DE/DX =    0.0                 !
 ! D10   D(2,1,16,17)           58.337          -DE/DX =    0.0                 !
 ! D11   D(2,1,16,18)          178.4088         -DE/DX =    0.0                 !
 ! D12   D(2,1,16,19)          -62.4684         -DE/DX =    0.0                 !
 ! D13   D(3,1,16,17)          -57.6633         -DE/DX =    0.0                 !
 ! D14   D(3,1,16,18)           62.4085         -DE/DX =    0.0                 !
 ! D15   D(3,1,16,19)         -178.4687         -DE/DX =    0.0                 !
 ! D16   D(4,1,16,17)         -177.8078         -DE/DX =    0.0                 !
 ! D17   D(4,1,16,18)          -57.736          -DE/DX =    0.0                 !
 ! D18   D(4,1,16,19)           61.3868         -DE/DX =    0.0                 !
 ! D19   D(1,4,7,8)            -64.6527         -DE/DX =    0.0                 !
 ! D20   D(1,4,7,12)           170.8763         -DE/DX =    0.0                 !
 ! D21   D(5,4,7,8)            175.1859         -DE/DX =    0.0                 !
 ! D22   D(5,4,7,12)            50.7149         -DE/DX =    0.0                 !
 ! D23   D(6,4,7,8)             59.1116         -DE/DX =    0.0                 !
 ! D24   D(6,4,7,12)           -65.3594         -DE/DX =    0.0                 !
 ! D25   D(4,7,8,9)           -178.978          -DE/DX =    0.0                 !
 ! D26   D(4,7,8,10)           -58.6984         -DE/DX =    0.0                 !
 ! D27   D(4,7,8,11)            62.4897         -DE/DX =    0.0                 !
 ! D28   D(12,7,8,9)           -54.5053         -DE/DX =    0.0                 !
 ! D29   D(12,7,8,10)           65.7743         -DE/DX =    0.0                 !
 ! D30   D(12,7,8,11)         -173.0377         -DE/DX =    0.0                 !
 ! D31   D(4,7,12,13)           62.6631         -DE/DX =    0.0                 !
 ! D32   D(4,7,12,14)         -176.7895         -DE/DX =    0.0                 !
 ! D33   D(4,7,12,15)          -57.9429         -DE/DX =    0.0                 !
 ! D34   D(8,7,12,13)          -62.7525         -DE/DX =    0.0                 !
 ! D35   D(8,7,12,14)           57.7949         -DE/DX =    0.0                 !
 ! D36   D(8,7,12,15)          176.6415         -DE/DX =    0.0                 !
 --------------------------------------------------------------------------------
 GradGradGradGradGradGradGradGradGradGradGradGradGradGradGradGradGradGrad

 Leave Link  103 at Fri Sep 18 08:05:45 2026, MaxMem=  4294967296 cpu:               0.1 elap:               0.0
 (Enter /opt/apps/Gaussian/G16C/g16/l9999.exe)

 ----------------------------------------------------------------------

 Electric dipole moment (input orientation):
 (Debye = 10**-18 statcoulomb cm , SI units = C m)
                  (au)            (Debye)         (10**-30 SI)
   Tot        0.232061D+00      0.589840D+00      0.196749D+01
   x          0.960640D-01      0.244170D+00      0.814464D+00
   y         -0.145850D+00     -0.370714D+00     -0.123657D+01
   z         -0.152812D+00     -0.388410D+00     -0.129560D+01

 Dipole polarizability, Alpha (input orientation).
 (esu units = cm**3 , SI units = C**2 m**2 J**-1)
 Alpha(0;0):
               (au)            (10**-24 esu)      (10**-40 SI)
   iso        0.724312D+02      0.107332D+02      0.119423D+02
   aniso      0.109361D+02      0.162056D+01      0.180312D+01
   xx         0.709818D+02      0.105184D+02      0.117033D+02
   yx        -0.342771D+01     -0.507934D+00     -0.565153D+00
   yy         0.766423D+02      0.113572D+02      0.126366D+02
   zx         0.172526D+01      0.255657D+00      0.284457D+00
   zy        -0.337785D+01     -0.500546D+00     -0.556933D+00
   zz         0.696696D+02      0.103240D+02      0.114870D+02

 ----------------------------------------------------------------------

 Dipole orientation:
     6        -13.67758394          0.12511952         -2.01691240
     1        -12.12617701         -1.01939006         -1.27970923
     1        -15.40725678         -0.78089291         -1.34728491
     6        -13.59415089          2.77034085         -0.87405700
     1        -15.30250745          3.78283387         -1.44214854
     1        -13.64864189          2.62031296          1.20885287
     7        -11.44578275          4.28208696         -1.68725238
     6         -9.05742207          3.23552713         -0.85314744
     1         -7.51721897          4.45109631         -1.47899737
     1         -8.94382780          3.06053344          1.22273212
     1         -8.75401635          1.37231823         -1.67286017
     6        -11.71281137          6.87491074         -0.85172750
     1        -11.74327250          7.04999300          1.22669456
     1        -10.14583565          8.00641893         -1.56506152
     1        -13.46450280          7.67179677         -1.58697667
     6        -13.61927579          0.12492125         -4.89625072
     1        -13.75498197         -1.79116483         -5.64127328
     1        -15.19194168          1.21905164         -5.66139305
     1        -11.88142312          0.97681048         -5.59807143

 Electric dipole moment (dipole orientation):
 (Debye = 10**-18 statcoulomb cm , SI units = C m)
                  (au)            (Debye)         (10**-30 SI)
   Tot        0.232061D+00      0.589840D+00      0.196749D+01
   x          0.000000D+00      0.000000D+00      0.000000D+00
   y          0.000000D+00      0.000000D+00      0.000000D+00
   z          0.232061D+00      0.589840D+00      0.196749D+01

 Dipole polarizability, Alpha (dipole orientation).
 (esu units = cm**3 , SI units = C**2 m**2 J**-1)
 Alpha(0;0):
               (au)            (10**-24 esu)      (10**-40 SI)
   iso        0.724312D+02      0.107332D+02      0.119423D+02
   aniso      0.109361D+02      0.162056D+01      0.180312D+01
   xx         0.707740D+02      0.104876D+02      0.116691D+02
   yx         0.300044D+01      0.444619D+00      0.494705D+00
   yy         0.758239D+02      0.112359D+02      0.125017D+02
   zx         0.201344D+01      0.298362D+00      0.331972D+00
   zy         0.426325D+01      0.631748D+00      0.702915D+00
   zz         0.706958D+02      0.104760D+02      0.116562D+02

 ----------------------------------------------------------------------
 Unable to Open any file for archive entry.
 1\1\GINC-NODE01\Freq\RwB97XD\6-311+G(2d,2p)\C5H13N1\TREYROUPP\18-Sep-2
 026\0\\#P Geom=AllCheck Guess=TCheck SCRF=Check GenChk RwB97XD/6-311+G
 (2d,2p) Freq\\opt+freq\\0,1\C,-6.9422278437,-0.5150657332,-2.251755291
 3\H,-5.9495841515,-0.1700639728,-2.549445314\H,-7.5410594596,-0.516111
 3098,-3.1653245911\C,-6.8718760258,-1.9546364428,-1.7519544036\H,-7.89
 09878879,-2.3156903411,-1.5914819634\H,-6.4289986866,-2.591427952,-2.5
 396080236\N,-6.1561071981,-2.1152805851,-0.4951784689\C,-4.7532325954,
 -1.7725161863,-0.6107166124\H,-4.2604120285,-1.9265540572,0.3490476244
 \H,-4.2300662706,-2.3829514022,-1.3674032445\H,-4.6341597751,-0.723567
 1405,-0.8782930537\C,-6.315023233,-3.4606064041,0.0175177155\H,-5.8887
 153625,-4.2249757275,-0.6551804459\H,-5.8216849688,-3.5494372108,0.985
 6741371\H,-7.3734164888,-3.6827430887,0.1550374808\C,-7.5452875055,0.4
 474873511,-1.2357020985\H,-7.6138224396,1.4564600559,-1.6430828594\H,-
 8.549956737,0.1303229431,-0.9496887362\H,-6.9451337919,0.4817383139,-0
 .327123471\\Version=AS64L-G16RevC.01\State=1-A\HF=-253.104338\RMSD=4.8
 49e-10\RMSF=1.685e-05\ZeroPoint=0.1786169\Thermal=0.1865071\ETot=-252.
 9178309\HTot=-252.9168867\GTot=-252.9572927\Dipole=0.096064,-0.1458502
 ,-0.1528125\DipoleDeriv=0.1313898,0.0063212,0.0021333,0.0071393,0.0494
 517,0.043739,-0.0114954,0.0437206,0.0730638,-0.1307336,-0.0519117,0.08
 99969,-0.0313111,-0.0186232,0.0031328,0.0623136,-0.0193727,0.0374864,-
 0.0100744,0.030234,-0.1204247,0.0155323,0.0098495,-0.0152738,-0.082151
 9,-0.0058313,-0.1212139,0.305706,-0.1496513,0.1138035,-0.1267415,0.263
 1304,0.0448167,0.1181162,0.0093968,0.5344937,-0.1458643,-0.0677439,0.0
 01902,-0.0554863,0.0191855,0.0065434,0.0337961,0.0436122,0.0179752,-0.
 0265954,0.126516,0.1142561,0.0647537,-0.1239826,-0.1473148,-0.0202131,
 -0.0489949,-0.1606461,-0.63,0.0628233,-0.0041707,0.064298,-0.7200098,-
 0.0097761,-0.0050299,0.017875,-0.6679985,0.5049926,-0.0046705,-0.09655
 28,-0.0115117,0.2164349,0.1213877,-0.1223972,0.1351585,0.2309354,-0.01
 02292,0.0035399,-0.0512982,0.043933,0.0687668,0.0371019,-0.1132526,0.0
 227031,-0.1062225,-0.0906914,-0.0101675,0.0258532,0.1243781,-0.0554194
 ,-0.1239684,0.1635459,-0.0973631,-0.0903234,0.0454561,-0.0148146,0.021
 881,-0.0505694,-0.1383733,0.0397,0.0520712,0.0484401,0.0563046,0.15292
 66,-0.0108912,-0.0975378,-0.0437952,0.5963547,-0.035663,-0.0863867,-0.
 0116939,0.3008484,-0.0014825,0.1151888,0.0652354,0.0286272,-0.17435,0.
 0023477,0.0846199,-0.1845739,-0.0787232,0.0273233,0.0413355,-0.112102,
 -0.0093908,0.0159579,-0.0005055,-0.0793038,0.056391,-0.1133848,-0.1395
 009,-0.0759301,0.0483853,-0.0108535,0.0185522,0.018062,0.0102565,-0.00
 38416,0.0715592,0.0867838,0.0160597,0.0096367,0.0312198,0.0291927,-0.0
 41644,0.0072992,-0.0352958,0.0258837,0.0594224,0.0276646,0.0095828,0.0
 474085,-0.1708304,0.0537535,-0.0023479,0.0847486,0.0289294,-0.123609,-
 0.0238092,0.0675931,-0.0874289,0.0295723,0.0102423,0.0508413,-0.015196
 7,0.0360386,-0.0052199,-0.020093,-0.0881732,-0.0002017,0.0851404,-0.00
 66811,-0.0602814,-0.039882,-0.0750058\Polar=70.9817839,-3.4277087,76.6
 423065,1.72526,-3.3778525,69.6695673\Quadrupole=0.6139529,-0.1130174,-
 0.5009355,0.519943,0.7883075,-0.9597314\PG=C01 [X(C5H13N1)]\NImag=0\\0
 .58256772,0.03466992,0.47494267,0.02123816,-0.00454665,0.55106547,-0.2
 6287469,-0.07455762,0.06193873,0.28801028,-0.07367346,-0.07421376,0.02
 158551,0.07990093,0.08438486,0.06085391,0.02144475,-0.06663845,-0.0675
 9937,-0.02223023,0.07128855,-0.13003602,0.00050208,-0.12145962,-0.0175
 7322,0.00046526,-0.02503073,0.13869284,-0.00073843,-0.04773132,-0.0000
 2115,-0.00591614,-0.00049353,-0.00913539,-0.00150550,0.05572716,-0.120
 07999,0.00129802,-0.22562564,0.00441466,-0.00034580,0.00738098,0.13081
 571,0.00039480,0.24744779,-0.08308920,-0.00158222,-0.00019239,0.001979
 77,-0.03193891,0.01059942,-0.00158686,0.01899473,-0.00661475,0.5965391
 2,-0.00264922,-0.18413262,0.02698144,0.00060270,-0.01158992,0.00343808
 ,-0.00179085,0.00082061,-0.00167995,0.02170394,0.52406373,0.00156456,0
 .03261972,-0.08981175,-0.00071162,0.00724532,-0.00313574,0.00004712,0.
 02763785,-0.01044567,-0.03687397,0.00709589,0.50219840,0.00153277,0.00
 064349,0.00060422,0.00144824,0.00091921,0.00003018,0.00065411,-0.00049
 649,0.00051674,-0.26943447,-0.07581569,0.03742209,0.29686869,-0.030194
 96,-0.01297668,0.00685019,0.00049600,-0.00577751,0.00189901,0.00026994
 ,0.00112943,-0.00009875,-0.07752606,-0.07541080,0.01134692,0.08450467,
 0.08418157,0.01051058,0.00476242,-0.00274806,-0.00064296,0.00251578,0.
 00015531,0.00024448,0.00009790,-0.00011182,0.04640980,0.01380512,-0.05
 639882,-0.03655683,-0.01843536,0.06681067,-0.00065864,-0.00165432,0.00
 110547,0.00062895,0.00025194,-0.00058030,-0.00031387,0.00047884,-0.000
 08528,-0.09563678,0.05544117,0.06577422,-0.01260479,0.01767202,0.02054
 756,0.09585430,0.01524368,-0.01910362,-0.02271706,-0.00092487,0.000972
 49,-0.00043636,0.00051129,0.00073007,0.00036820,0.05540677,-0.12485878
 ,-0.08513823,-0.00405267,0.00607333,0.00727775,-0.06137494,0.13612384,
 -0.00404359,0.00682614,0.00807902,-0.00005777,-0.00056237,0.00017929,0
 .00008766,-0.00081598,0.00056252,0.06811243,-0.08904674,-0.15087743,0.
 00347993,-0.00343661,-0.00334741,-0.06953888,0.09894659,0.18296705,-0.
 00087120,0.00387887,-0.00075928,0.00024997,0.00024721,0.00042972,0.000
 62645,-0.00077969,0.00061799,-0.11615246,-0.01949396,-0.07098276,-0.02
 042728,0.00112803,-0.03391373,0.00597568,-0.00282433,0.00076253,0.5056
 9064,0.01893053,-0.00139837,0.03187977,-0.00056462,0.00110317,-0.00030
 022,0.00023283,-0.00686365,0.00305949,-0.00224563,-0.08560515,0.033022
 06,-0.00604483,-0.00026055,-0.01013418,-0.00911957,0.00244233,-0.01446
 167,0.08069846,0.44694316,-0.00914845,0.00664958,-0.01521620,0.0001204
 3,-0.00067507,0.00028466,0.00059574,0.00165687,0.00043934,-0.04142039,
 0.00169299,-0.17814853,-0.00154586,-0.00023307,-0.00056050,-0.01672256
 ,-0.00130168,-0.04198627,0.07864759,-0.12500391,0.41392461,0.00101822,
 0.00112799,-0.00119950,-0.00129649,-0.00024654,-0.00002980,-0.00011664
 ,-0.00095122,0.00062670,-0.03199399,0.00107234,-0.00252895,0.00006264,
 0.00125314,-0.00216847,0.00463411,0.00000992,0.00466216,-0.21737604,-0
 .05360426,-0.00639400,0.49002210,0.00171901,0.00125282,-0.00015324,-0.
 00017014,-0.00024353,0.00112386,-0.00056087,-0.00048418,0.00003499,0.0
 0197534,0.00184299,-0.00805306,0.00143729,0.00039161,0.00188448,-0.002
 16437,0.00043049,0.00128382,-0.01483898,-0.08941106,0.01684696,0.00145
 600,0.59076433,-0.00078492,0.00020742,-0.00084260,-0.00127226,0.000430
 31,-0.00031386,-0.00036359,-0.00008695,0.00017540,-0.03650466,-0.01167
 857,-0.00363893,-0.00421094,0.00108201,-0.00507383,-0.00322012,0.00048
 142,0.00055316,0.02023983,0.02567519,-0.08519467,0.03606075,-0.0297207
 6,0.58163389,0.00007278,-0.00057128,0.00048620,0.00027378,0.00020821,-
 0.00004224,0.00011061,0.00010830,-0.00003680,-0.00547218,-0.00326922,0
 .00261051,-0.00115656,0.00014172,-0.00176992,0.00001861,-0.00020848,-0
 .00026942,-0.02242780,0.00575791,-0.03211654,-0.09517489,0.01540320,-0
 .09568531,0.11414208,-0.00008648,-0.00011002,0.00049110,0.00042638,0.0
 0025603,-0.00034668,0.00028712,0.00005125,-0.00000833,-0.00229437,-0.0
 0089664,0.00037995,-0.00042399,0.00042449,-0.00036488,0.00016329,0.000
 10568,0.00042676,-0.00471042,-0.00001545,-0.00711047,0.01820404,-0.054
 41458,0.03683334,-0.01612359,0.05432327,0.00019542,-0.00009167,-0.0000
 4209,-0.00010867,-0.00020575,0.00011927,-0.00008513,0.00000408,0.00000
 065,0.00074568,0.00011955,0.00130565,-0.00015379,0.00009374,0.00023114
 ,0.00033464,0.00016139,0.00040071,0.00069991,-0.00049129,0.00404166,-0
 .10428631,0.03519987,-0.26124167,0.11218451,-0.03915476,0.27883060,-0.
 00024587,-0.00010947,-0.00036457,0.00003453,0.00020227,-0.00004727,0.0
 0003797,0.00016444,-0.00010856,0.00241989,0.00081149,0.00634328,0.0004
 3207,-0.00044434,-0.00042832,0.00090369,-0.00103101,-0.00206965,-0.035
 80642,0.01407775,0.02510063,-0.08953051,0.05573888,0.06603725,0.007005
 07,-0.00806257,-0.00872147,0.11131012,0.00014776,-0.00006613,-0.000165
 89,-0.00010448,-0.00027647,-0.00009775,0.00005435,0.00004543,0.0000421
 8,-0.00030586,0.00094025,0.00084789,0.00006681,0.00002399,0.00019013,0
 .00123204,-0.00038298,0.00050174,-0.00114568,0.00658824,0.00620567,0.0
 5339112,-0.12742897,-0.08953851,-0.00275470,0.00270788,0.00391466,-0.0
 6332997,0.13029127,0.00029646,0.00001123,-0.00006182,0.00010278,-0.000
 14802,-0.00000276,0.00004562,-0.00004645,0.00003186,-0.00217752,0.0023
 0856,0.00245409,0.00011012,0.00007305,0.00011427,0.00179666,-0.0004325
 7,0.00107246,0.01005836,0.00084968,-0.00130004,0.06388845,-0.09007420,
 -0.15958745,0.01236805,-0.01747012,-0.01905796,-0.08185421,0.10053523,
 0.17027093,-0.00086271,0.00031001,-0.00083826,-0.00060757,0.00059808,-
 0.00128838,0.00024177,0.00009028,0.00012305,0.00140685,-0.00119218,0.0
 0063183,0.00015786,0.00008312,0.00022750,-0.00024806,0.00015055,-0.000
 29530,-0.00655083,-0.03624284,0.01252919,-0.05067657,-0.01466180,0.003
 20020,0.00146149,0.01380353,-0.00201426,0.00171310,0.01296577,-0.00431
 404,0.06061285,0.00044012,-0.00037374,0.00120568,0.00133376,0.00043174
 ,0.00027530,0.00048104,0.00018074,-0.00014837,0.00012565,-0.00079323,0
 .00131344,0.00000158,0.00001041,-0.00012615,0.00016073,-0.00013609,-0.
 00016837,-0.00431453,-0.00545542,0.00244599,-0.02280266,-0.29793783,0.
 06286860,0.00048713,-0.00290270,0.00035675,-0.00030622,-0.01703314,0.0
 0455898,0.02664113,0.32259866,-0.00132359,0.00014780,-0.00011718,-0.00
 121812,0.00068143,-0.00131153,0.00015852,-0.00010531,-0.00000008,0.000
 02705,-0.00057950,-0.00000492,0.00009359,0.00011551,0.00002074,0.00008
 911,-0.00006976,0.00008769,0.00098385,0.00291607,-0.00211740,0.0056910
 4,0.06293449,-0.06408945,0.00305865,0.02781640,-0.00574118,-0.00174430
 ,-0.02294327,0.00567718,-0.00741951,-0.07187956,0.06659989,-0.00272365
 ,0.00000060,-0.00371629,0.00004763,-0.00001208,-0.00017611,0.00000944,
 0.00122349,-0.00072021,0.00208003,0.01965705,-0.00441121,0.00021335,0.
 00243365,-0.00231409,0.00057740,-0.00111429,-0.00001515,-0.09296587,-0
 .00901078,-0.01021691,-0.01412444,-0.04178272,0.01620346,0.00068672,-0
 .00119619,0.00124870,0.00055832,-0.00138374,-0.00027428,-0.00635244,-0
 .00235322,0.00081475,0.60771395,-0.00051427,0.00033958,-0.00015814,0.0
 0006786,-0.00005989,0.00014541,-0.00022437,0.00026929,-0.00016770,0.00
 730005,-0.01455472,0.00460178,-0.00152107,0.00040781,-0.00120214,-0.00
 200565,0.00291079,-0.00539878,-0.03140666,-0.20580954,0.07476351,-0.00
 615323,-0.02079352,-0.00012603,0.00158102,0.00046382,0.00065484,0.0051
 6374,0.00371621,-0.00147045,-0.00080770,0.00095894,0.00029706,0.011815
 93,0.48029061,-0.00207862,-0.00136391,-0.00404973,0.00018408,0.0001191
 0,-0.00009480,-0.00016480,0.00130472,-0.00032729,-0.00230948,0.0382585
 0,-0.02550550,0.00152521,0.00071951,0.00092590,-0.00030166,0.00189009,
 0.00113474,-0.00600230,0.03493606,-0.09243635,0.00887948,0.00677871,-0
 .00306822,-0.00199686,-0.00189601,0.00087836,-0.00092719,0.00212617,0.
 00087360,-0.00156149,-0.00070246,0.00013676,0.02428623,-0.00001521,0.5
 7504736,0.00002775,-0.00005922,-0.00032937,-0.00000285,-0.00002172,0.0
 0002047,-0.00004153,0.00006288,-0.00002988,0.00041242,0.00013394,0.000
 72272,-0.00030281,-0.00004089,0.00041449,-0.00025102,0.00031595,-0.000
 46752,0.00312765,-0.00043318,-0.00372756,0.00248217,-0.00182269,-0.002
 45912,0.00002390,0.00006825,-0.00002496,0.00090877,0.00127836,0.000334
 26,-0.00005763,0.00026143,0.00008409,-0.08852799,0.05721278,0.05790205
 ,0.08761465,0.00001567,0.00014270,0.00057180,-0.00004066,0.00002889,-0
 .00004737,0.00003182,-0.00015849,0.00017416,-0.00233553,0.00076478,-0.
 00540627,0.00024962,-0.00005064,0.00028590,-0.00013809,0.00071544,0.00
 214676,0.01044146,-0.04238293,-0.01178044,0.00523342,0.00141807,-0.001
 11960,-0.00034037,-0.00011777,-0.00006231,-0.00175319,0.00077808,0.001
 20307,-0.00046309,0.00031876,0.00048815,0.05856669,-0.14344244,-0.0948
 9462,-0.06732171,0.17521299,0.00008612,0.00003317,-0.00001650,-0.00003
 128,-0.00004668,0.00001266,0.00003415,-0.00001495,-0.00001173,-0.00102
 607,0.00220785,0.00426784,0.00014728,-0.00005787,-0.00023817,0.0012925
 5,-0.00158361,0.00079274,-0.00539419,0.00779327,0.01009920,-0.00161141
 ,0.00082401,0.00175848,0.00024763,0.00001744,-0.00053505,-0.00086387,-
 0.00141437,-0.00037340,-0.00013794,-0.00007422,0.00006646,0.05780655,-
 0.09234817,-0.14526536,-0.06388449,0.10503788,0.15001487,0.00067008,-0
 .00019497,-0.00001224,0.00000102,0.00021628,-0.00006201,0.00003314,-0.
 00005629,0.00000052,-0.00026037,-0.00036146,0.00027400,0.00075391,0.00
 019595,0.00005385,0.00007743,-0.00001068,-0.00036570,0.00005608,-0.000
 19702,0.00376166,0.00085912,-0.00071217,0.00190798,0.00005114,-0.00033
 323,-0.00015259,-0.00008849,0.00002311,-0.00020796,0.00017470,0.000157
 11,0.00022893,-0.10521046,0.00720627,-0.10878281,0.00617872,-0.0005775
 6,0.01261050,0.10880776,0.00091544,0.00050277,0.00168691,-0.00007056,0
 .00001598,0.00000528,0.00008277,-0.00060048,0.00019530,-0.00264366,-0.
 00535889,0.00159650,0.00012923,-0.00008328,-0.00035914,-0.00004964,0.0
 0000516,0.00067354,0.01748134,-0.00753292,0.03258399,0.00185524,0.0008
 4230,0.00123723,-0.00081575,-0.00001726,-0.00033648,-0.00044368,-0.000
 12264,-0.00027481,0.00032756,0.00013418,-0.00020996,0.00254801,-0.0488
 7789,0.00716771,-0.01034523,0.00187550,-0.01851632,-0.00729251,0.05908
 415,-0.00047301,-0.00051558,-0.00033915,0.00006478,0.00009156,-0.00005
 859,0.00000967,0.00028044,-0.00010406,0.00160690,0.00306850,0.00044131
 ,0.00004772,-0.00020126,0.00018468,0.00010031,-0.00025503,0.00038628,-
 0.00587625,0.00456383,-0.01063448,-0.00125032,-0.00097259,0.00010461,0
 .00080947,0.00045132,0.00033639,0.00005757,-0.00015853,-0.00033223,0.0
 0025357,-0.00016204,0.00052370,-0.10681588,0.01440968,-0.25628595,-0.0
 0948592,0.00009926,-0.01778134,0.11859319,-0.01978375,0.27816612,0.000
 70292,-0.00000976,0.00011263,0.00008792,0.00024867,-0.00014060,0.00003
 193,-0.00010630,0.00005528,0.00046312,0.00127576,-0.00136832,0.0005952
 4,0.00003016,0.00037754,-0.00037854,0.00004632,0.00017384,-0.00324878,
 -0.00324355,-0.00035986,0.00136475,-0.00154964,0.00057816,0.00030601,0
 .00020280,0.00024048,0.00021555,0.00024639,-0.00005548,-0.00033532,-0.
 00009441,0.00011085,-0.30203124,-0.04784826,0.03125297,-0.01163842,-0.
 00153703,0.00084718,-0.01209059,-0.00163051,0.00238939,0.32596541,0.00
 010007,0.00001456,-0.00024730,0.00000830,0.00014599,-0.00011788,0.0000
 3419,0.00001571,-0.00002434,-0.00219714,0.00050655,-0.00109585,0.00079
 467,0.00020066,0.00055650,0.00042273,-0.00000458,0.00020951,-0.0351285
 3,-0.01186614,0.00393888,0.00043188,-0.00522847,0.00351712,0.00035338,
 0.00001533,-0.00019119,-0.00049071,-0.00005454,0.00040280,-0.00183642,
 -0.00041814,0.00044994,-0.03929792,-0.05599087,0.00576761,0.02087302,0
 .00466639,-0.00191807,0.00195282,0.00004265,-0.00108233,0.05398792,0.0
 6795246,-0.00011295,-0.00003499,0.00007977,0.00000863,-0.00013402,0.00
 003071,0.00000576,-0.00000791,-0.00000479,0.00239221,0.00039752,0.0003
 2934,-0.00068563,0.00048611,-0.00031853,-0.00008954,-0.00011155,-0.000
 06815,0.01125947,0.00423806,-0.00266355,-0.00065205,0.00220841,-0.0011
 7584,0.00024043,-0.00014877,0.00049890,-0.00033559,-0.00016196,0.00023
 533,0.00062276,0.00025225,0.00041170,0.02858083,0.00573293,-0.05262830
 ,0.02089096,0.00308513,-0.00257723,-0.02783540,-0.00559422,0.00541420,
 -0.03428084,-0.01016747,0.05241913,-0.10014070,0.02918268,0.03308762,-
 0.01172254,0.02154049,0.02190464,0.00831439,-0.01255760,-0.01208721,-0
 .00121617,0.00391746,0.00043491,0.00095085,-0.00135492,-0.00078289,0.0
 0079748,-0.00068543,0.00011595,0.00044012,-0.00066782,0.00086389,-0.00
 075750,0.00017424,0.00030299,0.00007171,0.00004637,-0.00006372,0.00011
 005,-0.00024887,-0.00018613,-0.00019217,0.00009218,0.00019876,0.000400
 36,0.00038034,-0.00009428,-0.00001318,-0.00019361,-0.00008553,-0.00001
 100,-0.00007368,0.00004067,-0.00007541,-0.00009980,0.00000696,0.555057
 21,0.02765516,-0.12455035,-0.04874809,-0.00332365,0.00638671,0.0067357
 4,0.00044962,-0.00110940,-0.00059661,0.01513860,-0.02690994,-0.0225825
 5,0.00017041,0.00145615,-0.00078220,0.00057134,-0.00518042,0.00200630,
 0.00085245,-0.00058001,-0.00131300,-0.00082624,-0.00062087,0.00005569,
 0.00004690,0.00014503,-0.00003047,0.00000305,0.00006810,-0.00010112,0.
 00018610,0.00036346,0.00014276,-0.00006987,0.00033897,-0.00060050,-0.0
 0009549,-0.00003965,0.00006283,-0.00000844,0.00013581,0.00011804,-0.00
 004614,0.00000007,-0.00001503,0.02326380,0.54259620,0.03233721,-0.0495
 7008,-0.13725726,0.00327889,-0.00619072,-0.00647190,0.01343445,-0.0194
 5149,-0.01867440,-0.00391882,0.00388088,0.01109738,-0.00046690,0.00019
 098,0.00011266,-0.00040187,0.00424652,-0.00032990,-0.00013730,-0.00028
 466,0.00052590,-0.00006402,0.00016712,-0.00025203,-0.00010516,0.000063
 70,-0.00005859,0.00000116,-0.00017132,0.00001101,-0.00033145,0.0002814
 2,0.00025374,-0.00040156,0.00045071,-0.00006252,0.00008806,-0.00016026
 ,-0.00012464,0.00000783,0.00002214,-0.00009444,-0.00001537,-0.00005426
 ,0.00005635,0.02732216,-0.04359116,0.53353226,-0.00159235,0.01233163,-
 0.00611050,0.00000784,-0.00013856,-0.00058466,0.00040923,-0.00061997,-
 0.00004532,-0.00091054,0.00096217,0.00197444,0.00020907,0.00037691,-0.
 00001034,0.00024011,0.00066813,-0.00020953,0.00010639,0.00028344,0.000
 22450,0.00028141,0.00000535,-0.00003607,-0.00002097,0.00000321,-0.0000
 0866,-0.00000928,0.00002629,0.00003923,0.00007754,-0.00000668,-0.00003
 813,-0.00015963,-0.00005218,0.00012363,0.00002538,0.00007698,-0.000044
 43,-0.00000522,0.00000574,-0.00004192,0.00002873,0.00003511,0.00000626
 ,-0.04905956,0.01354893,-0.00597602,0.04847462,-0.00015683,-0.01780542
 ,0.00906207,0.00054069,0.00065176,0.00007168,-0.00071784,0.00035847,-0
 .00017906,0.00211762,-0.00089890,-0.00423711,-0.00000341,0.00044713,-0
 .00007303,0.00032213,-0.00134024,0.00054827,-0.00005636,0.00022846,-0.
 00021064,-0.00027606,-0.00013576,0.00006501,0.00006491,-0.00000526,0.0
 0004312,0.00003639,-0.00000866,-0.00005518,-0.00003179,0.00002339,-0.0
 0002631,0.00010603,0.00013047,-0.00001132,-0.00000549,-0.00002440,-0.0
 0001008,0.00002010,-0.00002687,0.00007300,-0.00000341,0.00001859,-0.00
 002248,0.01411805,-0.27343678,0.09415568,-0.01696630,0.29804306,0.0008
 7871,-0.02376092,0.00951156,-0.00021458,0.00082689,0.00080876,-0.00068
 479,0.00048235,0.00094919,0.00195638,-0.00229855,-0.00436661,-0.000058
 65,0.00012137,-0.00013050,0.00021698,-0.00143123,0.00035922,-0.0004761
 1,0.00102349,0.00035401,0.00027861,0.00000778,0.00001994,0.00002723,0.
 00001180,-0.00000362,-0.00012633,0.00003077,0.00004046,0.00005820,-0.0
 0000048,-0.00004838,0.00001934,-0.00020298,0.00029224,-0.00004376,0.00
 020751,-0.00001391,-0.00000958,-0.00002177,0.00003303,0.00003101,-0.00
 000910,-0.00002665,-0.00619049,0.09557773,-0.08709952,0.00494786,-0.10
 169697,0.09266297,-0.01241118,-0.00371404,0.00332421,0.00049867,0.0019
 9570,0.00201579,0.00077005,0.00016518,0.00022892,0.00029693,-0.0007148
 8,-0.00000353,0.00005787,0.00090049,-0.00016289,0.00038147,0.00005869,
 -0.00008622,0.00033449,0.00024998,-0.00040071,-0.00009520,-0.00039588,
 0.00003779,0.00002401,0.00005568,-0.00002167,0.00011510,0.00005719,-0.
 00002623,0.00024423,0.00004033,-0.00000114,-0.00015834,0.00003595,0.00
 005870,0.00002821,0.00002384,-0.00002092,-0.00000504,0.00002368,-0.000
 00774,0.00004649,0.00008913,0.00000175,-0.27007038,-0.07267248,0.06045
 691,0.00309280,0.00078503,-0.00116570,0.29337258,0.02134261,0.00605583
 ,-0.00544026,0.00226021,-0.00246556,-0.00322563,-0.00060622,0.00071641
 ,0.00068999,0.00134062,0.00164698,0.00003128,-0.00063620,-0.00014750,0
 .00008503,-0.00036497,0.00024819,-0.00001863,-0.00034652,0.00007194,0.
 00009835,0.00013869,0.00006216,-0.00007072,-0.00004861,-0.00002905,0.0
 0002253,-0.00005386,0.00004267,0.00005179,-0.00006530,-0.00003602,-0.0
 0007863,0.00001940,-0.00008519,0.00003777,-0.00000688,0.00002712,0.000
 01355,-0.00002323,0.00000247,-0.00001646,-0.00001296,-0.00002351,0.000
 01795,-0.07345619,-0.07189707,0.02043016,-0.02832689,-0.00822886,0.006
 30942,0.07879602,0.07515872,0.02259665,0.00717013,-0.00687375,0.001641
 00,-0.00352883,-0.00264218,-0.00023730,0.00085373,0.00030732,-0.000441
 73,0.00103587,0.00082553,-0.00034066,-0.00053399,0.00034855,-0.0003542
 0,0.00016170,-0.00005710,0.00015831,-0.00026301,-0.00007945,-0.0000493
 3,-0.00004230,0.00005272,-0.00001997,-0.00005611,0.00004649,0.00003863
 ,0.00011357,-0.00004181,0.00011424,-0.00008864,-0.00015801,0.00003847,
 0.00007139,0.00004184,0.00000881,-0.00000978,-0.00001233,-0.00000040,-
 0.00001484,0.00001578,0.00000052,0.00002056,0.00001842,0.05991439,0.01
 997702,-0.06352501,0.01168560,0.00316787,-0.00401000,-0.06944001,-0.01
 908584,0.06778437,0.00891397,-0.00019438,0.01308479,0.00080877,-0.0007
 6299,-0.00027268,-0.00026379,0.00243948,0.00240844,0.00015489,-0.00029
 058,-0.00091932,-0.00001077,0.00007536,-0.00003535,0.00000247,-0.00018
 459,0.00002423,-0.00078081,0.00114320,0.00020919,0.00041774,0.00074994
 ,-0.00003141,0.00000449,-0.00002984,-0.00000813,-0.00008365,-0.0002158
 8,0.00005586,-0.00020709,-0.00034445,0.00020560,-0.00003314,-0.0002305
 5,0.00000715,0.00000580,0.00006134,0.00002817,0.00000808,-0.00000378,-
 0.00002221,-0.00000977,-0.00003269,-0.00002403,-0.13288356,-0.00484406
 ,-0.12510819,-0.00119555,0.00010653,0.00055567,-0.01652276,0.00005029,
 -0.02531300,0.14167467,-0.01316633,-0.00078890,-0.01811669,0.00003592,
 0.00074255,0.00079842,0.00200333,-0.00260352,-0.00300821,-0.00103394,0
 .00042368,-0.00122552,0.00007736,-0.00003961,0.00001608,0.00015531,0.0
 0024890,0.00033973,0.00031784,-0.00019614,0.00074548,0.00068642,-0.000
 30600,-0.00011219,-0.00002068,0.00001593,-0.00000660,-0.00017300,0.000
 17142,0.00007854,0.00014498,0.00006605,-0.00009732,-0.00015003,-0.0002
 1243,0.00037809,-0.00005409,0.00026759,-0.00000568,-0.00000407,-0.0000
 2072,-0.00000807,0.00004395,0.00000728,-0.00001996,-0.00337769,-0.0471
 6599,-0.00441535,0.01778670,0.00200982,0.02482288,-0.00577963,-0.00111
 970,-0.00894851,0.00250766,0.04849979,-0.01251266,-0.00128658,-0.01909
 564,0.00010263,0.00057161,0.00040960,0.00254710,-0.00302717,-0.0019895
 7,-0.00037007,0.00099255,-0.00058564,0.00004217,0.00001850,0.00002371,
 0.00003690,-0.00005657,0.00009139,-0.00031564,0.00098198,0.00066805,0.
 00014695,-0.00027833,0.00018035,0.00000954,0.00006432,-0.00000965,0.00
 001282,0.00014359,-0.00002372,0.00044009,-0.00020813,-0.00018973,0.000
 06334,-0.00003771,0.00039322,-0.00001333,0.00018105,-0.00006258,-0.000
 00976,-0.00005732,0.00002414,0.00005064,0.00004488,-0.00003082,-0.1247
 0270,-0.00631539,-0.23163909,-0.00589594,-0.00066450,-0.00933218,0.005
 21269,0.00014838,0.00795861,0.13515523,0.00878486,0.25320955\\-0.00001
 501,-0.00003634,0.00005379,0.00000621,0.00000527,-0.00001082,-0.000001
 12,0.00001183,-0.00001297,-0.00001634,0.00004370,-0.00006538,-0.000002
 90,-0.00000839,0.00000116,-0.00000231,-0.00000220,0.00001396,0.0000060
 7,0.00001648,0.00003474,0.00000610,-0.00000854,-0.00000385,0.00000375,
 0.00000210,0.00000037,-0.00000074,0.00000227,0.00000349,-0.00000314,-0
 .00000491,0.00000122,0.00001316,-0.00003033,-0.00000393,-0.00000268,0.
 00000894,0.00000509,-0.00000039,0.00000257,-0.00000057,0.00000541,0.00
 000794,-0.00000001,0.00001211,-0.00001685,-0.00003053,-0.00000056,0.00
 000105,0.00000312,-0.00000453,0.00000108,0.00000692,-0.00000308,0.0000
 0434,0.00000419\\\@
 The archive entry for this job was punched.


 THE WORLD IS NOT A HAMBURGER - YOU CAN'T HAVE IT YOUR WAY.
 Job cpu time:       0 days  0 hours 38 minutes 21.7 seconds.
 Elapsed time:       0 days  0 hours  2 minutes 27.9 seconds.
 File lengths (MBytes):  RWF=    117 Int=      0 D2E=      0 Chk=      8 Scr=      1
 Normal termination of Gaussian 16 at Fri Sep 18 08:05:45 2026.
