 Entering Gaussian System, Link 0=/applications/g16/g16/g16
 Initial command:
 /applications/g16/g16/l1.exe "/scratch/g98/Gau-9123.inp" -scrdir="/scratch/g98/"
 Entering Link 1 = /applications/g16/g16/l1.exe PID=      9124.
  
 Copyright (c) 1988,1990,1992,1993,1995,1998,2003,2009,2016,
            Gaussian, Inc.  All Rights Reserved.
  
 This is part of the Gaussian(R) 16 program.  It is based on
 the Gaussian(R) 09 system (copyright 2009, Gaussian, Inc.),
 the Gaussian(R) 03 system (copyright 2003, Gaussian, Inc.),
 the Gaussian(R) 98 system (copyright 1998, Gaussian, Inc.),
 the Gaussian(R) 94 system (copyright 1995, Gaussian, Inc.),
 the Gaussian 92(TM) system (copyright 1992, Gaussian, Inc.),
 the Gaussian 90(TM) system (copyright 1990, Gaussian, Inc.),
 the Gaussian 88(TM) system (copyright 1988, Gaussian, Inc.),
 the Gaussian 86(TM) system (copyright 1986, Carnegie Mellon
 University), and the Gaussian 82(TM) system (copyright 1983,
 Carnegie Mellon University). Gaussian is a federally registered
 trademark of Gaussian, Inc.
  
 This software contains proprietary and confidential information,
 including trade secrets, belonging to Gaussian, Inc.
  
 This software is provided under written license and may be
 used, copied, transmitted, or stored only in accord with that
 written license.
  
 The following legend is applicable only to US Government
 contracts under FAR:
  
                    RESTRICTED RIGHTS LEGEND
  
 Use, reproduction and disclosure by the US Government is
 subject to restrictions as set forth in subparagraphs (a)
 and (c) of the Commercial Computer Software - Restricted
 Rights clause in FAR 52.227-19.
  
 Gaussian, Inc.
 340 Quinnipiac St., Bldg. 40, Wallingford CT 06492
  
  
 ---------------------------------------------------------------
 Warning -- This program may not be used in any manner that
 competes with the business of Gaussian, Inc. or will provide
 assistance to any competitor of Gaussian, Inc.  The licensee
 of this program is prohibited from giving any competitor of
 Gaussian, Inc. access to this program.  By using this program,
 the user acknowledges that Gaussian, Inc. is engaged in the
 business of creating and licensing software in the field of
 computational chemistry and represents and warrants to the
 licensee that it is not a competitor of Gaussian, Inc. and that
 it will not use this program in any manner prohibited above.
 ---------------------------------------------------------------
  

 Cite this work as:
 Gaussian 16, Revision A.03,
 M. J. Frisch, G. W. Trucks, H. B. Schlegel, G. E. Scuseria, 
 M. A. Robb, J. R. Cheeseman, G. Scalmani, V. Barone, 
 G. A. Petersson, H. Nakatsuji, X. Li, M. Caricato, A. V. Marenich, 
 J. Bloino, B. G. Janesko, R. Gomperts, B. Mennucci, H. P. Hratchian, 
 J. V. Ortiz, A. F. Izmaylov, J. L. Sonnenberg, D. Williams-Young, 
 F. Ding, F. Lipparini, F. Egidi, J. Goings, B. Peng, A. Petrone, 
 T. Henderson, D. Ranasinghe, V. G. Zakrzewski, J. Gao, N. Rega, 
 G. Zheng, W. Liang, M. Hada, M. Ehara, K. Toyota, R. Fukuda, 
 J. Hasegawa, M. Ishida, T. Nakajima, Y. Honda, O. Kitao, H. Nakai, 
 T. Vreven, K. Throssell, J. A. Montgomery, Jr., J. E. Peralta, 
 F. Ogliaro, M. J. Bearpark, J. J. Heyd, E. N. Brothers, K. N. Kudin, 
 V. N. Staroverov, T. A. Keith, R. Kobayashi, J. Normand, 
 K. Raghavachari, A. P. Rendell, J. C. Burant, S. S. Iyengar, 
 J. Tomasi, M. Cossi, J. M. Millam, M. Klene, C. Adamo, R. Cammi, 
 J. W. Ochterski, R. L. Martin, K. Morokuma, O. Farkas, 
 J. B. Foresman, and D. J. Fox, Gaussian, Inc., Wallingford CT, 2016.
 
 ******************************************
 Gaussian 16:  EM64M-G16RevA.03 25-Dec-2016
                 1-Oct-2026 
 ******************************************
 %nprocshared=22
 Will use up to   22 processors via shared memory.
 %mem=48GB
 %chk=aminopropyl_ylide.chk
 ----------------------------------------
 # opt freq wb97xd/6-311+g(2d,2p) scf=xqc
 ----------------------------------------
 1/18=20,19=15,26=3,38=1/1,3;
 2/9=110,12=2,17=6,18=5,40=1/2;
 3/5=4,6=6,7=212,11=2,25=1,30=1,71=1,74=-58/1,2,3;
 4//1;
 5/5=2,8=3,13=1,38=5/2,8;
 6/7=2,8=2,9=2,10=2,28=1/1;
 7//1,2,3,16;
 1/18=20,19=15,26=3/3(2);
 2/9=110/2;
 99//99;
 2/9=110/2;
 3/5=4,6=6,7=212,11=2,25=1,30=1,71=1,74=-58/1,2,3;
 4/5=5,16=3,69=1/1;
 5/5=2,8=3,13=1,38=5/2,8;
 7//1,2,3,16;
 1/18=20,19=15,26=3/3(-5);
 2/9=110/2;
 6/7=2,8=2,9=2,10=2,19=2,28=1/1;
 99/9=1/99;
 --------
 opt freq
 --------
 Symbolic Z-matrix:
 Charge =  0 Multiplicity = 1
 C                     0.58963  -0.69584   0.35645 
 H                     0.22473  -0.37452   1.33274 
 H                     1.3349   -1.46503   0.54978 
 C                    -0.53132  -1.31587  -0.47757 
 H                    -0.39052  -1.07919  -1.53227 
 H                    -0.52126  -2.40054  -0.3831 
 N                    -1.93811  -0.89586  -0.14301 
 C                    -2.32848  -1.40536   1.20551 
 H                    -3.35473  -1.09025   1.37573 
 H                    -2.22919  -2.48856   1.20857 
 H                    -1.67494  -0.96965   1.95473 
 C                    -2.8483   -1.50386  -1.16155 
 H                    -2.72084  -2.58394  -1.14089 
 H                    -3.86177  -1.20794  -0.90486 
 H                    -2.5764   -1.11417  -2.13943 
 C                    -2.07932   0.61124  -0.18636 
 H                    -1.74072   0.92843  -1.17083 
 H                    -1.41117   1.01676   0.56796 
 C                     1.29444   0.47875  -0.34724 
 H                     0.90826   1.4032    0.02849 
 H                     2.34639   0.42848  -0.15807 
 H                     1.11838   0.42068  -1.40106 
 

 GradGradGradGradGradGradGradGradGradGradGradGradGradGradGradGradGradGrad
 Berny optimization.
 Initialization pass.
                           ----------------------------
                           !    Initial Parameters    !
                           ! (Angstroms and Degrees)  !
 --------------------------                            --------------------------
 ! Name  Definition              Value          Derivative Info.                !
 --------------------------------------------------------------------------------
 ! R1    R(1,2)                  1.0907         estimate D2E/DX2                !
 ! R2    R(1,3)                  1.0883         estimate D2E/DX2                !
 ! R3    R(1,4)                  1.5286         estimate D2E/DX2                !
 ! R4    R(1,19)                 1.54           estimate D2E/DX2                !
 ! R5    R(4,5)                  1.0901         estimate D2E/DX2                !
 ! R6    R(4,6)                  1.0888         estimate D2E/DX2                !
 ! R7    R(4,7)                  1.5058         estimate D2E/DX2                !
 ! R8    R(7,8)                  1.4935         estimate D2E/DX2                !
 ! R9    R(7,12)                 1.4952         estimate D2E/DX2                !
 ! R10   R(7,16)                 1.5143         estimate D2E/DX2                !
 ! R11   R(8,9)                  1.0869         estimate D2E/DX2                !
 ! R12   R(8,10)                 1.0877         estimate D2E/DX2                !
 ! R13   R(8,11)                 1.0855         estimate D2E/DX2                !
 ! R14   R(12,13)                1.0878         estimate D2E/DX2                !
 ! R15   R(12,14)                1.0865         estimate D2E/DX2                !
 ! R16   R(12,15)                1.0872         estimate D2E/DX2                !
 ! R17   R(16,17)                1.0883         estimate D2E/DX2                !
 ! R18   R(16,18)                1.0862         estimate D2E/DX2                !
 ! R19   R(19,20)                1.07           estimate D2E/DX2                !
 ! R20   R(19,21)                1.07           estimate D2E/DX2                !
 ! R21   R(19,22)                1.07           estimate D2E/DX2                !
 ! A1    A(2,1,3)              106.1595         estimate D2E/DX2                !
 ! A2    A(2,1,4)              111.2575         estimate D2E/DX2                !
 ! A3    A(2,1,19)             109.7212         estimate D2E/DX2                !
 ! A4    A(3,1,4)              108.2048         estimate D2E/DX2                !
 ! A5    A(3,1,19)             107.8677         estimate D2E/DX2                !
 ! A6    A(4,1,19)             113.3089         estimate D2E/DX2                !
 ! A7    A(1,4,5)              110.1894         estimate D2E/DX2                !
 ! A8    A(1,4,6)              110.4856         estimate D2E/DX2                !
 ! A9    A(1,4,7)              116.7919         estimate D2E/DX2                !
 ! A10   A(5,4,6)              107.4003         estimate D2E/DX2                !
 ! A11   A(5,4,7)              105.9669         estimate D2E/DX2                !
 ! A12   A(6,4,7)              105.4988         estimate D2E/DX2                !
 ! A13   A(4,7,8)              110.4663         estimate D2E/DX2                !
 ! A14   A(4,7,12)             107.6953         estimate D2E/DX2                !
 ! A15   A(4,7,16)             110.999          estimate D2E/DX2                !
 ! A16   A(8,7,12)             108.4969         estimate D2E/DX2                !
 ! A17   A(8,7,16)             109.9377         estimate D2E/DX2                !
 ! A18   A(12,7,16)            109.1743         estimate D2E/DX2                !
 ! A19   A(7,8,9)              106.8154         estimate D2E/DX2                !
 ! A20   A(7,8,10)             108.5667         estimate D2E/DX2                !
 ! A21   A(7,8,11)             109.2028         estimate D2E/DX2                !
 ! A22   A(9,8,10)             111.9899         estimate D2E/DX2                !
 ! A23   A(9,8,11)             110.1197         estimate D2E/DX2                !
 ! A24   A(10,8,11)            110.0486         estimate D2E/DX2                !
 ! A25   A(7,12,13)            108.6327         estimate D2E/DX2                !
 ! A26   A(7,12,14)            107.225          estimate D2E/DX2                !
 ! A27   A(7,12,15)            108.3436         estimate D2E/DX2                !
 ! A28   A(13,12,14)           112.0393         estimate D2E/DX2                !
 ! A29   A(13,12,15)           110.1006         estimate D2E/DX2                !
 ! A30   A(14,12,15)           110.3733         estimate D2E/DX2                !
 ! A31   A(7,16,17)            106.6751         estimate D2E/DX2                !
 ! A32   A(7,16,18)            107.1166         estimate D2E/DX2                !
 ! A33   A(17,16,18)           109.1474         estimate D2E/DX2                !
 ! A34   A(1,19,20)            109.4712         estimate D2E/DX2                !
 ! A35   A(1,19,21)            109.4712         estimate D2E/DX2                !
 ! A36   A(1,19,22)            109.4712         estimate D2E/DX2                !
 ! A37   A(20,19,21)           109.4713         estimate D2E/DX2                !
 ! A38   A(20,19,22)           109.4712         estimate D2E/DX2                !
 ! A39   A(21,19,22)           109.4712         estimate D2E/DX2                !
 ! D1    D(2,1,4,5)            145.4259         estimate D2E/DX2                !
 ! D2    D(2,1,4,6)            -96.051          estimate D2E/DX2                !
 ! D3    D(2,1,4,7)             24.4939         estimate D2E/DX2                !
 ! D4    D(3,1,4,5)            -98.3228         estimate D2E/DX2                !
 ! D5    D(3,1,4,6)             20.2003         estimate D2E/DX2                !
 ! D6    D(3,1,4,7)            140.7452         estimate D2E/DX2                !
 ! D7    D(19,1,4,5)            21.2406         estimate D2E/DX2                !
 ! D8    D(19,1,4,6)           139.7637         estimate D2E/DX2                !
 ! D9    D(19,1,4,7)           -99.6914         estimate D2E/DX2                !
 ! D10   D(2,1,19,20)          -25.3454         estimate D2E/DX2                !
 ! D11   D(2,1,19,21)           94.6547         estimate D2E/DX2                !
 ! D12   D(2,1,19,22)         -145.3453         estimate D2E/DX2                !
 ! D13   D(3,1,19,20)         -140.5717         estimate D2E/DX2                !
 ! D14   D(3,1,19,21)          -20.5717         estimate D2E/DX2                !
 ! D15   D(3,1,19,22)           99.4283         estimate D2E/DX2                !
 ! D16   D(4,1,19,20)           99.6721         estimate D2E/DX2                !
 ! D17   D(4,1,19,21)         -140.3278         estimate D2E/DX2                !
 ! D18   D(4,1,19,22)          -20.3278         estimate D2E/DX2                !
 ! D19   D(1,4,7,8)            -67.4876         estimate D2E/DX2                !
 ! D20   D(1,4,7,12)           174.1843         estimate D2E/DX2                !
 ! D21   D(1,4,7,16)            54.729          estimate D2E/DX2                !
 ! D22   D(5,4,7,8)            169.3767         estimate D2E/DX2                !
 ! D23   D(5,4,7,12)            51.0487         estimate D2E/DX2                !
 ! D24   D(5,4,7,16)           -68.4067         estimate D2E/DX2                !
 ! D25   D(6,4,7,8)             55.6656         estimate D2E/DX2                !
 ! D26   D(6,4,7,12)           -62.6624         estimate D2E/DX2                !
 ! D27   D(6,4,7,16)           177.8823         estimate D2E/DX2                !
 ! D28   D(4,7,8,9)           -178.7032         estimate D2E/DX2                !
 ! D29   D(4,7,8,10)           -57.7622         estimate D2E/DX2                !
 ! D30   D(4,7,8,11)            62.2334         estimate D2E/DX2                !
 ! D31   D(12,7,8,9)           -60.866          estimate D2E/DX2                !
 ! D32   D(12,7,8,10)           60.075          estimate D2E/DX2                !
 ! D33   D(12,7,8,11)         -179.9295         estimate D2E/DX2                !
 ! D34   D(16,7,8,9)            58.4591         estimate D2E/DX2                !
 ! D35   D(16,7,8,10)          179.4            estimate D2E/DX2                !
 ! D36   D(16,7,8,11)          -60.6044         estimate D2E/DX2                !
 ! D37   D(4,7,12,13)           57.9295         estimate D2E/DX2                !
 ! D38   D(4,7,12,14)          179.2032         estimate D2E/DX2                !
 ! D39   D(4,7,12,15)          -61.6669         estimate D2E/DX2                !
 ! D40   D(8,7,12,13)          -61.6577         estimate D2E/DX2                !
 ! D41   D(8,7,12,14)           59.616          estimate D2E/DX2                !
 ! D42   D(8,7,12,15)          178.7458         estimate D2E/DX2                !
 ! D43   D(16,7,12,13)         178.5391         estimate D2E/DX2                !
 ! D44   D(16,7,12,14)         -60.1872         estimate D2E/DX2                !
 ! D45   D(16,7,12,15)          58.9427         estimate D2E/DX2                !
 ! D46   D(4,7,16,17)           54.9833         estimate D2E/DX2                !
 ! D47   D(4,7,16,18)          -61.7932         estimate D2E/DX2                !
 ! D48   D(8,7,16,17)          177.5068         estimate D2E/DX2                !
 ! D49   D(8,7,16,18)           60.7303         estimate D2E/DX2                !
 ! D50   D(12,7,16,17)         -63.583          estimate D2E/DX2                !
 ! D51   D(12,7,16,18)         179.6404         estimate D2E/DX2                !
 --------------------------------------------------------------------------------
 Trust Radius=3.00D-01 FncErr=1.00D-07 GrdErr=1.00D-06 EigMax=2.50D+02 EigMin=1.00D-04
 Number of steps in this run=    121 maximum allowed number of steps=    132.
 GradGradGradGradGradGradGradGradGradGradGradGradGradGradGradGradGradGrad

                          Input orientation:                          
 ---------------------------------------------------------------------
 Center     Atomic      Atomic             Coordinates (Angstroms)
 Number     Number       Type             X           Y           Z
 ---------------------------------------------------------------------
      1          6           0        0.589625   -0.695836    0.356452
      2          1           0        0.224734   -0.374523    1.332741
      3          1           0        1.334903   -1.465026    0.549777
      4          6           0       -0.531321   -1.315867   -0.477565
      5          1           0       -0.390523   -1.079186   -1.532267
      6          1           0       -0.521264   -2.400543   -0.383104
      7          7           0       -1.938114   -0.895862   -0.143011
      8          6           0       -2.328485   -1.405363    1.205507
      9          1           0       -3.354727   -1.090248    1.375729
     10          1           0       -2.229190   -2.488564    1.208571
     11          1           0       -1.674942   -0.969645    1.954734
     12          6           0       -2.848301   -1.503863   -1.161546
     13          1           0       -2.720835   -2.583940   -1.140892
     14          1           0       -3.861773   -1.207938   -0.904855
     15          1           0       -2.576401   -1.114172   -2.139427
     16          6           0       -2.079317    0.611244   -0.186361
     17          1           0       -1.740718    0.928434   -1.170832
     18          1           0       -1.411168    1.016765    0.567961
     19          6           0        1.294440    0.478752   -0.347238
     20          1           0        0.908262    1.403197    0.028485
     21          1           0        2.346385    0.428483   -0.158069
     22          1           0        1.118382    0.420685   -1.401055
 ---------------------------------------------------------------------
                    Distance matrix (angstroms):
                    1          2          3          4          5
     1  C    0.000000
     2  H    1.090655   0.000000
     3  H    1.088332   1.742041   0.000000
     4  C    1.528575   2.175995   2.135526   0.000000
     5  H    2.162153   3.013862   2.731460   1.090064   0.000000
     6  H    2.164957   2.757788   2.278336   1.088827   1.756033
     7  N    2.584364   2.669747   3.393603   1.505789   2.087745
     8  C    3.120847   2.756401   3.722090   2.463847   3.370088
     9  H    4.092970   3.650569   4.776535   3.384853   4.152478
    10  H    3.447564   3.241347   3.766218   2.664777   3.588766
    11  H    2.785272   2.085620   3.358343   2.709948   3.717648
    12  C    3.844030   4.115874   4.519882   2.423133   2.521599
    13  H    4.094645   4.435849   4.534241   2.615719   2.801395
    14  H    4.654899   4.732964   5.402544   3.359484   3.529844
    15  H    4.053163   4.522099   4.759539   2.642880   2.268905
    16  C    3.020986   2.930538   4.063212   2.488945   2.742452
    17  H    3.225112   3.439269   4.260116   2.641997   2.446263
    18  H    2.642142   2.279637   3.701422   2.703410   3.137783
    19  C    1.540000   2.166720   2.141155   2.563405   2.582744
    20  H    2.148263   2.308372   2.946264   3.117979   3.207026
    21  H    2.148263   2.714542   2.260425   3.380241   3.413525
    22  H    2.148263   2.984058   2.721862   2.567093   2.131578
                    6          7          8          9         10
     6  H    0.000000
     7  N    2.080666   0.000000
     8  C    2.603865   1.493480   0.000000
     9  H    3.583138   2.085941   1.086944   0.000000
    10  H    2.336277   2.109076   1.087747   1.802793   0.000000
    11  H    2.973874   2.115475   1.085499   1.780863   1.780748
    12  C    2.612491   1.495166   2.425459   2.620174   2.640150
    13  H    2.333664   2.111404   2.654914   2.994380   2.402246
    14  H    3.585181   2.092429   2.616023   2.339233   2.961739
    15  H    2.993827   2.107307   3.366724   3.600373   3.635739
    16  C    3.396630   1.514326   2.462942   2.638536   3.402514
    17  H    3.631758   2.103196   3.382168   3.628371   4.192378
    18  H    3.657108   2.107437   2.667328   2.978156   3.656073
    19  C    3.404175   3.518619   4.368808   5.200493   4.862250
    20  H    4.084285   3.662914   4.444088   5.119122   5.136342
    21  H    4.034531   4.484534   5.203532   6.096045   5.595781
    22  H    3.418185   3.557828   4.691429   5.477423   5.145884
                   11         12         13         14         15
    11  H    0.000000
    12  C    3.372442   0.000000
    13  H    3.644549   1.087768   0.000000
    14  H    3.607806   1.086548   1.803006   0.000000
    15  H    4.194719   1.087216   1.782737   1.784696   0.000000
    16  C    2.692028   2.452754   3.395861   2.646281   2.653040
    17  H    3.657348   2.672620   3.646682   3.022201   2.410141
    18  H    2.436912   3.377886   4.195292   3.622699   3.637115
    19  C    4.026680   4.664351   5.111986   5.453658   4.553324
    20  H    4.001719   4.896830   5.516797   5.517461   4.814547
    21  H    4.752869   5.632557   5.976400   6.463496   5.526245
    22  H    4.582248   4.415408   4.882115   5.263133   4.068464
                   16         17         18         19         20
    16  C    0.000000
    17  H    1.088321   0.000000
    18  H    1.086218   1.771949   0.000000
    19  C    3.380188   3.176902   2.906434   0.000000
    20  H    3.098221   2.946329   2.412492   1.070000   0.000000
    21  H    4.429564   4.240289   3.872002   1.070000   1.747303
    22  H    3.425941   2.912948   3.260515   1.070000   1.747303
                   21         22
    21  H    0.000000
    22  H    1.747303   0.000000
 Stoichiometry    C6H15N
 Framework group  C1[X(C6H15N)]
 Deg. of freedom    60
 Full point group                 C1      NOp   1
 Largest Abelian subgroup         C1      NOp   1
 Largest concise Abelian subgroup C1      NOp   1
                         Standard orientation:                         
 ---------------------------------------------------------------------
 Center     Atomic      Atomic             Coordinates (Angstroms)
 Number     Number       Type             X           Y           Z
 ---------------------------------------------------------------------
      1          6           0       -1.591783    0.686948   -0.230283
      2          1           0       -1.373144    1.261576    0.670566
      3          1           0       -2.038308    1.386193   -0.934654
      4          6           0       -0.313351    0.129683   -0.856068
      5          1           0       -0.507216   -0.845697   -1.302485
      6          1           0        0.040212    0.786375   -1.649348
      7          7           0        0.864321   -0.061891    0.062510
      8          6           0        1.379821    1.258477    0.533009
      9          1           0        2.237268    1.052896    1.168592
     10          1           0        1.650443    1.854214   -0.335931
     11          1           0        0.604945    1.761869    1.102635
     12          6           0        1.943452   -0.741690   -0.717792
     13          1           0        2.186192   -0.128119   -1.582573
     14          1           0        2.793826   -0.863176   -0.052441
     15          1           0        1.573362   -1.711862   -1.040034
     16          6           0        0.491342   -0.923692    1.250521
     17          1           0        0.082937   -1.849140    0.849031
     18          1           0       -0.287222   -0.397476    1.795318
     19          6           0       -2.638156   -0.397685    0.086380
     20          1           0       -2.591833   -0.645162    1.126336
     21          1           0       -3.615079   -0.030557   -0.149711
     22          1           0       -2.434581   -1.270943   -0.497467
 ---------------------------------------------------------------------
 Rotational constants (GHZ):           4.1715912           1.6426795           1.5883427
 Standard basis: 6-311+G(2d,2p) (5D, 7F)
 There are   338 symmetry adapted cartesian basis functions of A   symmetry.
 There are   324 symmetry adapted basis functions of A   symmetry.
   324 basis functions,   459 primitive gaussians,   338 cartesian basis functions
    29 alpha electrons       29 beta electrons
       nuclear repulsion energy       346.5135119867 Hartrees.
 NAtoms=   22 NActive=   22 NUniq=   22 SFac= 1.00D+00 NAtFMM=   60 NAOKFM=F Big=F
 Integral buffers will be    131072 words long.
 Raffenetti 2 integral format.
 Two-electron integral symmetry is turned on.
 Nuclear repulsion after empirical dispersion term =      346.4975670889 Hartrees.
 One-electron integrals computed using PRISM.
 NBasis=   324 RedAO= T EigKep=  2.29D-05  NBF=   324
 NBsUse=   324 1.00D-06 EigRej= -1.00D+00 NBFU=   324
 ExpMin= 4.38D-02 ExpMax= 6.29D+03 ExpMxC= 9.49D+02 IAcc=3 IRadAn=         5 AccDes= 0.00D+00
 Harris functional with IExCor= 4639 and IRadAn=       5 diagonalized for initial guess.
 HarFok:  IExCor= 4639 AccDes= 0.00D+00 IRadAn=         5 IDoV= 1 UseB2=F ITyADJ=14
 ICtDFT=  3500011 ScaDFX=  1.000000  1.000000  1.000000  1.000000
 FoFCou: FMM=F IPFlag=           0 FMFlag=      100000 FMFlg1=           0
         NFxFlg=           0 DoJE=T BraDBF=F KetDBF=T FulRan=T
         wScrn=  0.000000 ICntrl=       500 IOpCl=  0 I1Cent=   200000004 NGrid=           0
         NMat0=    1 NMatS0=      1 NMatT0=    0 NMatD0=    1 NMtDS0=    0 NMtDT0=    0
 Petite list used in FoFCou.
 Requested convergence on RMS density matrix=1.00D-08 within  32 cycles.
 Requested convergence on MAX density matrix=1.00D-06.
 Requested convergence on             energy=1.00D-06.
 No special actions if energy rises.
 SCF Done:  E(RwB97XD) =  -292.305674556     A.U. after   14 cycles
            NFock= 14  Conv=0.67D-08     -V/T= 2.0045
 QCSCF skips out because SCF is already converged.

 **********************************************************************

            Population analysis using the SCF density.

 **********************************************************************

 Orbital symmetries:
       Occupied  (A) (A) (A) (A) (A) (A) (A) (A) (A) (A) (A) (A)
                 (A) (A) (A) (A) (A) (A) (A) (A) (A) (A) (A) (A)
                 (A) (A) (A) (A) (A)
       Virtual   (A) (A) (A) (A) (A) (A) (A) (A) (A) (A) (A) (A)
                 (A) (A) (A) (A) (A) (A) (A) (A) (A) (A) (A) (A)
                 (A) (A) (A) (A) (A) (A) (A) (A) (A) (A) (A) (A)
                 (A) (A) (A) (A) (A) (A) (A) (A) (A) (A) (A) (A)
                 (A) (A) (A) (A) (A) (A) (A) (A) (A) (A) (A) (A)
                 (A) (A) (A) (A) (A) (A) (A) (A) (A) (A) (A) (A)
                 (A) (A) (A) (A) (A) (A) (A) (A) (A) (A) (A) (A)
                 (A) (A) (A) (A) (A) (A) (A) (A) (A) (A) (A) (A)
                 (A) (A) (A) (A) (A) (A) (A) (A) (A) (A) (A) (A)
                 (A) (A) (A) (A) (A) (A) (A) (A) (A) (A) (A) (A)
                 (A) (A) (A) (A) (A) (A) (A) (A) (A) (A) (A) (A)
                 (A) (A) (A) (A) (A) (A) (A) (A) (A) (A) (A) (A)
                 (A) (A) (A) (A) (A) (A) (A) (A) (A) (A) (A) (A)
                 (A) (A) (A) (A) (A) (A) (A) (A) (A) (A) (A) (A)
                 (A) (A) (A) (A) (A) (A) (A) (A) (A) (A) (A) (A)
                 (A) (A) (A) (A) (A) (A) (A) (A) (A) (A) (A) (A)
                 (A) (A) (A) (A) (A) (A) (A) (A) (A) (A) (A) (A)
                 (A) (A) (A) (A) (A) (A) (A) (A) (A) (A) (A) (A)
                 (A) (A) (A) (A) (A) (A) (A) (A) (A) (A) (A) (A)
                 (A) (A) (A) (A) (A) (A) (A) (A) (A) (A) (A) (A)
                 (A) (A) (A) (A) (A) (A) (A) (A) (A) (A) (A) (A)
                 (A) (A) (A) (A) (A) (A) (A) (A) (A) (A) (A) (A)
                 (A) (A) (A) (A) (A) (A) (A) (A) (A) (A) (A) (A)
                 (A) (A) (A) (A) (A) (A) (A) (A) (A) (A) (A) (A)
                 (A) (A) (A) (A) (A) (A) (A)
 The electronic state is 1-A.
 Alpha  occ. eigenvalues --  -14.53253 -10.32748 -10.32340 -10.32300 -10.29106
 Alpha  occ. eigenvalues --  -10.26342 -10.20605  -1.09104  -0.89749  -0.83751
 Alpha  occ. eigenvalues --   -0.81117  -0.78037  -0.71488  -0.67104  -0.60589
 Alpha  occ. eigenvalues --   -0.57972  -0.56584  -0.54411  -0.52475  -0.51668
 Alpha  occ. eigenvalues --   -0.49235  -0.48156  -0.47846  -0.45065  -0.43631
 Alpha  occ. eigenvalues --   -0.43227  -0.42315  -0.40536  -0.20728
 Alpha virt. eigenvalues --    0.05215   0.06913   0.07323   0.07873   0.09339
 Alpha virt. eigenvalues --    0.09701   0.10349   0.10703   0.10752   0.12072
 Alpha virt. eigenvalues --    0.13244   0.13614   0.14192   0.14664   0.15708
 Alpha virt. eigenvalues --    0.16074   0.16591   0.17003   0.18251   0.19498
 Alpha virt. eigenvalues --    0.19691   0.20421   0.21338   0.21999   0.22554
 Alpha virt. eigenvalues --    0.23208   0.23882   0.24277   0.25077   0.25937
 Alpha virt. eigenvalues --    0.26949   0.27588   0.28561   0.28801   0.29581
 Alpha virt. eigenvalues --    0.30423   0.30838   0.31557   0.33102   0.33646
 Alpha virt. eigenvalues --    0.34298   0.35465   0.35628   0.36785   0.37358
 Alpha virt. eigenvalues --    0.39132   0.39888   0.42867   0.44307   0.45281
 Alpha virt. eigenvalues --    0.47535   0.48133   0.49268   0.49980   0.51586
 Alpha virt. eigenvalues --    0.52521   0.53656   0.55038   0.56282   0.56778
 Alpha virt. eigenvalues --    0.57708   0.59154   0.59391   0.59949   0.61695
 Alpha virt. eigenvalues --    0.62264   0.62439   0.63323   0.63644   0.63985
 Alpha virt. eigenvalues --    0.64666   0.65606   0.67500   0.68117   0.68930
 Alpha virt. eigenvalues --    0.70135   0.71944   0.73847   0.74814   0.75205
 Alpha virt. eigenvalues --    0.75502   0.76282   0.77083   0.77500   0.78229
 Alpha virt. eigenvalues --    0.78497   0.79728   0.84281   0.85916   0.86755
 Alpha virt. eigenvalues --    0.87466   0.91543   0.92180   0.94505   0.96193
 Alpha virt. eigenvalues --    0.97596   1.00234   1.01461   1.01652   1.03089
 Alpha virt. eigenvalues --    1.05049   1.07117   1.07754   1.09187   1.10586
 Alpha virt. eigenvalues --    1.11376   1.15574   1.17202   1.17469   1.18377
 Alpha virt. eigenvalues --    1.19374   1.20604   1.21473   1.22558   1.23707
 Alpha virt. eigenvalues --    1.24690   1.26362   1.26469   1.27683   1.28595
 Alpha virt. eigenvalues --    1.30715   1.31821   1.33418   1.34340   1.34929
 Alpha virt. eigenvalues --    1.35997   1.36990   1.37923   1.38510   1.40053
 Alpha virt. eigenvalues --    1.41474   1.41531   1.42297   1.44134   1.44783
 Alpha virt. eigenvalues --    1.45886   1.47133   1.48474   1.49218   1.49929
 Alpha virt. eigenvalues --    1.50577   1.52470   1.53889   1.54815   1.55885
 Alpha virt. eigenvalues --    1.57089   1.58184   1.58623   1.58827   1.60860
 Alpha virt. eigenvalues --    1.62276   1.63229   1.64490   1.66847   1.68646
 Alpha virt. eigenvalues --    1.69011   1.69281   1.71497   1.71890   1.72732
 Alpha virt. eigenvalues --    1.73796   1.76722   1.78276   1.80730   1.83039
 Alpha virt. eigenvalues --    1.86622   1.89857   1.91450   1.96524   2.07230
 Alpha virt. eigenvalues --    2.09281   2.10485   2.70453   2.77050   2.78248
 Alpha virt. eigenvalues --    2.83285   2.86940   2.88787   2.92178   2.93647
 Alpha virt. eigenvalues --    2.98683   3.02014   3.07302   3.10077   3.14212
 Alpha virt. eigenvalues --    3.15219   3.17406   3.21445   3.24333   3.25761
 Alpha virt. eigenvalues --    3.27609   3.28844   3.30797   3.33896   3.35013
 Alpha virt. eigenvalues --    3.37829   3.40174   3.42215   3.43690   3.45424
 Alpha virt. eigenvalues --    3.45847   3.46622   3.47224   3.49947   3.53843
 Alpha virt. eigenvalues --    3.54181   3.55630   3.57080   3.58806   3.61843
 Alpha virt. eigenvalues --    3.62297   3.64554   3.65454   3.66910   3.67123
 Alpha virt. eigenvalues --    3.70404   3.72173   3.73161   3.74056   3.75153
 Alpha virt. eigenvalues --    3.75850   3.79036   3.81027   3.82283   3.83033
 Alpha virt. eigenvalues --    3.84472   3.85371   3.88309   3.91700   3.91813
 Alpha virt. eigenvalues --    3.92483   3.94895   3.97399   3.98068   3.99673
 Alpha virt. eigenvalues --    4.02902   4.03766   4.08937   4.09755   4.11188
 Alpha virt. eigenvalues --    4.13648   4.15292   4.15613   4.16865   4.17700
 Alpha virt. eigenvalues --    4.20276   4.20527   4.21811   4.24729   4.26463
 Alpha virt. eigenvalues --    4.28988   4.29439   4.29765   4.31357   4.33300
 Alpha virt. eigenvalues --    4.33930   4.34801   4.38690   4.39426   4.40105
 Alpha virt. eigenvalues --    4.41343   4.42150   4.43781   4.45398   4.48568
 Alpha virt. eigenvalues --    4.50426   4.53497   4.55551   4.69384   4.84167
 Alpha virt. eigenvalues --    4.96243   5.02660   5.03620   5.06339   5.12991
 Alpha virt. eigenvalues --    5.13567   5.13986   5.17263   5.17659   5.21561
 Alpha virt. eigenvalues --    5.24176   5.32355   5.36464   5.44821   5.50476
 Alpha virt. eigenvalues --    5.67248   5.76048   5.86147  24.01709  24.05456
 Alpha virt. eigenvalues --   24.15652  24.17853  24.20000  24.22584  35.59057
          Condensed to atoms (all electrons):
               1          2          3          4          5          6
     1  C    5.385726   0.436719   0.458356   0.161109   0.007432  -0.070542
     2  H    0.436719   0.538820  -0.028896  -0.015312   0.003031   0.001449
     3  H    0.458356  -0.028896   0.539770  -0.044802   0.001521  -0.010249
     4  C    0.161109  -0.015312  -0.044802   5.161746   0.453532   0.448382
     5  H    0.007432   0.003031   0.001521   0.453532   0.531919  -0.029782
     6  H   -0.070542   0.001449  -0.010249   0.448382  -0.029782   0.524586
     7  N   -0.144792   0.001647   0.004587   0.072459  -0.070471  -0.007398
     8  C   -0.053861  -0.005570  -0.000751  -0.036306  -0.007206  -0.000577
     9  H    0.000512  -0.000054  -0.000021   0.010327  -0.000250  -0.000193
    10  H    0.006504   0.000077   0.000270  -0.013786   0.001075   0.002681
    11  H   -0.019002   0.004105   0.000159   0.005546  -0.000877  -0.000404
    12  C   -0.045867   0.001865   0.000861  -0.104951   0.005541  -0.002183
    13  H    0.002443   0.000070  -0.000040   0.001066  -0.000178   0.001946
    14  H    0.003323  -0.000041   0.000010   0.008104  -0.000121  -0.000163
    15  H   -0.005239  -0.000048   0.000011  -0.010664   0.002507  -0.000893
    16  C   -0.010348  -0.007723   0.001914   0.030087  -0.016091   0.000828
    17  H   -0.043526   0.000458  -0.000185   0.021711  -0.005885  -0.000125
    18  H    0.037965  -0.005360   0.000441  -0.039428  -0.001046  -0.000218
    19  C    0.111317  -0.035885  -0.027249   0.007854  -0.018537   0.012485
    20  H    0.013406  -0.012532   0.004683  -0.017947   0.000842  -0.000300
    21  H   -0.041523   0.001707  -0.013567   0.017446  -0.000494  -0.000001
    22  H   -0.072602   0.004693   0.001940  -0.003569   0.005620   0.000384
               7          8          9         10         11         12
     1  C   -0.144792  -0.053861   0.000512   0.006504  -0.019002  -0.045867
     2  H    0.001647  -0.005570  -0.000054   0.000077   0.004105   0.001865
     3  H    0.004587  -0.000751  -0.000021   0.000270   0.000159   0.000861
     4  C    0.072459  -0.036306   0.010327  -0.013786   0.005546  -0.104951
     5  H   -0.070471  -0.007206  -0.000250   0.001075  -0.000877   0.005541
     6  H   -0.007398  -0.000577  -0.000193   0.002681  -0.000404  -0.002183
     7  N    6.947991   0.234948  -0.035074  -0.022864  -0.027056   0.277657
     8  C    0.234948   4.906991   0.428545   0.423634   0.424724  -0.028119
     9  H   -0.035074   0.428545   0.489643  -0.025072  -0.014467  -0.007962
    10  H   -0.022864   0.423634  -0.025072   0.538777  -0.030069  -0.014617
    11  H   -0.027056   0.424724  -0.014467  -0.030069   0.526168   0.010965
    12  C    0.277657  -0.028119  -0.007962  -0.014617   0.010965   4.922258
    13  H   -0.022526  -0.014154  -0.001227   0.006559  -0.000469   0.403700
    14  H   -0.034104  -0.003162   0.003577  -0.001109  -0.000018   0.424177
    15  H   -0.025764   0.004815  -0.000038  -0.000038  -0.000260   0.437422
    16  C    0.105352  -0.112435  -0.005350   0.006622  -0.017112  -0.151572
    17  H    0.013244   0.017009   0.000530  -0.000469   0.000386  -0.021113
    18  H    0.001110  -0.021297  -0.000910  -0.000053   0.004230   0.019120
    19  C    0.025999   0.013779  -0.000307  -0.000208   0.000583  -0.000166
    20  H   -0.006813   0.000509  -0.000014   0.000020  -0.000101  -0.000855
    21  H    0.001858  -0.000382   0.000000  -0.000007   0.000075   0.000136
    22  H   -0.000130  -0.000874   0.000000   0.000016  -0.000053   0.000978
              13         14         15         16         17         18
     1  C    0.002443   0.003323  -0.005239  -0.010348  -0.043526   0.037965
     2  H    0.000070  -0.000041  -0.000048  -0.007723   0.000458  -0.005360
     3  H   -0.000040   0.000010   0.000011   0.001914  -0.000185   0.000441
     4  C    0.001066   0.008104  -0.010664   0.030087   0.021711  -0.039428
     5  H   -0.000178  -0.000121   0.002507  -0.016091  -0.005885  -0.001046
     6  H    0.001946  -0.000163  -0.000893   0.000828  -0.000125  -0.000218
     7  N   -0.022526  -0.034104  -0.025764   0.105352   0.013244   0.001110
     8  C   -0.014154  -0.003162   0.004815  -0.112435   0.017009  -0.021297
     9  H   -0.001227   0.003577  -0.000038  -0.005350   0.000530  -0.000910
    10  H    0.006559  -0.001109  -0.000038   0.006622  -0.000469  -0.000053
    11  H   -0.000469  -0.000018  -0.000260  -0.017112   0.000386   0.004230
    12  C    0.403700   0.424177   0.437422  -0.151572  -0.021113   0.019120
    13  H    0.551895  -0.025391  -0.031543   0.012199  -0.000324  -0.000449
    14  H   -0.025391   0.492057  -0.013066  -0.008050  -0.000370   0.000414
    15  H   -0.031543  -0.013066   0.515963  -0.014930   0.001514   0.000387
    16  C    0.012199  -0.008050  -0.014930   6.004503   0.407015   0.404414
    17  H   -0.000324  -0.000370   0.001514   0.407015   0.558317  -0.046296
    18  H   -0.000449   0.000414   0.000387   0.404414  -0.046296   0.582867
    19  C    0.000202  -0.000417  -0.000243  -0.009447   0.011781  -0.014494
    20  H    0.000002  -0.000003   0.000021  -0.007702  -0.001365   0.001966
    21  H   -0.000003  -0.000000   0.000005   0.004960   0.000051   0.000277
    22  H    0.000022   0.000008  -0.000164  -0.005009  -0.000786  -0.000484
              19         20         21         22
     1  C    0.111317   0.013406  -0.041523  -0.072602
     2  H   -0.035885  -0.012532   0.001707   0.004693
     3  H   -0.027249   0.004683  -0.013567   0.001940
     4  C    0.007854  -0.017947   0.017446  -0.003569
     5  H   -0.018537   0.000842  -0.000494   0.005620
     6  H    0.012485  -0.000300  -0.000001   0.000384
     7  N    0.025999  -0.006813   0.001858  -0.000130
     8  C    0.013779   0.000509  -0.000382  -0.000874
     9  H   -0.000307  -0.000014   0.000000   0.000000
    10  H   -0.000208   0.000020  -0.000007   0.000016
    11  H    0.000583  -0.000101   0.000075  -0.000053
    12  C   -0.000166  -0.000855   0.000136   0.000978
    13  H    0.000202   0.000002  -0.000003   0.000022
    14  H   -0.000417  -0.000003  -0.000000   0.000008
    15  H   -0.000243   0.000021   0.000005  -0.000164
    16  C   -0.009447  -0.007702   0.004960  -0.005009
    17  H    0.011781  -0.001365   0.000051  -0.000786
    18  H   -0.014494   0.001966   0.000277  -0.000484
    19  C    5.032216   0.417815   0.423372   0.452307
    20  H    0.417815   0.523926  -0.024498  -0.025236
    21  H    0.423372  -0.024498   0.552266  -0.028464
    22  H    0.452307  -0.025236  -0.028464   0.565069
 Mulliken charges:
               1
     1  C   -0.117511
     2  H    0.116780
     3  H    0.111237
     4  C   -0.112603
     5  H    0.137920
     6  H    0.130288
     7  N   -0.289859
     8  C   -0.170259
     9  H    0.157803
    10  H    0.122054
    11  H    0.132947
    12  C   -0.127274
    13  H    0.116198
    14  H    0.154347
    15  H    0.140246
    16  C   -0.612126
    17  H    0.088430
    18  H    0.076844
    19  C   -0.402759
    20  H    0.134175
    21  H    0.106787
    22  H    0.106335
 Sum of Mulliken charges =  -0.00000
 Mulliken charges with hydrogens summed into heavy atoms:
               1
     1  C    0.110506
     4  C    0.155605
     7  N   -0.289859
     8  C    0.242545
    12  C    0.283517
    16  C   -0.446851
    19  C   -0.055462
 Electronic spatial extent (au):  <R**2>=            944.9784
 Charge=             -0.0000 electrons
 Dipole moment (field-independent basis, Debye):
    X=             -0.3222    Y=              2.8952    Z=             -4.3364  Tot=              5.2240
 Quadrupole moment (field-independent basis, Debye-Ang):
   XX=            -45.7360   YY=            -48.6106   ZZ=            -54.2985
   XY=              2.6681   XZ=             -5.2338   YZ=              6.1871
 Traceless Quadrupole moment (field-independent basis, Debye-Ang):
   XX=              3.8124   YY=              0.9378   ZZ=             -4.7501
   XY=              2.6681   XZ=             -5.2338   YZ=              6.1871
 Octapole moment (field-independent basis, Debye-Ang**2):
  XXX=              5.8299  YYY=              8.6341  ZZZ=            -22.6257  XYY=             -1.3697
  XXY=              6.9608  XXZ=             -8.9730  XZZ=             -9.5616  YZZ=             11.6602
  YYZ=             -8.9837  XYZ=              7.4295
 Hexadecapole moment (field-independent basis, Debye-Ang**3):
 XXXX=           -786.7004 YYYY=           -273.7300 ZZZZ=           -287.0335 XXXY=             -1.2261
 XXXZ=             -9.3947 YYYX=             10.3360 YYYZ=             21.3275 ZZZX=            -32.5285
 ZZZY=             25.6388 XXYY=           -182.7288 XXZZ=           -185.2843 YYZZ=            -93.3454
 XXYZ=             12.1042 YYXZ=            -10.7924 ZZXY=             14.8396
 N-N= 3.464975670889D+02 E-N=-1.369535990139D+03  KE= 2.910041855376D+02
 Calling FoFJK, ICntrl=      2127 FMM=F ISym2X=0 I1Cent= 0 IOpClX= 0 NMat=1 NMatS=1 NMatT=0.
 ***** Axes restored to original set *****
 -------------------------------------------------------------------
 Center     Atomic                   Forces (Hartrees/Bohr)
 Number     Number              X              Y              Z
 -------------------------------------------------------------------
      1        6           0.001113789    0.003286451   -0.004262716
      2        1           0.000038652   -0.001547244   -0.001095458
      3        1          -0.001868591   -0.004008977   -0.000046934
      4        6          -0.003029219   -0.014398533    0.003131513
      5        1          -0.001179666    0.000300476    0.001796101
      6        1           0.004099862   -0.005116593   -0.000434427
      7        7           0.010684198    0.011066179   -0.003282342
      8        6           0.001033955    0.003897402   -0.010931801
      9        1           0.001805331   -0.000024093    0.001347281
     10        1          -0.000958470   -0.001775743    0.001638932
     11        1          -0.001561680    0.000796280   -0.000253959
     12        6           0.005940499    0.004882930    0.009121898
     13        1          -0.001594990   -0.002136477   -0.001015347
     14        1           0.000914577   -0.000004343   -0.001745220
     15        1          -0.001381320    0.000826783    0.001065464
     16        6          -0.021688772    0.001384307    0.004631711
     17        1           0.003200521   -0.001662178   -0.003318942
     18        1           0.002884098   -0.000939622    0.002266128
     19        6          -0.009682580   -0.012701385    0.013781723
     20        1          -0.003050633    0.012476275   -0.000484991
     21        1           0.013511942    0.002489549    0.000986262
     22        1           0.000768495    0.002908556   -0.012894878
 -------------------------------------------------------------------
 Cartesian Forces:  Max     0.021688772 RMS     0.006019138

 GradGradGradGradGradGradGradGradGradGradGradGradGradGradGradGradGradGrad
 Berny optimization.
 FormGI is forming the generalized inverse of G from B-inverse, IUseBI=4.
 Internal  Forces:  Max     0.013341474 RMS     0.003633729
 Search for a local minimum.
 Step number   1 out of a maximum of  121
 All quantities printed in internal units (Hartrees-Bohrs-Radians)
 Mixed Optimization -- RFO/linear search
 Second derivative matrix not updated -- first step.
 ITU=  0
     Eigenvalues ---    0.00230   0.00237   0.00292   0.00388   0.00433
     Eigenvalues ---    0.00455   0.03195   0.03387   0.04453   0.04716
     Eigenvalues ---    0.04800   0.04846   0.05213   0.05482   0.05720
     Eigenvalues ---    0.05720   0.06004   0.06042   0.06164   0.06182
     Eigenvalues ---    0.08433   0.08982   0.12298   0.12636   0.14876
     Eigenvalues ---    0.15142   0.16000   0.16000   0.16000   0.16000
     Eigenvalues ---    0.16000   0.16000   0.16000   0.16000   0.16000
     Eigenvalues ---    0.16000   0.16000   0.21908   0.22026   0.28519
     Eigenvalues ---    0.29555   0.30920   0.31778   0.32890   0.33071
     Eigenvalues ---    0.34737   0.34805   0.34949   0.35006   0.35007
     Eigenvalues ---    0.35072   0.35074   0.35136   0.35168   0.35215
     Eigenvalues ---    0.35253   0.35338   0.37230   0.37230   0.37230
 RFO step:  Lambda=-9.00126250D-03 EMin= 2.30000000D-03
 Linear search not attempted -- first point.
 Iteration  1 RMS(Cart)=  0.04660893 RMS(Int)=  0.00126026
 Iteration  2 RMS(Cart)=  0.00155378 RMS(Int)=  0.00038379
 Iteration  3 RMS(Cart)=  0.00000191 RMS(Int)=  0.00038379
 Iteration  4 RMS(Cart)=  0.00000000 RMS(Int)=  0.00038379
 Variable       Old X    -DE/DX   Delta X   Delta X   Delta X     New X
                                 (Linear)    (Quad)   (Total)
    R1        2.06104  -0.00145   0.00000  -0.00407  -0.00407   2.05697
    R2        2.05665   0.00155   0.00000   0.00430   0.00430   2.06095
    R3        2.88859  -0.00040   0.00000  -0.00132  -0.00132   2.88726
    R4        2.91018   0.00402   0.00000   0.01366   0.01366   2.92384
    R5        2.05992  -0.00183   0.00000  -0.00511  -0.00511   2.05481
    R6        2.05758   0.00510   0.00000   0.01422   0.01422   2.07180
    R7        2.84553   0.00512   0.00000   0.01566   0.01566   2.86119
    R8        2.82227  -0.00847   0.00000  -0.02495  -0.02495   2.79732
    R9        2.82545  -0.00887   0.00000  -0.02625  -0.02625   2.79920
   R10        2.86166   0.00014   0.00000   0.00044   0.00044   2.86210
   R11        2.05403  -0.00150   0.00000  -0.00416  -0.00416   2.04987
   R12        2.05554   0.00169   0.00000   0.00468   0.00468   2.06023
   R13        2.05130  -0.00080   0.00000  -0.00220  -0.00220   2.04910
   R14        2.05558   0.00192   0.00000   0.00532   0.00532   2.06091
   R15        2.05328  -0.00127   0.00000  -0.00351  -0.00351   2.04977
   R16        2.05454  -0.00101   0.00000  -0.00279  -0.00279   2.05175
   R17        2.05663   0.00351   0.00000   0.00979   0.00979   2.06641
   R18        2.05265   0.00300   0.00000   0.00829   0.00829   2.06094
   R19        2.02201   0.01171   0.00000   0.03071   0.03071   2.05272
   R20        2.02201   0.01334   0.00000   0.03499   0.03499   2.05700
   R21        2.02201   0.01242   0.00000   0.03256   0.03256   2.05457
    A1        1.85283   0.00108   0.00000  -0.00613  -0.00660   1.84623
    A2        1.94181  -0.00333   0.00000  -0.02685  -0.02697   1.91484
    A3        1.91500  -0.00232   0.00000  -0.00895  -0.00854   1.90646
    A4        1.88853  -0.00424   0.00000  -0.02273  -0.02369   1.86484
    A5        1.88265   0.00083   0.00000   0.02664   0.02675   1.90939
    A6        1.97761   0.00767   0.00000   0.03682   0.03677   2.01438
    A7        1.92317   0.00168   0.00000  -0.00299  -0.00335   1.91982
    A8        1.92834  -0.00169   0.00000  -0.00750  -0.00752   1.92082
    A9        2.03840  -0.00315   0.00000  -0.01346  -0.01362   2.02478
   A10        1.87449  -0.00056   0.00000  -0.00166  -0.00152   1.87297
   A11        1.84947  -0.00086   0.00000  -0.01758  -0.01775   1.83172
   A12        1.84130   0.00484   0.00000   0.04503   0.04514   1.88644
   A13        1.92800  -0.00248   0.00000  -0.00776  -0.00792   1.92008
   A14        1.87964  -0.00257   0.00000  -0.01101  -0.01078   1.86886
   A15        1.93730   0.00985   0.00000   0.09994   0.10047   2.03777
   A16        1.89363   0.00290   0.00000  -0.01800  -0.01908   1.87455
   A17        1.91878  -0.00399   0.00000  -0.03128  -0.03283   1.88595
   A18        1.90545  -0.00384   0.00000  -0.03441  -0.03556   1.86989
   A19        1.86428   0.00114   0.00000   0.00442   0.00434   1.86863
   A20        1.89485   0.00299   0.00000   0.02160   0.02151   1.91636
   A21        1.90595  -0.00056   0.00000  -0.00483  -0.00486   1.90109
   A22        1.95459  -0.00142   0.00000  -0.00502  -0.00516   1.94944
   A23        1.92195  -0.00151   0.00000  -0.01726  -0.01728   1.90467
   A24        1.92071  -0.00051   0.00000   0.00171   0.00167   1.92238
   A25        1.89600   0.00326   0.00000   0.02334   0.02326   1.91925
   A26        1.87143   0.00082   0.00000   0.00238   0.00230   1.87373
   A27        1.89095  -0.00065   0.00000  -0.00532  -0.00536   1.88559
   A28        1.95545  -0.00144   0.00000  -0.00523  -0.00535   1.95010
   A29        1.92162  -0.00047   0.00000   0.00247   0.00242   1.92404
   A30        1.92638  -0.00138   0.00000  -0.01696  -0.01700   1.90938
   A31        1.86183  -0.00538   0.00000  -0.04043  -0.04103   1.82080
   A32        1.86954  -0.00385   0.00000  -0.03131  -0.03190   1.83764
   A33        1.90498   0.00180   0.00000  -0.00937  -0.01098   1.89400
   A34        1.91063   0.00509   0.00000   0.03052   0.03015   1.94078
   A35        1.91063   0.00306   0.00000   0.01956   0.01922   1.92985
   A36        1.91063   0.00466   0.00000   0.02572   0.02544   1.93608
   A37        1.91063  -0.00358   0.00000  -0.01750  -0.01792   1.89272
   A38        1.91063  -0.00527   0.00000  -0.03409  -0.03439   1.87624
   A39        1.91063  -0.00396   0.00000  -0.02421  -0.02443   1.88620
    D1        2.53816   0.00082   0.00000   0.01767   0.01739   2.55555
    D2       -1.67641   0.00012   0.00000   0.00909   0.00884  -1.66757
    D3        0.42750   0.00293   0.00000   0.05344   0.05313   0.48063
    D4       -1.71606  -0.00226   0.00000  -0.01829  -0.01794  -1.73399
    D5        0.35256  -0.00296   0.00000  -0.02686  -0.02649   0.32607
    D6        2.45647  -0.00016   0.00000   0.01749   0.01780   2.47427
    D7        0.37072   0.00067   0.00000   0.02256   0.02250   0.39322
    D8        2.43934  -0.00003   0.00000   0.01398   0.01394   2.45328
    D9       -1.73994   0.00277   0.00000   0.05833   0.05823  -1.68171
   D10       -0.44236  -0.00074   0.00000  -0.06300  -0.06310  -0.50546
   D11        1.65204  -0.00013   0.00000  -0.05377  -0.05379   1.59825
   D12       -2.53675  -0.00026   0.00000  -0.05569  -0.05578  -2.59254
   D13       -2.45344  -0.00126   0.00000  -0.06564  -0.06536  -2.51880
   D14       -0.35904  -0.00065   0.00000  -0.05641  -0.05605  -0.41510
   D15        1.73535  -0.00078   0.00000  -0.05833  -0.05804   1.67731
   D16        1.73961  -0.00125   0.00000  -0.07807  -0.07834   1.66127
   D17       -2.44918  -0.00064   0.00000  -0.06884  -0.06903  -2.51821
   D18       -0.35479  -0.00077   0.00000  -0.07076  -0.07102  -0.42581
   D19       -1.17788   0.00025   0.00000  -0.02613  -0.02647  -1.20436
   D20        3.04009  -0.00032   0.00000   0.00653   0.00688   3.04697
   D21        0.95520   0.00020   0.00000  -0.00294  -0.00274   0.95247
   D22        2.95618   0.00086   0.00000   0.00069   0.00014   2.95632
   D23        0.89097   0.00029   0.00000   0.03335   0.03350   0.92446
   D24       -1.19392   0.00081   0.00000   0.02387   0.02388  -1.17004
   D25        0.97155  -0.00024   0.00000  -0.00946  -0.00982   0.96173
   D26       -1.09367  -0.00082   0.00000   0.02320   0.02354  -1.07013
   D27        3.10463  -0.00029   0.00000   0.01372   0.01392   3.11855
   D28       -3.11896   0.00290   0.00000   0.03078   0.03047  -3.08849
   D29       -1.00814   0.00351   0.00000   0.03929   0.03903  -0.96911
   D30        1.08618   0.00435   0.00000   0.05140   0.05112   1.13730
   D31       -1.06231   0.00010   0.00000   0.00220   0.00211  -1.06020
   D32        1.04851   0.00071   0.00000   0.01071   0.01068   1.05918
   D33       -3.14036   0.00155   0.00000   0.02281   0.02277  -3.11760
   D34        1.02030  -0.00515   0.00000  -0.06887  -0.06856   0.95174
   D35        3.13112  -0.00454   0.00000  -0.06036  -0.05999   3.07113
   D36       -1.05775  -0.00370   0.00000  -0.04825  -0.04790  -1.10565
   D37        1.01106  -0.00353   0.00000  -0.03747  -0.03736   0.97370
   D38        3.12769  -0.00293   0.00000  -0.02911  -0.02895   3.09873
   D39       -1.07629  -0.00446   0.00000  -0.05074  -0.05062  -1.12691
   D40       -1.07613  -0.00073   0.00000  -0.01197  -0.01194  -1.08807
   D41        1.04050  -0.00013   0.00000  -0.00361  -0.00353   1.03696
   D42        3.11970  -0.00166   0.00000  -0.02524  -0.02520   3.09451
   D43        3.11610   0.00462   0.00000   0.05664   0.05644  -3.11065
   D44       -1.05046   0.00522   0.00000   0.06500   0.06485  -0.98562
   D45        1.02874   0.00369   0.00000   0.04337   0.04318   1.07192
   D46        0.95964  -0.00173   0.00000  -0.05916  -0.05881   0.90083
   D47       -1.07850   0.00075   0.00000  -0.01290  -0.01352  -1.09201
   D48        3.09808  -0.00096   0.00000  -0.02300  -0.02302   3.07506
   D49        1.05994   0.00152   0.00000   0.02326   0.02227   1.08222
   D50       -1.10973  -0.00213   0.00000  -0.08452  -0.08339  -1.19312
   D51        3.13532   0.00035   0.00000  -0.03826  -0.03810   3.09722
         Item               Value     Threshold  Converged?
 Maximum Force            0.013341     0.000450     NO 
 RMS     Force            0.003634     0.000300     NO 
 Maximum Displacement     0.197653     0.001800     NO 
 RMS     Displacement     0.046511     0.001200     NO 
 Predicted change in Energy=-5.010603D-03
 GradGradGradGradGradGradGradGradGradGradGradGradGradGradGradGradGradGrad

                          Input orientation:                          
 ---------------------------------------------------------------------
 Center     Atomic      Atomic             Coordinates (Angstroms)
 Number     Number       Type             X           Y           Z
 ---------------------------------------------------------------------
      1          6           0        0.606750   -0.729689    0.330191
      2          1           0        0.232402   -0.435654    1.309092
      3          1           0        1.333577   -1.521266    0.516088
      4          6           0       -0.523967   -1.350164   -0.488886
      5          1           0       -0.394741   -1.111382   -1.541802
      6          1           0       -0.499475   -2.442353   -0.396628
      7          7           0       -1.923350   -0.881195   -0.150917
      8          6           0       -2.314891   -1.378383    1.187262
      9          1           0       -3.338707   -1.062746    1.357087
     10          1           0       -2.216850   -2.463661    1.221224
     11          1           0       -1.673943   -0.922000    1.933377
     12          6           0       -2.839211   -1.498140   -1.138210
     13          1           0       -2.722316   -2.582393   -1.127808
     14          1           0       -3.848166   -1.200396   -0.873801
     15          1           0       -2.591920   -1.103095   -2.118828
     16          6           0       -2.169083    0.612862   -0.187014
     17          1           0       -1.797476    0.924558   -1.167063
     18          1           0       -1.515762    1.030373    0.579976
     19          6           0        1.317920    0.477048   -0.327031
     20          1           0        0.893921    1.416823    0.015005
     21          1           0        2.379995    0.471387   -0.088641
     22          1           0        1.214945    0.446449   -1.408941
 ---------------------------------------------------------------------
                    Distance matrix (angstroms):
                    1          2          3          4          5
     1  C    0.000000
     2  H    1.088503   0.000000
     3  H    1.090610   1.737813   0.000000
     4  C    1.527874   2.154332   2.118895   0.000000
     5  H    2.157089   2.996250   2.718455   1.087359   0.000000
     6  H    2.164536   2.733490   2.245335   1.096351   1.758941
     7  N    2.579889   2.641477   3.385581   1.514077   2.079469
     8  C    3.113095   2.718875   3.712439   2.453095   3.347544
     9  H    4.090486   3.626068   4.769460   3.378311   4.131931
    10  H    3.431226   3.181095   3.740435   2.651452   3.575339
    11  H    2.794414   2.064077   3.378313   2.715350   3.707976
    12  C    3.823789   4.068534   4.488807   2.409122   2.507568
    13  H    4.079333   4.390595   4.503182   2.599874   2.784397
    14  H    4.638690   4.690510   5.374496   3.349760   3.518564
    15  H    4.045814   4.491426   4.746280   2.644652   2.271700
    16  C    3.126530   3.017424   4.161428   2.578954   2.820773
    17  H    3.280031   3.478781   4.314921   2.693716   2.500629
    18  H    2.768622   2.395187   3.825399   2.791609   3.216481
    19  C    1.547229   2.165242   2.168952   2.599509   2.632866
    20  H    2.188452   2.354557   3.012764   3.149687   3.236683
    21  H    2.182293   2.718187   2.330527   3.451267   3.509415
    22  H    2.185814   3.021788   2.755306   2.664233   2.244010
                    6          7          8          9         10
     6  H    0.000000
     7  N    2.127207   0.000000
     8  C    2.633719   1.480278   0.000000
     9  H    3.611104   2.076119   1.084743   0.000000
    10  H    2.359508   2.114973   1.090226   1.799884   0.000000
    11  H    3.019895   2.099559   1.084337   1.767302   1.782870
    12  C    2.629799   1.481273   2.386854   2.581777   2.624212
    13  H    2.344197   2.118192   2.641057   2.977241   2.405731
    14  H    3.603316   2.080713   2.574993   2.292456   2.940435
    15  H    3.022897   2.090191   3.329078   3.555461   3.625984
    16  C    3.487960   1.514561   2.423830   2.561237   3.383845
    17  H    3.689778   2.075846   3.333781   3.563159   4.166510
    18  H    3.747856   2.086726   2.609504   2.882391   3.620911
    19  C    3.439573   3.518760   4.351209   5.185691   4.851748
    20  H    4.123618   3.639427   4.414050   5.085724   5.117618
    21  H    4.108051   4.511334   5.204953   6.094854   5.609031
    22  H    3.508445   3.632377   4.746580   5.537538   5.211883
                   11         12         13         14         15
    11  H    0.000000
    12  C    3.335331   0.000000
    13  H    3.636872   1.090585   0.000000
    14  H    3.561600   1.084692   1.800548   0.000000
    15  H    4.158827   1.085737   1.785342   1.771360   0.000000
    16  C    2.664024   2.410431   3.376509   2.564937   2.618245
    17  H    3.610784   2.637330   3.627061   2.967619   2.376630
    18  H    2.380856   3.331225   4.174252   3.539762   3.604629
    19  C    4.002252   4.673447   5.130782   5.459050   4.581946
    20  H    3.967892   4.874749   5.511526   5.488825   4.801490
    21  H    4.739673   5.676332   6.036474   6.496255   5.596480
    22  H    4.624869   4.504542   4.975434   5.351035   4.171001
                   16         17         18         19         20
    16  C    0.000000
    17  H    1.093499   0.000000
    18  H    1.090605   1.772768   0.000000
    19  C    3.492455   3.257546   3.026315   0.000000
    20  H    3.173193   2.980474   2.505016   1.086251   0.000000
    21  H    4.552341   4.338159   3.992047   1.088516   1.764372
    22  H    3.601728   3.059702   3.428341   1.087230   1.752799
                   21         22
    21  H    0.000000
    22  H    1.761010   0.000000
 Stoichiometry    C6H15N
 Framework group  C1[X(C6H15N)]
 Deg. of freedom    60
 Full point group                 C1      NOp   1
 Largest Abelian subgroup         C1      NOp   1
 Largest concise Abelian subgroup C1      NOp   1
                         Standard orientation:                         
 ---------------------------------------------------------------------
 Center     Atomic      Atomic             Coordinates (Angstroms)
 Number     Number       Type             X           Y           Z
 ---------------------------------------------------------------------
      1          6           0       -1.608178    0.705084   -0.114827
      2          1           0       -1.364710    1.114875    0.863761
      3          1           0       -2.048225    1.527678   -0.679740
      4          6           0       -0.324136    0.306466   -0.840595
      5          1           0       -0.503680   -0.568749   -1.460363
      6          1           0       -0.001109    1.116266   -1.505323
      7          7           0        0.846633   -0.072957    0.041315
      8          6           0        1.351950    1.121866    0.754251
      9          1           0        2.218655    0.808362    1.326269
     10          1           0        1.604122    1.901704    0.035325
     11          1           0        0.585667    1.475332    1.435176
     12          6           0        1.928956   -0.546357   -0.852351
     13          1           0        2.163358    0.220241   -1.591783
     14          1           0        2.785571   -0.777979   -0.228558
     15          1           0        1.586438   -1.451206   -1.345053
     16          6           0        0.604261   -1.162753    1.064787
     17          1           0        0.170464   -1.984128    0.487809
     18          1           0       -0.161742   -0.765618    1.731825
     19          6           0       -2.654719   -0.422408    0.050796
     20          1           0       -2.558401   -0.908855    1.017250
     21          1           0       -3.663785   -0.023257   -0.034820
     22          1           0       -2.527866   -1.185351   -0.713334
 ---------------------------------------------------------------------
 Rotational constants (GHZ):           4.1419483           1.6297036           1.5811911
 Standard basis: 6-311+G(2d,2p) (5D, 7F)
 There are   338 symmetry adapted cartesian basis functions of A   symmetry.
 There are   324 symmetry adapted basis functions of A   symmetry.
   324 basis functions,   459 primitive gaussians,   338 cartesian basis functions
    29 alpha electrons       29 beta electrons
       nuclear repulsion energy       345.9312662170 Hartrees.
 NAtoms=   22 NActive=   22 NUniq=   22 SFac= 1.00D+00 NAtFMM=   60 NAOKFM=F Big=F
 Integral buffers will be    131072 words long.
 Raffenetti 2 integral format.
 Two-electron integral symmetry is turned on.
 Nuclear repulsion after empirical dispersion term =      345.9154316743 Hartrees.
 One-electron integrals computed using PRISM.
 NBasis=   324 RedAO= T EigKep=  2.44D-05  NBF=   324
 NBsUse=   324 1.00D-06 EigRej= -1.00D+00 NBFU=   324
 Initial guess from the checkpoint file:  "aminopropyl_ylide.chk"
 B after Tr=    -0.000000    0.000000   -0.000000
         Rot=    0.995199   -0.097453   -0.006508   -0.006266 Ang= -11.23 deg.
 ExpMin= 4.38D-02 ExpMax= 6.29D+03 ExpMxC= 9.49D+02 IAcc=2 IRadAn=         4 AccDes= 0.00D+00
 Harris functional with IExCor= 4639 and IRadAn=       4 diagonalized for initial guess.
 HarFok:  IExCor= 4639 AccDes= 0.00D+00 IRadAn=         4 IDoV= 1 UseB2=F ITyADJ=14
 ICtDFT=  3500011 ScaDFX=  1.000000  1.000000  1.000000  1.000000
 FoFCou: FMM=F IPFlag=           0 FMFlag=      100000 FMFlg1=           0
         NFxFlg=           0 DoJE=T BraDBF=F KetDBF=T FulRan=T
         wScrn=  0.000000 ICntrl=       500 IOpCl=  0 I1Cent=   200000004 NGrid=           0
         NMat0=    1 NMatS0=      1 NMatT0=    0 NMatD0=    1 NMtDS0=    0 NMtDT0=    0
 Petite list used in FoFCou.
 Requested convergence on RMS density matrix=1.00D-08 within  32 cycles.
 Requested convergence on MAX density matrix=1.00D-06.
 Requested convergence on             energy=1.00D-06.
 No special actions if energy rises.
 SCF Done:  E(RwB97XD) =  -292.310162136     A.U. after   13 cycles
            NFock= 13  Conv=0.53D-08     -V/T= 2.0047
 QCSCF skips out because SCF is already converged.
 Calling FoFJK, ICntrl=      2127 FMM=F ISym2X=0 I1Cent= 0 IOpClX= 0 NMat=1 NMatS=1 NMatT=0.
 ***** Axes restored to original set *****
 -------------------------------------------------------------------
 Center     Atomic                   Forces (Hartrees/Bohr)
 Number     Number              X              Y              Z
 -------------------------------------------------------------------
      1        6           0.002015120    0.004504071   -0.002680529
      2        1           0.000794210   -0.000171501    0.001179810
      3        1           0.000351056    0.000226900   -0.000841737
      4        6          -0.000032677   -0.001827768   -0.000219604
      5        1           0.000317016    0.000152856   -0.001003561
      6        1          -0.001544270    0.001924732    0.000728602
      7        7           0.000894458   -0.002193705    0.000551741
      8        6           0.000939902   -0.000150085   -0.001118547
      9        1           0.000170636   -0.000004071    0.000947723
     10        1          -0.000180541   -0.000183644    0.000698696
     11        1          -0.000447001    0.000106508    0.001218423
     12        6           0.000917444   -0.000204039    0.000479730
     13        1          -0.000382054   -0.000438180   -0.000598985
     14        1          -0.000147658   -0.000121793   -0.000980173
     15        1          -0.000858350    0.000005625   -0.000869472
     16        6          -0.003440222   -0.000740255    0.000130361
     17        1           0.001872801    0.002026474   -0.001192439
     18        1           0.002637859    0.001656701    0.001084299
     19        6          -0.004401171   -0.005893157    0.004622180
     20        1          -0.001148597    0.000760664   -0.000901585
     21        1           0.000649245    0.000682929    0.000615963
     22        1           0.001022794   -0.000119261   -0.001850897
 -------------------------------------------------------------------
 Cartesian Forces:  Max     0.005893157 RMS     0.001639494

 GradGradGradGradGradGradGradGradGradGradGradGradGradGradGradGradGradGrad
 Berny optimization.
 Using GEDIIS/GDIIS optimizer.
 FormGI is forming the generalized inverse of G from B-inverse, IUseBI=4.
 Internal  Forces:  Max     0.006398933 RMS     0.001105354
 Search for a local minimum.
 Step number   2 out of a maximum of  121
 All quantities printed in internal units (Hartrees-Bohrs-Radians)
 Mixed Optimization -- RFO/linear search
 Update second derivatives using D2CorX and points    1    2
 DE= -4.49D-03 DEPred=-5.01D-03 R= 8.96D-01
 TightC=F SS=  1.41D+00  RLast= 3.55D-01 DXNew= 5.0454D-01 1.0648D+00
 Trust test= 8.96D-01 RLast= 3.55D-01 DXMaxT set to 5.05D-01
 ITU=  1  0
 Use linear search instead of GDIIS.
     Eigenvalues ---    0.00230   0.00234   0.00294   0.00385   0.00433
     Eigenvalues ---    0.00455   0.03193   0.03248   0.04369   0.04696
     Eigenvalues ---    0.04739   0.04854   0.05391   0.05429   0.05478
     Eigenvalues ---    0.05869   0.05874   0.06139   0.06175   0.06364
     Eigenvalues ---    0.08808   0.08941   0.12536   0.12702   0.14171
     Eigenvalues ---    0.15270   0.15550   0.16000   0.16000   0.16000
     Eigenvalues ---    0.16000   0.16000   0.16000   0.16000   0.16000
     Eigenvalues ---    0.16000   0.16590   0.21627   0.22506   0.29156
     Eigenvalues ---    0.29551   0.30859   0.31932   0.32983   0.33717
     Eigenvalues ---    0.34472   0.34747   0.34826   0.35003   0.35058
     Eigenvalues ---    0.35073   0.35115   0.35141   0.35163   0.35209
     Eigenvalues ---    0.35316   0.35494   0.37094   0.37230   0.37624
 RFO step:  Lambda=-1.92043183D-03 EMin= 2.30488050D-03
 Quartic linear search produced a step of  0.00549.
 Iteration  1 RMS(Cart)=  0.07231381 RMS(Int)=  0.00434812
 Iteration  2 RMS(Cart)=  0.00471971 RMS(Int)=  0.00002987
 Iteration  3 RMS(Cart)=  0.00002212 RMS(Int)=  0.00002450
 Iteration  4 RMS(Cart)=  0.00000000 RMS(Int)=  0.00002450
 Variable       Old X    -DE/DX   Delta X   Delta X   Delta X     New X
                                 (Linear)    (Quad)   (Total)
    R1        2.05697   0.00074  -0.00002   0.00163   0.00161   2.05858
    R2        2.06095  -0.00007   0.00002   0.00027   0.00029   2.06125
    R3        2.88726  -0.00046  -0.00001  -0.00168  -0.00168   2.88558
    R4        2.92384  -0.00640   0.00008  -0.02038  -0.02031   2.90353
    R5        2.05481   0.00104  -0.00003   0.00236   0.00233   2.05714
    R6        2.07180  -0.00189   0.00008  -0.00371  -0.00363   2.06817
    R7        2.86119  -0.00182   0.00009  -0.00386  -0.00377   2.85742
    R8        2.79732   0.00153  -0.00014   0.00175   0.00161   2.79893
    R9        2.79920   0.00192  -0.00014   0.00278   0.00263   2.80183
   R10        2.86210   0.00273   0.00000   0.00867   0.00867   2.87077
   R11        2.04987  -0.00001  -0.00002  -0.00050  -0.00053   2.04934
   R12        2.06023   0.00019   0.00003   0.00105   0.00107   2.06130
   R13        2.04910   0.00062  -0.00001   0.00147   0.00146   2.05056
   R14        2.06091   0.00039   0.00003   0.00167   0.00170   2.06261
   R15        2.04977  -0.00013  -0.00002  -0.00076  -0.00078   2.04899
   R16        2.05175   0.00059  -0.00002   0.00133   0.00132   2.05306
   R17        2.06641   0.00228   0.00005   0.00746   0.00751   2.07393
   R18        2.06094   0.00298   0.00005   0.00918   0.00922   2.07016
   R19        2.05272   0.00082   0.00017   0.00557   0.00574   2.05846
   R20        2.05700   0.00076   0.00019   0.00589   0.00609   2.06308
   R21        2.05457   0.00175   0.00018   0.00821   0.00839   2.06296
    A1        1.84623  -0.00032  -0.00004  -0.00032  -0.00034   1.84590
    A2        1.91484   0.00053  -0.00015  -0.00402  -0.00421   1.91062
    A3        1.90646   0.00025  -0.00005  -0.00571  -0.00579   1.90067
    A4        1.86484   0.00114  -0.00013   0.00892   0.00879   1.87363
    A5        1.90939   0.00028   0.00015   0.00615   0.00630   1.91569
    A6        2.01438  -0.00177   0.00020  -0.00430  -0.00414   2.01024
    A7        1.91982   0.00042  -0.00002  -0.00105  -0.00120   1.91862
    A8        1.92082   0.00194  -0.00004   0.01289   0.01284   1.93365
    A9        2.02478  -0.00321  -0.00007  -0.01823  -0.01834   2.00644
   A10        1.87297  -0.00022  -0.00001   0.00749   0.00745   1.88042
   A11        1.83172   0.00109  -0.00010  -0.00107  -0.00126   1.83046
   A12        1.88644   0.00007   0.00025   0.00112   0.00144   1.88788
   A13        1.92008   0.00003  -0.00004  -0.00352  -0.00356   1.91652
   A14        1.86886  -0.00023  -0.00006  -0.00184  -0.00190   1.86697
   A15        2.03777  -0.00059   0.00055   0.00140   0.00194   2.03971
   A16        1.87455   0.00047  -0.00010   0.00694   0.00683   1.88138
   A17        1.88595  -0.00010  -0.00018  -0.00485  -0.00505   1.88090
   A18        1.86989   0.00053  -0.00020   0.00280   0.00261   1.87250
   A19        1.86863   0.00085   0.00002   0.00501   0.00502   1.87364
   A20        1.91636   0.00075   0.00012   0.00795   0.00803   1.92439
   A21        1.90109   0.00118  -0.00003   0.00629   0.00624   1.90733
   A22        1.94944  -0.00068  -0.00003  -0.00396  -0.00402   1.94542
   A23        1.90467  -0.00120  -0.00009  -0.01142  -0.01151   1.89315
   A24        1.92238  -0.00081   0.00001  -0.00346  -0.00349   1.91889
   A25        1.91925   0.00078   0.00013   0.00830   0.00839   1.92764
   A26        1.87373   0.00091   0.00001   0.00541   0.00540   1.87913
   A27        1.88559   0.00107  -0.00003   0.00530   0.00525   1.89084
   A28        1.95010  -0.00068  -0.00003  -0.00351  -0.00358   1.94652
   A29        1.92404  -0.00080   0.00001  -0.00380  -0.00383   1.92021
   A30        1.90938  -0.00117  -0.00009  -0.01121  -0.01131   1.89807
   A31        1.82080   0.00186  -0.00023   0.00349   0.00326   1.82406
   A32        1.83764   0.00025  -0.00018  -0.00518  -0.00536   1.83228
   A33        1.89400  -0.00164  -0.00006  -0.01995  -0.02004   1.87396
   A34        1.94078   0.00005   0.00017   0.00373   0.00388   1.94466
   A35        1.92985   0.00034   0.00011   0.00472   0.00480   1.93466
   A36        1.93608   0.00065   0.00014   0.00605   0.00618   1.94226
   A37        1.89272  -0.00007  -0.00010  -0.00115  -0.00127   1.89145
   A38        1.87624  -0.00048  -0.00019  -0.00778  -0.00797   1.86827
   A39        1.88620  -0.00055  -0.00013  -0.00631  -0.00646   1.87974
    D1        2.55555  -0.00055   0.00010   0.04351   0.04361   2.59917
    D2       -1.66757   0.00062   0.00005   0.05986   0.05995  -1.60762
    D3        0.48063  -0.00010   0.00029   0.05819   0.05845   0.53908
    D4       -1.73399  -0.00006  -0.00010   0.04587   0.04577  -1.68822
    D5        0.32607   0.00111  -0.00015   0.06222   0.06210   0.38817
    D6        2.47427   0.00039   0.00010   0.06055   0.06060   2.53487
    D7        0.39322   0.00001   0.00012   0.05764   0.05776   0.45098
    D8        2.45328   0.00118   0.00008   0.07399   0.07409   2.52737
    D9       -1.68171   0.00046   0.00032   0.07232   0.07259  -1.60912
   D10       -0.50546  -0.00069  -0.00035  -0.16193  -0.16229  -0.66774
   D11        1.59825  -0.00051  -0.00030  -0.15773  -0.15804   1.44021
   D12       -2.59254  -0.00054  -0.00031  -0.15860  -0.15892  -2.75146
   D13       -2.51880  -0.00061  -0.00036  -0.16177  -0.16213  -2.68092
   D14       -0.41510  -0.00043  -0.00031  -0.15758  -0.15788  -0.57297
   D15        1.67731  -0.00046  -0.00032  -0.15845  -0.15876   1.51855
   D16        1.66127  -0.00109  -0.00043  -0.17511  -0.17554   1.48573
   D17       -2.51821  -0.00091  -0.00038  -0.17092  -0.17129  -2.68950
   D18       -0.42581  -0.00095  -0.00039  -0.17179  -0.17217  -0.59798
   D19       -1.20436  -0.00024  -0.00015  -0.05287  -0.05301  -1.25736
   D20        3.04697  -0.00068   0.00004  -0.05823  -0.05819   2.98879
   D21        0.95247  -0.00080  -0.00002  -0.06136  -0.06137   0.89109
   D22        2.95632   0.00039   0.00000  -0.03956  -0.03958   2.91675
   D23        0.92446  -0.00005   0.00018  -0.04492  -0.04476   0.87971
   D24       -1.17004  -0.00017   0.00013  -0.04805  -0.04794  -1.21798
   D25        0.96173   0.00008  -0.00005  -0.04807  -0.04811   0.91362
   D26       -1.07013  -0.00036   0.00013  -0.05343  -0.05329  -1.12341
   D27        3.11855  -0.00049   0.00008  -0.05656  -0.05648   3.06208
   D28       -3.08849  -0.00041   0.00017  -0.00296  -0.00279  -3.09129
   D29       -0.96911  -0.00028   0.00021  -0.00009   0.00013  -0.96898
   D30        1.13730  -0.00008   0.00028   0.00445   0.00475   1.14205
   D31       -1.06020  -0.00040   0.00001  -0.00312  -0.00312  -1.06332
   D32        1.05918  -0.00028   0.00006  -0.00025  -0.00019   1.05899
   D33       -3.11760  -0.00007   0.00013   0.00429   0.00443  -3.11317
   D34        0.95174   0.00040  -0.00038   0.00124   0.00085   0.95259
   D35        3.07113   0.00052  -0.00033   0.00412   0.00377   3.07490
   D36       -1.10565   0.00073  -0.00026   0.00866   0.00839  -1.09726
   D37        0.97370   0.00019  -0.00021  -0.00476  -0.00496   0.96874
   D38        3.09873   0.00038  -0.00016  -0.00076  -0.00091   3.09782
   D39       -1.12691   0.00005  -0.00028  -0.00827  -0.00856  -1.13547
   D40       -1.08807   0.00003  -0.00007  -0.00327  -0.00333  -1.09140
   D41        1.03696   0.00023  -0.00002   0.00072   0.00072   1.03768
   D42        3.09451  -0.00010  -0.00014  -0.00679  -0.00693   3.08758
   D43       -3.11065  -0.00035   0.00031  -0.00248  -0.00218  -3.11283
   D44       -0.98562  -0.00015   0.00036   0.00151   0.00187  -0.98375
   D45        1.07192  -0.00048   0.00024  -0.00600  -0.00578   1.06615
   D46        0.90083  -0.00047  -0.00032  -0.02718  -0.02749   0.87334
   D47       -1.09201   0.00048  -0.00007  -0.00435  -0.00443  -1.09645
   D48        3.07506  -0.00096  -0.00013  -0.03492  -0.03504   3.04003
   D49        1.08222  -0.00001   0.00012  -0.01209  -0.01198   1.07024
   D50       -1.19312  -0.00019  -0.00046  -0.02783  -0.02828  -1.22141
   D51        3.09722   0.00076  -0.00021  -0.00501  -0.00523   3.09199
         Item               Value     Threshold  Converged?
 Maximum Force            0.006399     0.000450     NO 
 RMS     Force            0.001105     0.000300     NO 
 Maximum Displacement     0.370434     0.001800     NO 
 RMS     Displacement     0.072208     0.001200     NO 
 Predicted change in Energy=-1.251570D-03
 GradGradGradGradGradGradGradGradGradGradGradGradGradGradGradGradGradGrad

                          Input orientation:                          
 ---------------------------------------------------------------------
 Center     Atomic      Atomic             Coordinates (Angstroms)
 Number     Number       Type             X           Y           Z
 ---------------------------------------------------------------------
      1          6           0        0.611510   -0.742885    0.315763
      2          1           0        0.247243   -0.459855    1.302625
      3          1           0        1.369576   -1.508037    0.487948
      4          6           0       -0.519899   -1.393087   -0.477225
      5          1           0       -0.394890   -1.187248   -1.538846
      6          1           0       -0.512489   -2.479482   -0.345052
      7          7           0       -1.905321   -0.887070   -0.144151
      8          6           0       -2.314255   -1.384750    1.189580
      9          1           0       -3.328288   -1.042869    1.365412
     10          1           0       -2.248496   -2.473044    1.223100
     11          1           0       -1.669200   -0.951459    1.946960
     12          6           0       -2.830502   -1.466722   -1.147319
     13          1           0       -2.747504   -2.554991   -1.158567
     14          1           0       -3.834671   -1.146892   -0.892346
     15          1           0       -2.572821   -1.063950   -2.122878
     16          6           0       -2.108458    0.618357   -0.159495
     17          1           0       -1.692932    0.942106   -1.122290
     18          1           0       -1.448677    1.001176    0.626777
     19          6           0        1.253912    0.484624   -0.348556
     20          1           0        0.697895    1.394345   -0.125392
     21          1           0        2.282370    0.617458   -0.007209
     22          1           0        1.275546    0.381258   -1.435106
 ---------------------------------------------------------------------
                    Distance matrix (angstroms):
                    1          2          3          4          5
     1  C    0.000000
     2  H    1.089355   0.000000
     3  H    1.090766   1.738395   0.000000
     4  C    1.526983   2.151115   2.124827   0.000000
     5  H    2.156356   3.002565   2.706315   1.088594   0.000000
     6  H    2.171593   2.714945   2.275909   1.094431   1.763191
     7  N    2.562567   2.628537   3.392654   1.512080   2.077663
     8  C    3.120200   2.725708   3.752079   2.449086   3.341748
     9  H    4.088247   3.623295   4.801692   3.377131   4.130422
    10  H    3.463573   3.207486   3.816036   2.654328   3.566157
    11  H    2.811751   2.080768   3.416526   2.718934   3.718912
    12  C    3.809461   4.060606   4.507378   2.406934   2.482661
    13  H    4.091497   4.406311   4.556037   2.603166   2.747750
    14  H    4.625070   4.685290   5.396279   3.349724   3.500242
    15  H    4.023681   4.477919   4.749328   2.651601   2.258247
    16  C    3.078486   2.974839   4.127646   2.582708   2.845898
    17  H    3.196505   3.407343   4.239696   2.691698   2.528356
    18  H    2.717140   2.338275   3.775974   2.795343   3.254165
    19  C    1.536483   2.152167   2.164213   2.586264   2.632583
    20  H    2.183995   2.383355   3.041573   3.062121   3.139531
    21  H    2.178674   2.649153   2.365609   3.480793   3.573597
    22  H    2.184075   3.043033   2.697483   2.699900   2.293759
                    6          7          8          9         10
     6  H    0.000000
     7  N    2.125116   0.000000
     8  C    2.607661   1.481132   0.000000
     9  H    3.594200   2.080358   1.084464   0.000000
    10  H    2.339415   2.121899   1.090793   1.797666   0.000000
    11  H    2.987667   2.105385   1.085109   1.760433   1.781791
    12  C    2.653771   1.482667   2.394646   2.596394   2.640133
    13  H    2.379664   2.126093   2.659129   2.999049   2.434761
    14  H    3.621081   2.085592   2.588949   2.316186   2.957996
    15  H    3.067468   2.095757   3.337985   3.569222   3.645037
    16  C    3.489722   1.519149   2.423798   2.563786   3.389386
    17  H    3.702001   2.085126   3.338420   3.578153   4.180042
    18  H    3.733079   2.090055   2.599734   2.873437   3.614625
    19  C    3.450523   3.450229   4.311872   5.125181   4.846108
    20  H    4.064458   3.461495   4.304134   4.936868   5.045428
    21  H    4.185261   4.451867   5.154620   6.010013   5.620819
    22  H    3.545295   3.659664   4.784813   5.573718   5.256612
                   11         12         13         14         15
    11  H    0.000000
    12  C    3.344948   0.000000
    13  H    3.657643   1.091487   0.000000
    14  H    3.576187   1.084278   1.798763   0.000000
    15  H    4.170463   1.086434   1.784268   1.764470   0.000000
    16  C    2.663536   2.417581   3.387722   2.575459   2.626911
    17  H    3.606445   2.664047   3.652825   3.000640   2.408245
    18  H    2.367340   3.338769   4.185777   3.551746   3.617878
    19  C    3.984509   4.596544   5.089863   5.371335   4.493349
    20  H    3.924357   4.656139   5.341862   5.252644   4.553103
    21  H    4.679228   5.637829   6.057202   6.427643   5.556623
    22  H    4.678251   4.511927   4.988283   5.361358   4.167923
                   16         17         18         19         20
    16  C    0.000000
    17  H    1.097474   0.000000
    18  H    1.095484   1.767027   0.000000
    19  C    3.370336   3.080883   2.919261   0.000000
    20  H    2.911862   2.629521   2.308270   1.089288   0.000000
    21  H    4.393468   4.141476   3.803931   1.091736   1.768638
    22  H    3.624208   3.037148   3.472327   1.091670   1.753675
                   21         22
    21  H    0.000000
    22  H    1.763058   0.000000
 Stoichiometry    C6H15N
 Framework group  C1[X(C6H15N)]
 Deg. of freedom    60
 Full point group                 C1      NOp   1
 Largest Abelian subgroup         C1      NOp   1
 Largest concise Abelian subgroup C1      NOp   1
                         Standard orientation:                         
 ---------------------------------------------------------------------
 Center     Atomic      Atomic             Coordinates (Angstroms)
 Number     Number       Type             X           Y           Z
 ---------------------------------------------------------------------
      1          6           0       -1.598652    0.720217   -0.125622
      2          1           0       -1.357631    1.131478    0.853903
      3          1           0       -2.068006    1.533247   -0.681012
      4          6           0       -0.308265    0.355288   -0.855968
      5          1           0       -0.481504   -0.495381   -1.512768
      6          1           0        0.037140    1.189374   -1.474657
      7          7           0        0.832890   -0.071673    0.039497
      8          6           0        1.366542    1.102924    0.767019
      9          1           0        2.211836    0.762549    1.354970
     10          1           0        1.658517    1.882876    0.062565
     11          1           0        0.607009    1.480737    1.443649
     12          6           0        1.907705   -0.584216   -0.843891
     13          1           0        2.183881    0.168474   -1.584518
     14          1           0        2.749963   -0.852259   -0.215867
     15          1           0        1.543914   -1.479167   -1.340939
     16          6           0        0.534698   -1.154399    1.062531
     17          1           0        0.047281   -1.950853    0.485874
     18          1           0       -0.222641   -0.718746    1.723386
     19          6           0       -2.598335   -0.433119    0.051088
     20          1           0       -2.371557   -1.023818    0.937765
     21          1           0       -3.617753   -0.053158    0.142218
     22          1           0       -2.572837   -1.113812   -0.801995
 ---------------------------------------------------------------------
 Rotational constants (GHZ):           4.1077776           1.6645051           1.6127650
 Standard basis: 6-311+G(2d,2p) (5D, 7F)
 There are   338 symmetry adapted cartesian basis functions of A   symmetry.
 There are   324 symmetry adapted basis functions of A   symmetry.
   324 basis functions,   459 primitive gaussians,   338 cartesian basis functions
    29 alpha electrons       29 beta electrons
       nuclear repulsion energy       346.8734379716 Hartrees.
 NAtoms=   22 NActive=   22 NUniq=   22 SFac= 1.00D+00 NAtFMM=   60 NAOKFM=F Big=F
 Integral buffers will be    131072 words long.
 Raffenetti 2 integral format.
 Two-electron integral symmetry is turned on.
 Nuclear repulsion after empirical dispersion term =      346.8573612806 Hartrees.
 One-electron integrals computed using PRISM.
 NBasis=   324 RedAO= T EigKep=  2.55D-05  NBF=   324
 NBsUse=   324 1.00D-06 EigRej= -1.00D+00 NBFU=   324
 Initial guess from the checkpoint file:  "aminopropyl_ylide.chk"
 B after Tr=     0.000000   -0.000000    0.000000
         Rot=    0.999979   -0.003700    0.001596    0.005000 Ang=  -0.74 deg.
 ExpMin= 4.38D-02 ExpMax= 6.29D+03 ExpMxC= 9.49D+02 IAcc=2 IRadAn=         4 AccDes= 0.00D+00
 Harris functional with IExCor= 4639 and IRadAn=       4 diagonalized for initial guess.
 HarFok:  IExCor= 4639 AccDes= 0.00D+00 IRadAn=         4 IDoV= 1 UseB2=F ITyADJ=14
 ICtDFT=  3500011 ScaDFX=  1.000000  1.000000  1.000000  1.000000
 FoFCou: FMM=F IPFlag=           0 FMFlag=      100000 FMFlg1=           0
         NFxFlg=           0 DoJE=T BraDBF=F KetDBF=T FulRan=T
         wScrn=  0.000000 ICntrl=       500 IOpCl=  0 I1Cent=   200000004 NGrid=           0
         NMat0=    1 NMatS0=      1 NMatT0=    0 NMatD0=    1 NMtDS0=    0 NMtDT0=    0
 Petite list used in FoFCou.
 Requested convergence on RMS density matrix=1.00D-08 within  32 cycles.
 Requested convergence on MAX density matrix=1.00D-06.
 Requested convergence on             energy=1.00D-06.
 No special actions if energy rises.
 SCF Done:  E(RwB97XD) =  -292.311504223     A.U. after   12 cycles
            NFock= 12  Conv=0.53D-08     -V/T= 2.0047
 QCSCF skips out because SCF is already converged.
 Calling FoFJK, ICntrl=      2127 FMM=F ISym2X=0 I1Cent= 0 IOpClX= 0 NMat=1 NMatS=1 NMatT=0.
 ***** Axes restored to original set *****
 -------------------------------------------------------------------
 Center     Atomic                   Forces (Hartrees/Bohr)
 Number     Number              X              Y              Z
 -------------------------------------------------------------------
      1        6           0.000702100    0.002492197   -0.000907855
      2        1           0.000970220   -0.000660571    0.001282604
      3        1           0.000441288   -0.000038981   -0.001465210
      4        6           0.000649194    0.001895357   -0.000274925
      5        1           0.000933442   -0.000531971   -0.000383069
      6        1          -0.000728860    0.001141268    0.000586448
      7        7          -0.000706461   -0.002292120    0.000226680
      8        6          -0.000194409   -0.000374887    0.000059710
      9        1          -0.000335203    0.000082212    0.000050857
     10        1          -0.000048496    0.000247847   -0.000271336
     11        1           0.000307315    0.000058642    0.000071903
     12        6          -0.000399960    0.000032250    0.000082225
     13        1           0.000330760    0.000149684    0.000210930
     14        1          -0.000345746   -0.000009792    0.000130051
     15        1           0.000098699    0.000205681   -0.000085760
     16        6          -0.001617934    0.000665890   -0.000021506
     17        1           0.000323890    0.000143558    0.000149777
     18        1          -0.000234746    0.000105993   -0.000310209
     19        6          -0.000244182   -0.000736562    0.000714686
     20        1           0.000163653   -0.001639208   -0.000804413
     21        1          -0.001157303   -0.000058179    0.000424662
     22        1           0.001092741   -0.000878309    0.000533750
 -------------------------------------------------------------------
 Cartesian Forces:  Max     0.002492197 RMS     0.000768409

 GradGradGradGradGradGradGradGradGradGradGradGradGradGradGradGradGradGrad
 Berny optimization.
 Using GEDIIS/GDIIS optimizer.
 FormGI is forming the generalized inverse of G from B-inverse, IUseBI=4.
 Internal  Forces:  Max     0.004886640 RMS     0.000841112
 Search for a local minimum.
 Step number   3 out of a maximum of  121
 All quantities printed in internal units (Hartrees-Bohrs-Radians)
 Mixed Optimization -- En-DIIS/RFO-DIIS
 Update second derivatives using D2CorX and points    2    3
 DE= -1.34D-03 DEPred=-1.25D-03 R= 1.07D+00
 TightC=F SS=  1.41D+00  RLast= 5.53D-01 DXNew= 8.4853D-01 1.6589D+00
 Trust test= 1.07D+00 RLast= 5.53D-01 DXMaxT set to 8.49D-01
 ITU=  1  1  0
 Use linear search instead of GDIIS.
     Eigenvalues ---    0.00113   0.00232   0.00309   0.00431   0.00450
     Eigenvalues ---    0.00474   0.03288   0.03684   0.04420   0.04730
     Eigenvalues ---    0.04826   0.04928   0.05377   0.05413   0.05515
     Eigenvalues ---    0.05783   0.05786   0.06100   0.06128   0.06635
     Eigenvalues ---    0.08727   0.08834   0.12388   0.12522   0.14004
     Eigenvalues ---    0.15372   0.15869   0.15997   0.16000   0.16000
     Eigenvalues ---    0.16000   0.16000   0.16000   0.16000   0.16000
     Eigenvalues ---    0.16065   0.16463   0.22019   0.26218   0.27753
     Eigenvalues ---    0.29655   0.30691   0.32531   0.33012   0.33885
     Eigenvalues ---    0.34729   0.34821   0.34988   0.35004   0.35072
     Eigenvalues ---    0.35075   0.35092   0.35146   0.35171   0.35215
     Eigenvalues ---    0.35338   0.36873   0.37055   0.37255   0.39325
 RFO step:  Lambda=-1.48662073D-03 EMin= 1.12720621D-03
 Quartic linear search produced a step of  0.32224.
 Iteration  1 RMS(Cart)=  0.06669067 RMS(Int)=  0.01121631
 Iteration  2 RMS(Cart)=  0.01137683 RMS(Int)=  0.00019647
 Iteration  3 RMS(Cart)=  0.00019934 RMS(Int)=  0.00003635
 Iteration  4 RMS(Cart)=  0.00000005 RMS(Int)=  0.00003635
 Variable       Old X    -DE/DX   Delta X   Delta X   Delta X     New X
                                 (Linear)    (Quad)   (Total)
    R1        2.05858   0.00066   0.00052   0.00282   0.00333   2.06192
    R2        2.06125   0.00010   0.00009   0.00032   0.00041   2.06166
    R3        2.88558   0.00069  -0.00054   0.00167   0.00113   2.88671
    R4        2.90353  -0.00308  -0.00654  -0.02076  -0.02730   2.87623
    R5        2.05714   0.00038   0.00075   0.00233   0.00309   2.06023
    R6        2.06817  -0.00107  -0.00117  -0.00519  -0.00636   2.06182
    R7        2.85742   0.00232  -0.00122   0.00535   0.00413   2.86155
    R8        2.79893  -0.00001   0.00052   0.00139   0.00191   2.80085
    R9        2.80183  -0.00018   0.00085   0.00136   0.00221   2.80404
   R10        2.87077   0.00111   0.00279   0.00766   0.01046   2.88123
   R11        2.04934   0.00035  -0.00017   0.00088   0.00072   2.05006
   R12        2.06130  -0.00026   0.00035  -0.00039  -0.00005   2.06125
   R13        2.05056   0.00026   0.00047   0.00148   0.00195   2.05251
   R14        2.06261  -0.00013   0.00055   0.00027   0.00082   2.06343
   R15        2.04899   0.00035  -0.00025   0.00075   0.00050   2.04949
   R16        2.05306   0.00018   0.00042   0.00119   0.00162   2.05468
   R17        2.07393   0.00003   0.00242   0.00328   0.00570   2.07962
   R18        2.07016  -0.00033   0.00297   0.00306   0.00603   2.07619
   R19        2.05846  -0.00162   0.00185  -0.00266  -0.00081   2.05764
   R20        2.06308  -0.00097   0.00196  -0.00082   0.00114   2.06423
   R21        2.06296  -0.00043   0.00270   0.00180   0.00450   2.06746
    A1        1.84590   0.00007  -0.00011  -0.00106  -0.00113   1.84477
    A2        1.91062  -0.00009  -0.00136   0.00821   0.00679   1.91742
    A3        1.90067   0.00053  -0.00187   0.01090   0.00900   1.90967
    A4        1.87363   0.00004   0.00283  -0.00275   0.00002   1.87365
    A5        1.91569  -0.00116   0.00203  -0.01593  -0.01391   1.90178
    A6        2.01024   0.00057  -0.00133   0.00025  -0.00115   2.00909
    A7        1.91862  -0.00155  -0.00039   0.00103   0.00041   1.91902
    A8        1.93365  -0.00126   0.00414  -0.00834  -0.00421   1.92944
    A9        2.00644   0.00489  -0.00591   0.01648   0.01046   2.01690
   A10        1.88042   0.00074   0.00240   0.00040   0.00290   1.88331
   A11        1.83046  -0.00028  -0.00040   0.01468   0.01417   1.84463
   A12        1.88788  -0.00267   0.00046  -0.02405  -0.02352   1.86436
   A13        1.91652  -0.00038  -0.00115  -0.00267  -0.00382   1.91270
   A14        1.86697  -0.00014  -0.00061  -0.00261  -0.00322   1.86374
   A15        2.03971   0.00103   0.00063   0.01067   0.01129   2.05101
   A16        1.88138   0.00014   0.00220  -0.00082   0.00137   1.88275
   A17        1.88090  -0.00014  -0.00163  -0.00166  -0.00328   1.87761
   A18        1.87250  -0.00057   0.00084  -0.00364  -0.00280   1.86971
   A19        1.87364   0.00011   0.00162   0.00310   0.00470   1.87834
   A20        1.92439  -0.00036   0.00259   0.00034   0.00291   1.92729
   A21        1.90733  -0.00012   0.00201   0.00232   0.00432   1.91164
   A22        1.94542   0.00008  -0.00130  -0.00156  -0.00288   1.94254
   A23        1.89315   0.00011  -0.00371  -0.00316  -0.00688   1.88627
   A24        1.91889   0.00019  -0.00112  -0.00092  -0.00207   1.91682
   A25        1.92764  -0.00058   0.00270  -0.00089   0.00179   1.92943
   A26        1.87913   0.00018   0.00174   0.00384   0.00556   1.88469
   A27        1.89084  -0.00013   0.00169   0.00175   0.00344   1.89428
   A28        1.94652   0.00018  -0.00115  -0.00049  -0.00167   1.94485
   A29        1.92021   0.00028  -0.00123  -0.00070  -0.00195   1.91826
   A30        1.89807   0.00007  -0.00364  -0.00340  -0.00705   1.89102
   A31        1.82406   0.00009   0.00105   0.00288   0.00393   1.82798
   A32        1.83228   0.00038  -0.00173   0.00058  -0.00115   1.83112
   A33        1.87396  -0.00027  -0.00646  -0.01138  -0.01785   1.85611
   A34        1.94466  -0.00019   0.00125   0.00108   0.00232   1.94698
   A35        1.93466  -0.00050   0.00155  -0.00261  -0.00107   1.93359
   A36        1.94226  -0.00035   0.00199  -0.00028   0.00170   1.94396
   A37        1.89145   0.00041  -0.00041   0.00289   0.00247   1.89392
   A38        1.86827   0.00050  -0.00257   0.00260   0.00002   1.86829
   A39        1.87974   0.00019  -0.00208  -0.00356  -0.00565   1.87409
    D1        2.59917   0.00104   0.01405   0.00079   0.01485   2.61402
    D2       -1.60762   0.00019   0.01932  -0.00327   0.01607  -1.59155
    D3        0.53908  -0.00070   0.01883  -0.02966  -0.01084   0.52824
    D4       -1.68822   0.00110   0.01475   0.00221   0.01697  -1.67125
    D5        0.38817   0.00024   0.02001  -0.00184   0.01819   0.40636
    D6        2.53487  -0.00065   0.01953  -0.02823  -0.00872   2.52615
    D7        0.45098   0.00001   0.01861  -0.02030  -0.00170   0.44928
    D8        2.52737  -0.00085   0.02388  -0.02436  -0.00048   2.52689
    D9       -1.60912  -0.00174   0.02339  -0.05075  -0.02739  -1.63650
   D10       -0.66774  -0.00086  -0.05230  -0.18588  -0.23820  -0.90595
   D11        1.44021  -0.00080  -0.05093  -0.18327  -0.23422   1.20598
   D12       -2.75146  -0.00113  -0.05121  -0.18970  -0.24093  -2.99239
   D13       -2.68092  -0.00060  -0.05224  -0.18196  -0.23418  -2.91510
   D14       -0.57297  -0.00054  -0.05088  -0.17936  -0.23020  -0.80318
   D15        1.51855  -0.00087  -0.05116  -0.18578  -0.23691   1.28164
   D16        1.48573  -0.00016  -0.05657  -0.16629  -0.22286   1.26287
   D17       -2.68950  -0.00010  -0.05520  -0.16368  -0.21888  -2.90839
   D18       -0.59798  -0.00043  -0.05548  -0.17010  -0.22559  -0.82357
   D19       -1.25736   0.00026  -0.01708   0.01646  -0.00057  -1.25793
   D20        2.98879   0.00037  -0.01875   0.02029   0.00158   2.99037
   D21        0.89109   0.00054  -0.01978   0.02008   0.00035   0.89144
   D22        2.91675  -0.00048  -0.01275  -0.00479  -0.01762   2.89912
   D23        0.87971  -0.00037  -0.01442  -0.00096  -0.01547   0.86423
   D24       -1.21798  -0.00020  -0.01545  -0.00116  -0.01670  -1.23469
   D25        0.91362  -0.00000  -0.01550  -0.00167  -0.01713   0.89649
   D26       -1.12341   0.00010  -0.01717   0.00215  -0.01498  -1.13840
   D27        3.06208   0.00028  -0.01820   0.00195  -0.01621   3.04586
   D28       -3.09129   0.00042  -0.00090  -0.00309  -0.00399  -3.09528
   D29       -0.96898   0.00037   0.00004  -0.00286  -0.00282  -0.97180
   D30        1.14205   0.00030   0.00153  -0.00231  -0.00076   1.14128
   D31       -1.06332   0.00013  -0.00100  -0.00809  -0.00910  -1.07242
   D32        1.05899   0.00008  -0.00006  -0.00786  -0.00792   1.05107
   D33       -3.11317   0.00001   0.00143  -0.00730  -0.00587  -3.11904
   D34        0.95259  -0.00053   0.00027  -0.01360  -0.01333   0.93926
   D35        3.07490  -0.00058   0.00122  -0.01337  -0.01216   3.06275
   D36       -1.09726  -0.00065   0.00270  -0.01281  -0.01010  -1.10736
   D37        0.96874  -0.00051  -0.00160  -0.01756  -0.01916   0.94958
   D38        3.09782  -0.00053  -0.00029  -0.01626  -0.01655   3.08128
   D39       -1.13547  -0.00042  -0.00276  -0.01727  -0.02003  -1.15549
   D40       -1.09140  -0.00007  -0.00107  -0.01263  -0.01371  -1.10511
   D41        1.03768  -0.00009   0.00023  -0.01133  -0.01109   1.02659
   D42        3.08758   0.00002  -0.00223  -0.01234  -0.01457   3.07300
   D43       -3.11283   0.00031  -0.00070  -0.00845  -0.00916  -3.12199
   D44       -0.98375   0.00029   0.00060  -0.00715  -0.00654  -0.99029
   D45        1.06615   0.00040  -0.00186  -0.00816  -0.01002   1.05612
   D46        0.87334  -0.00019  -0.00886  -0.03788  -0.04673   0.82661
   D47       -1.09645  -0.00008  -0.00143  -0.02665  -0.02808  -1.12453
   D48        3.04003  -0.00006  -0.01129  -0.03503  -0.04632   2.99371
   D49        1.07024   0.00005  -0.00386  -0.02381  -0.02767   1.04257
   D50       -1.22141  -0.00025  -0.00911  -0.03866  -0.04777  -1.26918
   D51        3.09199  -0.00014  -0.00168  -0.02744  -0.02912   3.06286
         Item               Value     Threshold  Converged?
 Maximum Force            0.004887     0.000450     NO 
 RMS     Force            0.000841     0.000300     NO 
 Maximum Displacement     0.422129     0.001800     NO 
 RMS     Displacement     0.075157     0.001200     NO 
 Predicted change in Energy=-1.271932D-03
 GradGradGradGradGradGradGradGradGradGradGradGradGradGradGradGradGradGrad

                          Input orientation:                          
 ---------------------------------------------------------------------
 Center     Atomic      Atomic             Coordinates (Angstroms)
 Number     Number       Type             X           Y           Z
 ---------------------------------------------------------------------
      1          6           0        0.618057   -0.737384    0.301971
      2          1           0        0.270125   -0.451748    1.295901
      3          1           0        1.372132   -1.509054    0.463664
      4          6           0       -0.525431   -1.375505   -0.484629
      5          1           0       -0.399087   -1.179649   -1.549650
      6          1           0       -0.532330   -2.457047   -0.340948
      7          7           0       -1.913418   -0.878667   -0.138731
      8          6           0       -2.308988   -1.396084    1.192643
      9          1           0       -3.322428   -1.061451    1.387176
     10          1           0       -2.240165   -2.484473    1.213888
     11          1           0       -1.661719   -0.971111    1.954312
     12          6           0       -2.838408   -1.456225   -1.145006
     13          1           0       -2.735497   -2.542682   -1.181177
     14          1           0       -3.848036   -1.162426   -0.879358
     15          1           0       -2.602227   -1.029400   -2.116726
     16          6           0       -2.140758    0.628959   -0.133003
     17          1           0       -1.691723    0.983332   -1.073144
     18          1           0       -1.502384    1.008141    0.676802
     19          6           0        1.273215    0.461604   -0.368688
     20          1           0        0.625057    1.336241   -0.346038
     21          1           0        2.214736    0.714770    0.123911
     22          1           0        1.498927    0.256840   -1.419438
 ---------------------------------------------------------------------
                    Distance matrix (angstroms):
                    1          2          3          4          5
     1  C    0.000000
     2  H    1.091119   0.000000
     3  H    1.090985   1.739234   0.000000
     4  C    1.527581   2.157897   2.125522   0.000000
     5  H    2.158398   3.012448   2.701696   1.090226   0.000000
     6  H    2.166558   2.710061   2.274438   1.091066   1.763650
     7  N    2.573431   2.647317   3.399281   1.514266   2.091527
     8  C    3.129660   2.748500   3.754306   2.448415   3.348841
     9  H    4.100013   3.645066   4.805426   3.380159   4.145460
    10  H    3.471793   3.231138   3.816146   2.656140   3.567811
    11  H    2.825285   2.106006   3.422815   2.720866   3.730345
    12  C    3.815445   4.077986   4.507689   2.406756   2.488075
    13  H    4.087194   4.420598   4.543843   2.594586   2.729917
    14  H    4.639201   4.711270   5.401298   3.352748   3.513522
    15  H    4.038019   4.497789   4.762774   2.663947   2.279907
    16  C    3.109205   3.003673   4.155419   2.598230   2.882945
    17  H    3.191691   3.394212   4.238039   2.696423   2.564460
    18  H    2.771935   2.378307   3.826818   2.825796   3.310706
    19  C    1.522034   2.147384   2.141515   2.573624   2.623924
    20  H    2.172530   2.453333   3.051138   2.948965   2.971070
    21  H    2.165604   2.552614   2.402250   3.499726   3.636166
    22  H    2.174319   3.063514   2.584672   2.763412   2.383886
                    6          7          8          9         10
     6  H    0.000000
     7  N    2.107031   0.000000
     8  C    2.575665   1.482144   0.000000
     9  H    3.566335   2.084972   1.084843   0.000000
    10  H    2.309755   2.124842   1.090769   1.796194   0.000000
    11  H    2.958333   2.110148   1.086139   1.757202   1.781317
    12  C    2.639346   1.483835   2.397604   2.608077   2.641887
    13  H    2.359505   2.128721   2.670509   3.022411   2.446442
    14  H    3.599977   2.090883   2.591612   2.328870   2.952072
    15  H    3.078317   2.099915   3.342509   3.577295   3.652576
    16  C    3.486218   1.524681   2.426199   2.562182   3.393738
    17  H    3.703581   2.095070   3.343117   3.590754   4.190105
    18  H    3.739564   2.096207   2.587856   2.846120   3.609866
    19  C    3.432096   3.464656   4.326770   5.150019   4.850542
    20  H    3.965931   3.375300   4.294387   4.933112   5.024014
    21  H    4.221716   4.432796   5.105092   5.950713   5.591900
    22  H    3.557293   3.817551   4.904625   5.732403   5.331980
                   11         12         13         14         15
    11  H    0.000000
    12  C    3.350478   0.000000
    13  H    3.667986   1.091920   0.000000
    14  H    3.584169   1.084544   1.798317   0.000000
    15  H    4.178672   1.087290   1.784106   1.760913   0.000000
    16  C    2.673310   2.420508   3.392889   2.584745   2.626455
    17  H    3.603642   2.696570   3.678847   3.048199   2.443190
    18  H    2.361113   3.343208   4.192970   3.554585   3.628364
    19  C    4.007847   4.602845   5.075002   5.396802   4.505307
    20  H    3.980556   4.520155   5.199695   5.151343   4.375724
    21  H    4.606459   5.644257   6.067871   6.425544   5.591576
    22  H    4.783277   4.671443   5.081776   5.558419   4.354319
                   16         17         18         19         20
    16  C    0.000000
    17  H    1.100490   0.000000
    18  H    1.098674   1.760334   0.000000
    19  C    3.426188   3.091815   3.015908   0.000000
    20  H    2.862754   2.453711   2.383245   1.088859   0.000000
    21  H    4.363908   4.094568   3.769448   1.092341   1.770355
    22  H    3.878234   3.290587   3.737184   1.094052   1.755262
                   21         22
    21  H    0.000000
    22  H    1.761820   0.000000
 Stoichiometry    C6H15N
 Framework group  C1[X(C6H15N)]
 Deg. of freedom    60
 Full point group                 C1      NOp   1
 Largest Abelian subgroup         C1      NOp   1
 Largest concise Abelian subgroup C1      NOp   1
                         Standard orientation:                         
 ---------------------------------------------------------------------
 Center     Atomic      Atomic             Coordinates (Angstroms)
 Number     Number       Type             X           Y           Z
 ---------------------------------------------------------------------
      1          6           0       -1.610767    0.707029   -0.115950
      2          1           0       -1.374614    1.127202    0.862941
      3          1           0       -2.082638    1.514493   -0.677722
      4          6           0       -0.321333    0.336719   -0.846520
      5          1           0       -0.499309   -0.510647   -1.509006
      6          1           0        0.026773    1.171885   -1.456229
      7          7           0        0.837005   -0.072039    0.039016
      8          6           0        1.371131    1.119553    0.740136
      9          1           0        2.225999    0.799814    1.326524
     10          1           0        1.650008    1.891035    0.021234
     11          1           0        0.619944    1.506286    1.422671
     12          6           0        1.900793   -0.587677   -0.857778
     13          1           0        2.146928    0.150121   -1.624173
     14          1           0        2.764704   -0.829182   -0.248215
     15          1           0        1.545233   -1.502658   -1.325310
     16          6           0        0.575809   -1.145810    1.089466
     17          1           0        0.041125   -1.941670    0.549284
     18          1           0       -0.152630   -0.696336    1.778258
     19          6           0       -2.609101   -0.429951    0.048954
     20          1           0       -2.270938   -1.155280    0.787302
     21          1           0       -3.584124   -0.047722    0.359499
     22          1           0       -2.754683   -0.972234   -0.890026
 ---------------------------------------------------------------------
 Rotational constants (GHZ):           4.0979493           1.6511032           1.6028721
 Standard basis: 6-311+G(2d,2p) (5D, 7F)
 There are   338 symmetry adapted cartesian basis functions of A   symmetry.
 There are   324 symmetry adapted basis functions of A   symmetry.
   324 basis functions,   459 primitive gaussians,   338 cartesian basis functions
    29 alpha electrons       29 beta electrons
       nuclear repulsion energy       346.3121467411 Hartrees.
 NAtoms=   22 NActive=   22 NUniq=   22 SFac= 1.00D+00 NAtFMM=   60 NAOKFM=F Big=F
 Integral buffers will be    131072 words long.
 Raffenetti 2 integral format.
 Two-electron integral symmetry is turned on.
 Nuclear repulsion after empirical dispersion term =      346.2960716023 Hartrees.
 One-electron integrals computed using PRISM.
 NBasis=   324 RedAO= T EigKep=  2.59D-05  NBF=   324
 NBsUse=   324 1.00D-06 EigRej= -1.00D+00 NBFU=   324
 Initial guess from the checkpoint file:  "aminopropyl_ylide.chk"
 B after Tr=    -0.000000   -0.000000    0.000000
         Rot=    0.999982    0.003266   -0.004721   -0.001500 Ang=   0.68 deg.
 ExpMin= 4.38D-02 ExpMax= 6.29D+03 ExpMxC= 9.49D+02 IAcc=2 IRadAn=         4 AccDes= 0.00D+00
 Harris functional with IExCor= 4639 and IRadAn=       4 diagonalized for initial guess.
 HarFok:  IExCor= 4639 AccDes= 0.00D+00 IRadAn=         4 IDoV= 1 UseB2=F ITyADJ=14
 ICtDFT=  3500011 ScaDFX=  1.000000  1.000000  1.000000  1.000000
 FoFCou: FMM=F IPFlag=           0 FMFlag=      100000 FMFlg1=           0
         NFxFlg=           0 DoJE=T BraDBF=F KetDBF=T FulRan=T
         wScrn=  0.000000 ICntrl=       500 IOpCl=  0 I1Cent=   200000004 NGrid=           0
         NMat0=    1 NMatS0=      1 NMatT0=    0 NMatD0=    1 NMtDS0=    0 NMtDT0=    0
 Petite list used in FoFCou.
 Requested convergence on RMS density matrix=1.00D-08 within  32 cycles.
 Requested convergence on MAX density matrix=1.00D-06.
 Requested convergence on             energy=1.00D-06.
 No special actions if energy rises.
 SCF Done:  E(RwB97XD) =  -292.312715503     A.U. after   12 cycles
            NFock= 12  Conv=0.49D-08     -V/T= 2.0048
 QCSCF skips out because SCF is already converged.
 Calling FoFJK, ICntrl=      2127 FMM=F ISym2X=0 I1Cent= 0 IOpClX= 0 NMat=1 NMatS=1 NMatT=0.
 ***** Axes restored to original set *****
 -------------------------------------------------------------------
 Center     Atomic                   Forces (Hartrees/Bohr)
 Number     Number              X              Y              Z
 -------------------------------------------------------------------
      1        6          -0.000980066   -0.001393422    0.001705531
      2        1           0.000451690   -0.000211135   -0.000010223
      3        1          -0.000064893   -0.000851844   -0.000621404
      4        6          -0.000105338    0.001971998    0.000491231
      5        1          -0.000234193    0.000018112    0.000689408
      6        1           0.000838649   -0.000983149   -0.000388654
      7        7          -0.000536650    0.000032953   -0.000442576
      8        6          -0.000275223    0.000004023    0.000910917
      9        1          -0.000321811    0.000121749   -0.000790916
     10        1          -0.000011615    0.000316366   -0.000660159
     11        1           0.000647886   -0.000028713   -0.000908367
     12        6          -0.000718164    0.000090562   -0.000748596
     13        1           0.000417489    0.000305224    0.000475943
     14        1           0.000064490    0.000059130    0.000816063
     15        1           0.000675788    0.000175931    0.000657876
     16        6           0.001515897    0.001432755    0.000013647
     17        1          -0.001286012   -0.001544632    0.000618545
     18        1          -0.000871151   -0.000929596   -0.000702744
     19        6           0.001834288    0.003675448   -0.003199462
     20        1           0.000109371   -0.001040235    0.000381963
     21        1          -0.001512275   -0.000077512    0.000108518
     22        1           0.000361844   -0.001144014    0.001603461
 -------------------------------------------------------------------
 Cartesian Forces:  Max     0.003675448 RMS     0.001002365

 GradGradGradGradGradGradGradGradGradGradGradGradGradGradGradGradGradGrad
 Berny optimization.
 Using GEDIIS/GDIIS optimizer.
 FormGI is forming the generalized inverse of G from B-inverse, IUseBI=4.
 Internal  Forces:  Max     0.001945706 RMS     0.000613505
 Search for a local minimum.
 Step number   4 out of a maximum of  121
 All quantities printed in internal units (Hartrees-Bohrs-Radians)
 Mixed Optimization -- En-DIIS/RFO-DIIS
 Swapping is turned off.
 Update second derivatives using D2CorX and points    3    4
 DE= -1.21D-03 DEPred=-1.27D-03 R= 9.52D-01
 TightC=F SS=  1.41D+00  RLast= 7.07D-01 DXNew= 1.4270D+00 2.1217D+00
 Trust test= 9.52D-01 RLast= 7.07D-01 DXMaxT set to 1.43D+00
 ITU=  1  1  1  0
     Eigenvalues ---    0.00103   0.00275   0.00325   0.00431   0.00450
     Eigenvalues ---    0.00474   0.03274   0.03713   0.04374   0.04740
     Eigenvalues ---    0.04858   0.04913   0.05364   0.05419   0.05529
     Eigenvalues ---    0.05740   0.05748   0.06079   0.06095   0.06587
     Eigenvalues ---    0.08761   0.08898   0.12513   0.12744   0.14288
     Eigenvalues ---    0.15416   0.15827   0.15985   0.16000   0.16000
     Eigenvalues ---    0.16000   0.16000   0.16000   0.16000   0.16004
     Eigenvalues ---    0.16074   0.17369   0.21837   0.26333   0.28271
     Eigenvalues ---    0.29726   0.30778   0.32823   0.33170   0.33904
     Eigenvalues ---    0.34735   0.34828   0.34938   0.34989   0.35067
     Eigenvalues ---    0.35072   0.35126   0.35165   0.35211   0.35302
     Eigenvalues ---    0.35367   0.36559   0.37184   0.37279   0.37906
 En-DIIS/RFO-DIIS/Sim-DIIS IScMMF=       -3 using points:     4    3
 RFO step:  Lambda=-9.76482285D-04.
 DidBck=F Rises=F RFO-DIIS coefs:    2.22530   -1.22530
 Iteration  1 RMS(Cart)=  0.07199445 RMS(Int)=  0.03647699
 Iteration  2 RMS(Cart)=  0.03924151 RMS(Int)=  0.00222050
 Iteration  3 RMS(Cart)=  0.00229114 RMS(Int)=  0.00004303
 Iteration  4 RMS(Cart)=  0.00000539 RMS(Int)=  0.00004280
 Iteration  5 RMS(Cart)=  0.00000000 RMS(Int)=  0.00004280
 Variable       Old X    -DE/DX   Delta X   Delta X   Delta X     New X
                                 (Linear)    (Quad)   (Total)
    R1        2.06192  -0.00021   0.00409  -0.00255   0.00153   2.06345
    R2        2.06166   0.00047   0.00051   0.00156   0.00207   2.06373
    R3        2.88671  -0.00030   0.00138  -0.00317  -0.00178   2.88492
    R4        2.87623   0.00195  -0.03346   0.02093  -0.01253   2.86370
    R5        2.06023  -0.00070   0.00378  -0.00398  -0.00020   2.06003
    R6        2.06182   0.00092  -0.00779   0.00645  -0.00134   2.06047
    R7        2.86155   0.00048   0.00506  -0.00367   0.00139   2.86294
    R8        2.80085  -0.00145   0.00234  -0.00602  -0.00367   2.79717
    R9        2.80404  -0.00133   0.00271  -0.00520  -0.00249   2.80155
   R10        2.88123  -0.00094   0.01281  -0.00841   0.00440   2.88563
   R11        2.05006   0.00020   0.00088   0.00015   0.00103   2.05108
   R12        2.06125  -0.00033  -0.00006  -0.00099  -0.00104   2.06021
   R13        2.05251  -0.00026   0.00239  -0.00180   0.00058   2.05309
   R14        2.06343  -0.00028   0.00100  -0.00119  -0.00019   2.06324
   R15        2.04949   0.00016   0.00062   0.00000   0.00062   2.05011
   R16        2.05468  -0.00037   0.00198  -0.00205  -0.00007   2.05461
   R17        2.07962  -0.00155   0.00698  -0.00764  -0.00066   2.07897
   R18        2.07619  -0.00134   0.00739  -0.00609   0.00129   2.07749
   R19        2.05764  -0.00089  -0.00100  -0.00128  -0.00228   2.05537
   R20        2.06423  -0.00127   0.00140  -0.00434  -0.00294   2.06129
   R21        2.06746  -0.00125   0.00551  -0.00567  -0.00016   2.06730
    A1        1.84477  -0.00001  -0.00138   0.00363   0.00230   1.84707
    A2        1.91742   0.00013   0.00832  -0.00410   0.00419   1.92161
    A3        1.90967   0.00033   0.01103  -0.00357   0.00745   1.91712
    A4        1.87365  -0.00015   0.00002  -0.00099  -0.00109   1.87256
    A5        1.90178   0.00025  -0.01705   0.01312  -0.00397   1.89781
    A6        2.00909  -0.00051  -0.00141  -0.00689  -0.00838   2.00070
    A7        1.91902   0.00002   0.00050  -0.00003   0.00023   1.91925
    A8        1.92944  -0.00083  -0.00516   0.00150  -0.00366   1.92578
    A9        2.01690   0.00090   0.01282  -0.00955   0.00315   2.02004
   A10        1.88331   0.00002   0.00355  -0.00317   0.00051   1.88383
   A11        1.84463  -0.00047   0.01736  -0.01356   0.00371   1.84834
   A12        1.86436   0.00034  -0.02882   0.02491  -0.00385   1.86051
   A13        1.91270  -0.00023  -0.00468   0.00074  -0.00394   1.90876
   A14        1.86374   0.00046  -0.00395   0.00723   0.00328   1.86702
   A15        2.05101   0.00007   0.01384  -0.00951   0.00434   2.05534
   A16        1.88275  -0.00021   0.00168  -0.00104   0.00062   1.88337
   A17        1.87761   0.00027  -0.00402   0.00306  -0.00096   1.87666
   A18        1.86971  -0.00039  -0.00342  -0.00005  -0.00348   1.86622
   A19        1.87834  -0.00075   0.00576  -0.00744  -0.00170   1.87664
   A20        1.92729  -0.00063   0.00356  -0.00642  -0.00287   1.92442
   A21        1.91164  -0.00105   0.00529  -0.00900  -0.00372   1.90792
   A22        1.94254   0.00057  -0.00353   0.00416   0.00062   1.94316
   A23        1.88627   0.00110  -0.00843   0.01359   0.00516   1.89143
   A24        1.91682   0.00074  -0.00254   0.00505   0.00249   1.91930
   A25        1.92943  -0.00066   0.00219  -0.00529  -0.00311   1.92632
   A26        1.88469  -0.00069   0.00682  -0.00766  -0.00086   1.88384
   A27        1.89428  -0.00096   0.00421  -0.00802  -0.00382   1.89046
   A28        1.94485   0.00059  -0.00205   0.00395   0.00189   1.94674
   A29        1.91826   0.00074  -0.00239   0.00534   0.00294   1.92121
   A30        1.89102   0.00094  -0.00864   0.01147   0.00282   1.89384
   A31        1.82798  -0.00165   0.00481  -0.01322  -0.00843   1.81955
   A32        1.83112  -0.00059  -0.00141  -0.00433  -0.00576   1.82536
   A33        1.85611   0.00104  -0.02187   0.01807  -0.00386   1.85225
   A34        1.94698  -0.00056   0.00284  -0.00526  -0.00242   1.94456
   A35        1.93359  -0.00021  -0.00131  -0.00162  -0.00296   1.93063
   A36        1.94396  -0.00123   0.00209  -0.00929  -0.00722   1.93674
   A37        1.89392   0.00026   0.00303  -0.00160   0.00142   1.89534
   A38        1.86829   0.00124   0.00003   0.01270   0.01273   1.88102
   A39        1.87409   0.00061  -0.00692   0.00605  -0.00090   1.87318
    D1        2.61402   0.00010   0.01820  -0.02856  -0.01036   2.60366
    D2       -1.59155  -0.00038   0.01969  -0.03156  -0.01186  -1.60341
    D3        0.52824   0.00008  -0.01328  -0.00428  -0.01756   0.51068
    D4       -1.67125   0.00007   0.02079  -0.02690  -0.00610  -1.67735
    D5        0.40636  -0.00041   0.02229  -0.02989  -0.00760   0.39876
    D6        2.52615   0.00005  -0.01068  -0.00262  -0.01331   2.51285
    D7        0.44928  -0.00006  -0.00208  -0.01529  -0.01737   0.43191
    D8        2.52689  -0.00054  -0.00059  -0.01829  -0.01887   2.50802
    D9       -1.63650  -0.00008  -0.03356   0.00899  -0.02457  -1.66108
   D10       -0.90595  -0.00011  -0.29187  -0.02880  -0.32068  -1.22663
   D11        1.20598  -0.00031  -0.28699  -0.03553  -0.32255   0.88343
   D12       -2.99239  -0.00048  -0.29521  -0.03509  -0.33031   2.96048
   D13       -2.91510  -0.00042  -0.28694  -0.03840  -0.32529   3.04279
   D14       -0.80318  -0.00061  -0.28206  -0.04513  -0.32716  -1.13033
   D15        1.28164  -0.00079  -0.29028  -0.04469  -0.33492   0.94672
   D16        1.26287  -0.00006  -0.27307  -0.04228  -0.31537   0.94750
   D17       -2.90839  -0.00026  -0.26820  -0.04901  -0.31724   3.05756
   D18       -0.82357  -0.00043  -0.27642  -0.04857  -0.32500  -1.14858
   D19       -1.25793   0.00020  -0.00069   0.04162   0.04099  -1.21694
   D20        2.99037   0.00032   0.00194   0.03850   0.04050   3.03086
   D21        0.89144   0.00042   0.00043   0.03914   0.03963   0.93107
   D22        2.89912  -0.00004  -0.02159   0.05764   0.03595   2.93508
   D23        0.86423   0.00007  -0.01896   0.05452   0.03546   0.89969
   D24       -1.23469   0.00018  -0.02047   0.05516   0.03459  -1.20010
   D25        0.89649   0.00001  -0.02099   0.05633   0.03539   0.93188
   D26       -1.13840   0.00012  -0.01836   0.05321   0.03490  -1.10350
   D27        3.04586   0.00022  -0.01987   0.05386   0.03403   3.07989
   D28       -3.09528   0.00001  -0.00489  -0.01643  -0.02132  -3.11660
   D29       -0.97180  -0.00014  -0.00345  -0.01991  -0.02335  -0.99515
   D30        1.14128  -0.00030  -0.00094  -0.02356  -0.02449   1.11679
   D31       -1.07242   0.00032  -0.01115  -0.00803  -0.01918  -1.09160
   D32        1.05107   0.00016  -0.00971  -0.01151  -0.02121   1.02985
   D33       -3.11904   0.00000  -0.00719  -0.01516  -0.02235  -3.14139
   D34        0.93926  -0.00010  -0.01634  -0.00706  -0.02341   0.91585
   D35        3.06275  -0.00026  -0.01489  -0.01054  -0.02544   3.03730
   D36       -1.10736  -0.00041  -0.01238  -0.01420  -0.02658  -1.13394
   D37        0.94958  -0.00012  -0.02348   0.00196  -0.02152   0.92806
   D38        3.08128  -0.00025  -0.02027  -0.00139  -0.02166   3.05962
   D39       -1.15549  -0.00003  -0.02454   0.00371  -0.02083  -1.17633
   D40       -1.10511   0.00002  -0.01680  -0.00215  -0.01895  -1.12406
   D41        1.02659  -0.00011  -0.01359  -0.00550  -0.01909   1.00750
   D42        3.07300   0.00011  -0.01786  -0.00040  -0.01826   3.05474
   D43       -3.12199   0.00000  -0.01122  -0.00516  -0.01639  -3.13838
   D44       -0.99029  -0.00012  -0.00802  -0.00851  -0.01653  -1.00682
   D45        1.05612   0.00010  -0.01228  -0.00342  -0.01570   1.04042
   D46        0.82661   0.00051  -0.05726   0.14184   0.08460   0.91122
   D47       -1.12453   0.00023  -0.03441   0.12873   0.09430  -1.03023
   D48        2.99371   0.00047  -0.05676   0.13842   0.08168   3.07538
   D49        1.04257   0.00020  -0.03390   0.12530   0.09137   1.13394
   D50       -1.26918   0.00017  -0.05853   0.13870   0.08019  -1.18899
   D51        3.06286  -0.00011  -0.03568   0.12558   0.08988  -3.13044
         Item               Value     Threshold  Converged?
 Maximum Force            0.001946     0.000450     NO 
 RMS     Force            0.000614     0.000300     NO 
 Maximum Displacement     0.555558     0.001800     NO 
 RMS     Displacement     0.105472     0.001200     NO 
 Predicted change in Energy=-8.188034D-04
 GradGradGradGradGradGradGradGradGradGradGradGradGradGradGradGradGradGrad

                          Input orientation:                          
 ---------------------------------------------------------------------
 Center     Atomic      Atomic             Coordinates (Angstroms)
 Number     Number       Type             X           Y           Z
 ---------------------------------------------------------------------
      1          6           0        0.618849   -0.755261    0.293929
      2          1           0        0.279128   -0.492814    1.297932
      3          1           0        1.364232   -1.542093    0.427843
      4          6           0       -0.532892   -1.353414   -0.510015
      5          1           0       -0.409906   -1.118926   -1.567493
      6          1           0       -0.544282   -2.438725   -0.405866
      7          7           0       -1.918375   -0.868129   -0.135619
      8          6           0       -2.279772   -1.397186    1.198729
      9          1           0       -3.284090   -1.053663    1.425449
     10          1           0       -2.222939   -2.485918    1.201261
     11          1           0       -1.601933   -0.988550    1.942987
     12          6           0       -2.860593   -1.443932   -1.124826
     13          1           0       -2.735402   -2.526980   -1.183215
     14          1           0       -3.867369   -1.175034   -0.823092
     15          1           0       -2.658079   -0.992080   -2.092783
     16          6           0       -2.162442    0.639098   -0.114186
     17          1           0       -1.813430    0.984024   -1.098832
     18          1           0       -1.440082    1.026133    0.618610
     19          6           0        1.285699    0.442008   -0.352840
     20          1           0        0.561611    1.215926   -0.597245
     21          1           0        2.038800    0.867632    0.311614
     22          1           0        1.792916    0.154867   -1.278609
 ---------------------------------------------------------------------
                    Distance matrix (angstroms):
                    1          2          3          4          5
     1  C    0.000000
     2  H    1.091930   0.000000
     3  H    1.092078   1.742267   0.000000
     4  C    1.526636   2.160714   2.124678   0.000000
     5  H    2.157655   3.012880   2.703331   1.090123   0.000000
     6  H    2.162553   2.714314   2.267475   1.090356   1.763321
     7  N    2.575802   2.650463   3.398121   1.515004   2.094908
     8  C    3.103664   2.715824   3.727469   2.444036   3.350493
     9  H    4.074593   3.609340   4.779192   3.377123   4.150047
    10  H    3.448794   3.200336   3.789034   2.658438   3.580748
    11  H    2.775912   2.049449   3.376420   2.700592   3.709635
    12  C    3.820163   4.078264   4.502173   2.409228   2.511464
    13  H    4.070864   4.402422   4.513591   2.584861   2.745582
    14  H    4.642207   4.707187   5.391588   3.353889   3.537136
    15  H    4.060878   4.513691   4.778604   2.674348   2.312208
    16  C    3.137893   3.039172   4.181963   2.604269   2.876479
    17  H    3.298617   3.507753   4.336997   2.729487   2.571366
    18  H    2.741893   2.392564   3.807408   2.785504   3.231344
    19  C    1.515405   2.147586   2.133609   2.560374   2.605182
    20  H    2.164034   2.567350   3.049865   2.794110   2.708645
    21  H    2.156468   2.433121   2.505060   3.495957   3.670642
    22  H    2.163248   3.057713   2.444467   2.876635   2.560943
                    6          7          8          9         10
     6  H    0.000000
     7  N    2.104266   0.000000
     8  C    2.582915   1.480200   0.000000
     9  H    3.574725   2.082434   1.085387   0.000000
    10  H    2.324430   2.120671   1.090217   1.796567   0.000000
    11  H    2.956136   2.106000   1.086448   1.761174   1.782671
    12  C    2.621415   1.482516   2.395506   2.614491   2.627360
    13  H    2.326600   2.125270   2.675385   3.045791   2.439268
    14  H    3.579651   2.089351   2.580227   2.326130   2.919001
    15  H    3.067020   2.095953   3.337855   3.574023   3.643025
    16  C    3.489486   1.527011   2.425688   2.548335   3.391133
    17  H    3.715663   2.090279   3.341620   3.561883   4.183136
    18  H    3.722532   2.094243   2.629466   2.894289   3.645113
    19  C    3.413248   3.468391   4.301463   5.126628   4.826854
    20  H    3.823100   3.272112   4.257620   4.902218   4.969103
    21  H    4.256651   4.344205   4.956453   5.767595   5.495469
    22  H    3.598735   4.015798   5.013268   5.877794   5.408382
                   11         12         13         14         15
    11  H    0.000000
    12  C    3.347099   0.000000
    13  H    3.663967   1.091822   0.000000
    14  H    3.580246   1.084872   1.799665   0.000000
    15  H    4.171678   1.087255   1.785836   1.762944   0.000000
    16  C    2.682418   2.418227   3.390450   2.588513   2.611751
    17  H    3.631589   2.644276   3.631020   2.992697   2.367775
    18  H    2.416427   3.340455   4.189157   3.579855   3.592819
    19  C    3.956733   4.620008   5.066919   5.421261   4.542840
    20  H    3.999176   4.366310   5.022250   5.038210   4.180709
    21  H    4.400196   5.604528   6.045734   6.351603   5.594669
    22  H    4.817788   4.922901   5.263750   5.832235   4.667947
                   16         17         18         19         20
    16  C    0.000000
    17  H    1.100141   0.000000
    18  H    1.099359   1.758058   0.000000
    19  C    3.462005   3.233402   2.952084   0.000000
    20  H    2.826046   2.438480   2.349701   1.087652   0.000000
    21  H    4.228943   4.103971   3.495996   1.090787   1.769017
    22  H    4.151532   3.704801   3.848483   1.093968   1.762446
                   21         22
    21  H    0.000000
    22  H    1.759915   0.000000
 Stoichiometry    C6H15N
 Framework group  C1[X(C6H15N)]
 Deg. of freedom    60
 Full point group                 C1      NOp   1
 Largest Abelian subgroup         C1      NOp   1
 Largest concise Abelian subgroup C1      NOp   1
                         Standard orientation:                         
 ---------------------------------------------------------------------
 Center     Atomic      Atomic             Coordinates (Angstroms)
 Number     Number       Type             X           Y           Z
 ---------------------------------------------------------------------
      1          6           0       -1.615271    0.699131   -0.102807
      2          1           0       -1.378548    1.112979    0.879540
      3          1           0       -2.086618    1.510153   -0.662012
      4          6           0       -0.330556    0.327270   -0.838907
      5          1           0       -0.511767   -0.521733   -1.498244
      6          1           0        0.010005    1.161994   -1.452202
      7          7           0        0.838774   -0.070601    0.038364
      8          6           0        1.334837    1.119944    0.764666
      9          1           0        2.185290    0.807354    1.362229
     10          1           0        1.612162    1.903902    0.059632
     11          1           0        0.559627    1.480914    1.434829
     12          6           0        1.918398   -0.536402   -0.864574
     13          1           0        2.129303    0.217725   -1.625420
     14          1           0        2.793393   -0.746382   -0.258572
     15          1           0        1.594638   -1.461350   -1.335502
     16          6           0        0.612208   -1.175716    1.067515
     17          1           0        0.181579   -2.003895    0.485286
     18          1           0       -0.198752   -0.797332    1.706074
     19          6           0       -2.610487   -0.434362    0.042766
     20          1           0       -2.154726   -1.305774    0.507429
     21          1           0       -3.462003   -0.122375    0.648901
     22          1           0       -2.999775   -0.741161   -0.932475
 ---------------------------------------------------------------------
 Rotational constants (GHZ):           4.1075125           1.6501781           1.6000539
 Standard basis: 6-311+G(2d,2p) (5D, 7F)
 There are   338 symmetry adapted cartesian basis functions of A   symmetry.
 There are   324 symmetry adapted basis functions of A   symmetry.
   324 basis functions,   459 primitive gaussians,   338 cartesian basis functions
    29 alpha electrons       29 beta electrons
       nuclear repulsion energy       346.4603236487 Hartrees.
 NAtoms=   22 NActive=   22 NUniq=   22 SFac= 1.00D+00 NAtFMM=   60 NAOKFM=F Big=F
 Integral buffers will be    131072 words long.
 Raffenetti 2 integral format.
 Two-electron integral symmetry is turned on.
 Nuclear repulsion after empirical dispersion term =      346.4442760243 Hartrees.
 One-electron integrals computed using PRISM.
 NBasis=   324 RedAO= T EigKep=  2.59D-05  NBF=   324
 NBsUse=   324 1.00D-06 EigRej= -1.00D+00 NBFU=   324
 Initial guess from the checkpoint file:  "aminopropyl_ylide.chk"
 B after Tr=     0.000000    0.000000    0.000000
         Rot=    0.999884   -0.014117   -0.001260   -0.005607 Ang=  -1.75 deg.
 ExpMin= 4.38D-02 ExpMax= 6.29D+03 ExpMxC= 9.49D+02 IAcc=2 IRadAn=         4 AccDes= 0.00D+00
 Harris functional with IExCor= 4639 and IRadAn=       4 diagonalized for initial guess.
 HarFok:  IExCor= 4639 AccDes= 0.00D+00 IRadAn=         4 IDoV= 1 UseB2=F ITyADJ=14
 ICtDFT=  3500011 ScaDFX=  1.000000  1.000000  1.000000  1.000000
 FoFCou: FMM=F IPFlag=           0 FMFlag=      100000 FMFlg1=           0
         NFxFlg=           0 DoJE=T BraDBF=F KetDBF=T FulRan=T
         wScrn=  0.000000 ICntrl=       500 IOpCl=  0 I1Cent=   200000004 NGrid=           0
         NMat0=    1 NMatS0=      1 NMatT0=    0 NMatD0=    1 NMtDS0=    0 NMtDT0=    0
 Petite list used in FoFCou.
 Requested convergence on RMS density matrix=1.00D-08 within  32 cycles.
 Requested convergence on MAX density matrix=1.00D-06.
 Requested convergence on             energy=1.00D-06.
 No special actions if energy rises.
 SCF Done:  E(RwB97XD) =  -292.312950195     A.U. after   12 cycles
            NFock= 12  Conv=0.99D-08     -V/T= 2.0047
 QCSCF skips out because SCF is already converged.
 Calling FoFJK, ICntrl=      2127 FMM=F ISym2X=0 I1Cent= 0 IOpClX= 0 NMat=1 NMatS=1 NMatT=0.
 ***** Axes restored to original set *****
 -------------------------------------------------------------------
 Center     Atomic                   Forces (Hartrees/Bohr)
 Number     Number              X              Y              Z
 -------------------------------------------------------------------
      1        6          -0.001761412   -0.003547272    0.003139288
      2        1           0.000205205   -0.000034633   -0.001184895
      3        1          -0.000551539   -0.000144340    0.000843929
      4        6          -0.000754117    0.000724026   -0.000239873
      5        1          -0.000611915    0.000158310    0.000432944
      6        1           0.000703160   -0.001453228   -0.000574156
      7        7          -0.000026279    0.000720084   -0.000772848
      8        6          -0.000683457    0.000085543    0.001545130
      9        1           0.000246347    0.000021188   -0.000593327
     10        1           0.000364135   -0.000297092   -0.000110329
     11        1          -0.000491045   -0.000272810   -0.000566992
     12        6          -0.000074756    0.000219844   -0.000647946
     13        1          -0.000142069    0.000491182    0.000340832
     14        1           0.000125264   -0.000038803    0.000440919
     15        1           0.000438048   -0.000335446    0.000303114
     16        6           0.002979723    0.000612777    0.000055846
     17        1          -0.000576386   -0.000724552    0.000394937
     18        1          -0.001908136   -0.000597491   -0.000151513
     19        6           0.003914247    0.003988005   -0.004147048
     20        1          -0.000156479    0.000342879    0.001050200
     21        1          -0.000269837    0.000234713   -0.000382461
     22        1          -0.000968700   -0.000152884    0.000824248
 -------------------------------------------------------------------
 Cartesian Forces:  Max     0.004147048 RMS     0.001263082

 GradGradGradGradGradGradGradGradGradGradGradGradGradGradGradGradGradGrad
 Berny optimization.
 Using GEDIIS/GDIIS optimizer.
 FormGI is forming the generalized inverse of G from B-inverse, IUseBI=4.
 Internal  Forces:  Max     0.005726826 RMS     0.000723226
 Search for a local minimum.
 Step number   5 out of a maximum of  121
 All quantities printed in internal units (Hartrees-Bohrs-Radians)
 Mixed Optimization -- En-DIIS/RFO-DIIS
 Swapping is turned off.
 Update second derivatives using D2CorX and points    4    5
 DE= -2.35D-04 DEPred=-8.19D-04 R= 2.87D-01
 Trust test= 2.87D-01 RLast= 1.01D+00 DXMaxT set to 1.43D+00
 ITU=  0  1  1  1  0
     Eigenvalues ---    0.00162   0.00278   0.00398   0.00440   0.00464
     Eigenvalues ---    0.00498   0.03297   0.03769   0.04365   0.04752
     Eigenvalues ---    0.04843   0.04994   0.05373   0.05484   0.05538
     Eigenvalues ---    0.05775   0.05781   0.06087   0.06115   0.06601
     Eigenvalues ---    0.08705   0.08895   0.12476   0.12734   0.14143
     Eigenvalues ---    0.15473   0.15593   0.15978   0.16000   0.16000
     Eigenvalues ---    0.16000   0.16000   0.16000   0.16001   0.16048
     Eigenvalues ---    0.16085   0.16892   0.21808   0.26399   0.28533
     Eigenvalues ---    0.29747   0.30768   0.32795   0.33190   0.33907
     Eigenvalues ---    0.34751   0.34828   0.34960   0.34998   0.35062
     Eigenvalues ---    0.35092   0.35124   0.35180   0.35211   0.35280
     Eigenvalues ---    0.35364   0.36026   0.37007   0.37267   0.37473
 En-DIIS/RFO-DIIS/Sim-DIIS IScMMF=       -3 using points:     5    4    3
 RFO step:  Lambda=-6.77174660D-04.
 DidBck=T Rises=F RFO-DIIS coefs:    0.56605    0.69237   -0.25841
 Iteration  1 RMS(Cart)=  0.04080589 RMS(Int)=  0.00090547
 Iteration  2 RMS(Cart)=  0.00108479 RMS(Int)=  0.00001494
 Iteration  3 RMS(Cart)=  0.00000096 RMS(Int)=  0.00001492
 Variable       Old X    -DE/DX   Delta X   Delta X   Delta X     New X
                                 (Linear)    (Quad)   (Total)
    R1        2.06345  -0.00116   0.00020  -0.00260  -0.00240   2.06105
    R2        2.06373  -0.00017  -0.00079   0.00035  -0.00044   2.06329
    R3        2.88492   0.00065   0.00107   0.00003   0.00110   2.88602
    R4        2.86370   0.00573  -0.00162   0.01847   0.01686   2.88056
    R5        2.06003  -0.00045   0.00088  -0.00222  -0.00134   2.05869
    R6        2.06047   0.00138  -0.00106   0.00432   0.00326   2.06373
    R7        2.86294  -0.00020   0.00046  -0.00153  -0.00107   2.86188
    R8        2.79717   0.00055   0.00209  -0.00124   0.00085   2.79802
    R9        2.80155  -0.00064   0.00165  -0.00279  -0.00114   2.80041
   R10        2.88563  -0.00077   0.00079  -0.00476  -0.00397   2.88166
   R11        2.05108  -0.00035  -0.00026  -0.00026  -0.00052   2.05056
   R12        2.06021   0.00032   0.00044  -0.00014   0.00030   2.06051
   R13        2.05309  -0.00080   0.00025  -0.00185  -0.00160   2.05149
   R14        2.06324  -0.00052   0.00029  -0.00144  -0.00115   2.06209
   R15        2.05011  -0.00000  -0.00014   0.00017   0.00003   2.05014
   R16        2.05461  -0.00033   0.00045  -0.00128  -0.00084   2.05378
   R17        2.07897  -0.00076   0.00176  -0.00472  -0.00297   2.07600
   R18        2.07749  -0.00156   0.00100  -0.00531  -0.00431   2.07317
   R19        2.05537   0.00011   0.00078  -0.00149  -0.00071   2.05465
   R20        2.06129  -0.00033   0.00157  -0.00335  -0.00178   2.05951
   R21        2.06730  -0.00111   0.00123  -0.00487  -0.00364   2.06366
    A1        1.84707  -0.00032  -0.00129   0.00042  -0.00085   1.84622
    A2        1.92161   0.00053  -0.00006   0.00119   0.00111   1.92272
    A3        1.91712   0.00025  -0.00091   0.00067  -0.00024   1.91688
    A4        1.87256  -0.00005   0.00048  -0.00194  -0.00149   1.87107
    A5        1.89781   0.00070  -0.00187   0.00586   0.00399   1.90180
    A6        2.00070  -0.00106   0.00334  -0.00571  -0.00239   1.99832
    A7        1.91925  -0.00022   0.00001  -0.00295  -0.00302   1.91623
    A8        1.92578  -0.00020   0.00050   0.00179   0.00225   1.92804
    A9        2.02004   0.00082   0.00134   0.00095   0.00223   2.02227
   A10        1.88383  -0.00002   0.00053  -0.00346  -0.00288   1.88095
   A11        1.84834  -0.00069   0.00205  -0.00903  -0.00700   1.84135
   A12        1.86051   0.00026  -0.00441   0.01233   0.00792   1.86843
   A13        1.90876   0.00073   0.00072   0.00422   0.00495   1.91371
   A14        1.86702  -0.00022  -0.00226   0.00167  -0.00059   1.86644
   A15        2.05534  -0.00035   0.00104  -0.00601  -0.00498   2.05036
   A16        1.88337  -0.00043   0.00009  -0.00241  -0.00233   1.88104
   A17        1.87666  -0.00006  -0.00043   0.00273   0.00231   1.87897
   A18        1.86622   0.00029   0.00079  -0.00028   0.00050   1.86672
   A19        1.87664  -0.00070   0.00195  -0.00555  -0.00360   1.87304
   A20        1.92442  -0.00019   0.00200  -0.00419  -0.00219   1.92223
   A21        1.90792   0.00010   0.00273  -0.00356  -0.00082   1.90710
   A22        1.94316   0.00043  -0.00101   0.00324   0.00222   1.94538
   A23        1.89143   0.00032  -0.00402   0.00759   0.00357   1.89500
   A24        1.91930   0.00004  -0.00161   0.00238   0.00077   1.92007
   A25        1.92632  -0.00017   0.00181  -0.00418  -0.00236   1.92396
   A26        1.88384  -0.00046   0.00181  -0.00478  -0.00297   1.88086
   A27        1.89046  -0.00021   0.00255  -0.00377  -0.00122   1.88924
   A28        1.94674   0.00014  -0.00125   0.00158   0.00032   1.94706
   A29        1.92121   0.00017  -0.00178   0.00289   0.00111   1.92232
   A30        1.89384   0.00053  -0.00305   0.00815   0.00510   1.89895
   A31        1.81955  -0.00067   0.00467  -0.00577  -0.00110   1.81846
   A32        1.82536   0.00048   0.00220   0.00181   0.00401   1.82937
   A33        1.85225   0.00072  -0.00294   0.01391   0.01098   1.86323
   A34        1.94456  -0.00049   0.00165  -0.00506  -0.00341   1.94115
   A35        1.93063   0.00067   0.00101   0.00049   0.00151   1.93213
   A36        1.93674  -0.00065   0.00357  -0.00616  -0.00259   1.93415
   A37        1.89534  -0.00038   0.00002  -0.00262  -0.00259   1.89274
   A38        1.88102   0.00066  -0.00552   0.00903   0.00351   1.88453
   A39        1.87318   0.00022  -0.00107   0.00492   0.00386   1.87704
    D1        2.60366  -0.00025   0.00833  -0.03479  -0.02645   2.57721
    D2       -1.60341  -0.00053   0.00930  -0.03979  -0.03049  -1.63390
    D3        0.51068   0.00024   0.00482  -0.02135  -0.01653   0.49414
    D4       -1.67735  -0.00038   0.00703  -0.03474  -0.02770  -1.70505
    D5        0.39876  -0.00067   0.00800  -0.03974  -0.03174   0.36702
    D6        2.51285   0.00011   0.00352  -0.02131  -0.01778   2.49507
    D7        0.43191  -0.00021   0.00710  -0.03232  -0.02522   0.40669
    D8        2.50802  -0.00049   0.00807  -0.03732  -0.02926   2.47876
    D9       -1.66108   0.00028   0.00359  -0.01889  -0.01530  -1.67638
   D10       -1.22663   0.00042   0.07761   0.00381   0.08141  -1.14522
   D11        0.88343   0.00006   0.07944  -0.00258   0.07686   0.96029
   D12        2.96048   0.00035   0.08108  -0.00008   0.08099   3.04147
   D13        3.04279   0.00027   0.08065  -0.00035   0.08032   3.12311
   D14       -1.13033  -0.00009   0.08248  -0.00673   0.07577  -1.05456
   D15        0.94672   0.00021   0.08412  -0.00423   0.07990   1.02662
   D16        0.94750   0.00053   0.07927   0.00164   0.08090   1.02840
   D17        3.05756   0.00017   0.08110  -0.00475   0.07636   3.13391
   D18       -1.14858   0.00047   0.08274  -0.00225   0.08048  -1.06809
   D19       -1.21694  -0.00065  -0.01793  -0.02069  -0.03861  -1.25554
   D20        3.03086  -0.00040  -0.01717  -0.02094  -0.03810   2.99277
   D21        0.93107  -0.00037  -0.01711  -0.01792  -0.03502   0.89605
   D22        2.93508  -0.00038  -0.02015  -0.01076  -0.03094   2.90413
   D23        0.89969  -0.00013  -0.01939  -0.01101  -0.03043   0.86926
   D24       -1.20010  -0.00011  -0.01933  -0.00799  -0.02736  -1.22746
   D25        0.93188  -0.00016  -0.01978  -0.00823  -0.02799   0.90389
   D26       -1.10350   0.00009  -0.01902  -0.00849  -0.02748  -1.13098
   D27        3.07989   0.00011  -0.01896  -0.00547  -0.02440   3.05549
   D28       -3.11660   0.00016   0.00822   0.00323   0.01146  -3.10514
   D29       -0.99515   0.00013   0.00941   0.00120   0.01062  -0.98453
   D30        1.11679   0.00013   0.01043  -0.00077   0.00966   1.12646
   D31       -1.09160   0.00006   0.00597   0.00614   0.01211  -1.07949
   D32        1.02985   0.00003   0.00716   0.00411   0.01127   1.04112
   D33       -3.14139   0.00002   0.00818   0.00213   0.01031  -3.13108
   D34        0.91585   0.00014   0.00671   0.00598   0.01269   0.92854
   D35        3.03730   0.00011   0.00790   0.00395   0.01185   3.04915
   D36       -1.13394   0.00011   0.00892   0.00198   0.01090  -1.12305
   D37        0.92806   0.00047   0.00439   0.01306   0.01744   0.94550
   D38        3.05962   0.00024   0.00512   0.00937   0.01450   3.07412
   D39       -1.17633   0.00050   0.00386   0.01440   0.01827  -1.15806
   D40       -1.12406  -0.00005   0.00468   0.00848   0.01316  -1.11090
   D41        1.00750  -0.00028   0.00542   0.00479   0.01021   1.01771
   D42        3.05474  -0.00002   0.00416   0.00982   0.01398   3.06872
   D43       -3.13838   0.00010   0.00474   0.00663   0.01137  -3.12701
   D44       -1.00682  -0.00014   0.00548   0.00294   0.00842  -0.99840
   D45        1.04042   0.00012   0.00422   0.00798   0.01220   1.05261
   D46        0.91122  -0.00022  -0.04879   0.01066  -0.03813   0.87309
   D47       -1.03023  -0.00094  -0.04818  -0.00312  -0.05130  -1.08153
   D48        3.07538   0.00046  -0.04741   0.01425  -0.03317   3.04222
   D49        1.13394  -0.00026  -0.04680   0.00047  -0.04633   1.08760
   D50       -1.18899   0.00007  -0.04714   0.01266  -0.03448  -1.22348
   D51       -3.13044  -0.00065  -0.04653  -0.00112  -0.04765   3.10510
         Item               Value     Threshold  Converged?
 Maximum Force            0.005727     0.000450     NO 
 RMS     Force            0.000723     0.000300     NO 
 Maximum Displacement     0.158617     0.001800     NO 
 RMS     Displacement     0.040707     0.001200     NO 
 Predicted change in Energy=-3.629547D-04
 GradGradGradGradGradGradGradGradGradGradGradGradGradGradGradGradGradGrad

                          Input orientation:                          
 ---------------------------------------------------------------------
 Center     Atomic      Atomic             Coordinates (Angstroms)
 Number     Number       Type             X           Y           Z
 ---------------------------------------------------------------------
      1          6           0        0.618970   -0.733562    0.300323
      2          1           0        0.275983   -0.435116    1.291700
      3          1           0        1.359877   -1.518207    0.466198
      4          6           0       -0.530364   -1.357058   -0.488776
      5          1           0       -0.412648   -1.135818   -1.548974
      6          1           0       -0.528448   -2.442948   -0.372673
      7          7           0       -1.919210   -0.874103   -0.126297
      8          6           0       -2.305213   -1.415837    1.196519
      9          1           0       -3.316068   -1.078581    1.401199
     10          1           0       -2.241542   -2.504332    1.189467
     11          1           0       -1.644697   -1.009969    1.956464
     12          6           0       -2.848646   -1.436511   -1.134223
     13          1           0       -2.734702   -2.520353   -1.189422
     14          1           0       -3.856723   -1.155712   -0.848018
     15          1           0       -2.619635   -0.986657   -2.096693
     16          6           0       -2.154670    0.632211   -0.095840
     17          1           0       -1.755543    0.986640   -1.056016
     18          1           0       -1.480005    1.005887    0.684396
     19          6           0        1.293046    0.446247   -0.390500
     20          1           0        0.581815    1.243937   -0.590515
     21          1           0        2.096070    0.847207    0.227678
     22          1           0        1.732004    0.139619   -1.342263
 ---------------------------------------------------------------------
                    Distance matrix (angstroms):
                    1          2          3          4          5
     1  C    0.000000
     2  H    1.090659   0.000000
     3  H    1.091845   1.740507   0.000000
     4  C    1.527218   2.161081   2.123902   0.000000
     5  H    2.155446   3.005765   2.710901   1.089414   0.000000
     6  H    2.165986   2.729219   2.263763   1.092081   1.762295
     7  N    2.577618   2.649962   3.393867   1.514440   2.088596
     8  C    3.133610   2.762870   3.738547   2.448216   3.346333
     9  H    4.100669   3.650872   4.788732   3.377825   4.139643
    10  H    3.479760   3.260374   3.803391   2.657229   3.566054
    11  H    2.818402   2.112198   3.392147   2.709503   3.717778
    12  C    3.817908   4.080589   4.503298   2.407768   2.489281
    13  H    4.081554   4.423619   4.528902   2.589066   2.727297
    14  H    4.639906   4.709237   5.391797   3.351754   3.514738
    15  H    4.037116   4.491103   4.763137   2.662263   2.278824
    16  C    3.116948   2.995419   4.158393   2.598069   2.876137
    17  H    3.230645   3.414713   4.277527   2.704763   2.559531
    18  H    2.752978   2.351341   3.805731   2.803865   3.273238
    19  C    1.524324   2.154301   2.144173   2.566397   2.598919
    20  H    2.169211   2.540765   3.058017   2.830631   2.751515
    21  H    2.164702   2.467633   2.488786   3.502892   3.658216
    22  H    2.167805   3.063997   2.481410   2.843729   2.503797
                    6          7          8          9         10
     6  H    0.000000
     7  N    2.110970   0.000000
     8  C    2.583450   1.480647   0.000000
     9  H    3.574765   2.079968   1.085110   0.000000
    10  H    2.319211   2.119618   1.090378   1.797832   0.000000
    11  H    2.953696   2.105163   1.085600   1.762529   1.782590
    12  C    2.641248   1.481914   2.393346   2.602876   2.628374
    13  H    2.353854   2.122592   2.664043   3.021259   2.429522
    14  H    3.600047   2.086657   2.579725   2.314570   2.928981
    15  H    3.076701   2.094211   3.335910   3.567732   3.639386
    16  C    3.489676   1.524910   2.426388   2.552798   3.390791
    17  H    3.706048   2.086511   3.338854   3.569073   4.179147
    18  H    3.730592   2.093917   2.609212   2.868787   3.627213
    19  C    3.415495   3.483062   4.351259   5.174864   4.867805
    20  H    3.856587   3.310093   4.313099   4.955250   5.018884
    21  H    4.251310   4.383000   5.042948   5.863194   5.565315
    22  H    3.566427   3.979645   5.016371   5.873127   5.402703
                   11         12         13         14         15
    11  H    0.000000
    12  C    3.344215   0.000000
    13  H    3.655949   1.091212   0.000000
    14  H    3.574831   1.084887   1.799370   0.000000
    15  H    4.168828   1.086813   1.785666   1.765829   0.000000
    16  C    2.677458   2.416496   3.386889   2.580586   2.615404
    17  H    3.615767   2.659446   3.643563   3.007971   2.392397
    18  H    2.389342   3.338542   4.185669   3.559437   3.606029
    19  C    4.032262   4.609937   5.065742   5.412551   4.502597
    20  H    4.065040   4.387309   5.052510   5.052251   4.182512
    21  H    4.520082   5.614300   6.056814   6.372170   5.568091
    22  H    4.858524   4.848693   5.200988   5.758127   4.557897
                   16         17         18         19         20
    16  C    0.000000
    17  H    1.098572   0.000000
    18  H    1.097076   1.762193   0.000000
    19  C    3.465279   3.166833   3.026286   0.000000
    20  H    2.847325   2.397110   2.435809   1.087275   0.000000
    21  H    4.268452   4.062295   3.608612   1.089844   1.766297
    22  H    4.111260   3.600329   3.895480   1.092043   1.762833
                   21         22
    21  H    0.000000
    22  H    1.760096   0.000000
 Stoichiometry    C6H15N
 Framework group  C1[X(C6H15N)]
 Deg. of freedom    60
 Full point group                 C1      NOp   1
 Largest Abelian subgroup         C1      NOp   1
 Largest concise Abelian subgroup C1      NOp   1
                         Standard orientation:                         
 ---------------------------------------------------------------------
 Center     Atomic      Atomic             Coordinates (Angstroms)
 Number     Number       Type             X           Y           Z
 ---------------------------------------------------------------------
      1          6           0       -1.614063    0.702130   -0.108939
      2          1           0       -1.375658    1.124155    0.868094
      3          1           0       -2.074928    1.512129   -0.677824
      4          6           0       -0.331892    0.309409   -0.839832
      5          1           0       -0.517273   -0.561070   -1.468102
      6          1           0        0.002944    1.122583   -1.487344
      7          7           0        0.840941   -0.069092    0.040356
      8          6           0        1.381862    1.142613    0.697238
      9          1           0        2.239630    0.835005    1.286368
     10          1           0        1.658206    1.884422   -0.052614
     11          1           0        0.631723    1.552451    1.366455
     12          6           0        1.894082   -0.608327   -0.851938
     13          1           0        2.120957    0.107581   -1.643611
     14          1           0        2.767065   -0.819818   -0.243537
     15          1           0        1.532569   -1.538974   -1.281316
     16          6           0        0.598730   -1.113840    1.124415
     17          1           0        0.105004   -1.940782    0.595963
     18          1           0       -0.154804   -0.664874    1.783348
     19          6           0       -2.623449   -0.429163    0.048804
     20          1           0       -2.194999   -1.265417    0.595865
     21          1           0       -3.508240   -0.084294    0.583567
     22          1           0       -2.950393   -0.796382   -0.926293
 ---------------------------------------------------------------------
 Rotational constants (GHZ):           4.1142140           1.6432308           1.5947744
 Standard basis: 6-311+G(2d,2p) (5D, 7F)
 There are   338 symmetry adapted cartesian basis functions of A   symmetry.
 There are   324 symmetry adapted basis functions of A   symmetry.
   324 basis functions,   459 primitive gaussians,   338 cartesian basis functions
    29 alpha electrons       29 beta electrons
       nuclear repulsion energy       346.2688006597 Hartrees.
 NAtoms=   22 NActive=   22 NUniq=   22 SFac= 1.00D+00 NAtFMM=   60 NAOKFM=F Big=F
 Integral buffers will be    131072 words long.
 Raffenetti 2 integral format.
 Two-electron integral symmetry is turned on.
 Nuclear repulsion after empirical dispersion term =      346.2527396041 Hartrees.
 One-electron integrals computed using PRISM.
 NBasis=   324 RedAO= T EigKep=  2.65D-05  NBF=   324
 NBsUse=   324 1.00D-06 EigRej= -1.00D+00 NBFU=   324
 Initial guess from the checkpoint file:  "aminopropyl_ylide.chk"
 B after Tr=     0.000000   -0.000000    0.000000
         Rot=    0.999712    0.023264   -0.002486    0.005299 Ang=   2.75 deg.
 ExpMin= 4.38D-02 ExpMax= 6.29D+03 ExpMxC= 9.49D+02 IAcc=2 IRadAn=         4 AccDes= 0.00D+00
 Harris functional with IExCor= 4639 and IRadAn=       4 diagonalized for initial guess.
 HarFok:  IExCor= 4639 AccDes= 0.00D+00 IRadAn=         4 IDoV= 1 UseB2=F ITyADJ=14
 ICtDFT=  3500011 ScaDFX=  1.000000  1.000000  1.000000  1.000000
 FoFCou: FMM=F IPFlag=           0 FMFlag=      100000 FMFlg1=           0
         NFxFlg=           0 DoJE=T BraDBF=F KetDBF=T FulRan=T
         wScrn=  0.000000 ICntrl=       500 IOpCl=  0 I1Cent=   200000004 NGrid=           0
         NMat0=    1 NMatS0=      1 NMatT0=    0 NMatD0=    1 NMtDS0=    0 NMtDT0=    0
 Petite list used in FoFCou.
 Requested convergence on RMS density matrix=1.00D-08 within  32 cycles.
 Requested convergence on MAX density matrix=1.00D-06.
 Requested convergence on             energy=1.00D-06.
 No special actions if energy rises.
 SCF Done:  E(RwB97XD) =  -292.313265455     A.U. after   12 cycles
            NFock= 12  Conv=0.41D-08     -V/T= 2.0047
 QCSCF skips out because SCF is already converged.
 Calling FoFJK, ICntrl=      2127 FMM=F ISym2X=0 I1Cent= 0 IOpClX= 0 NMat=1 NMatS=1 NMatT=0.
 ***** Axes restored to original set *****
 -------------------------------------------------------------------
 Center     Atomic                   Forces (Hartrees/Bohr)
 Number     Number              X              Y              Z
 -------------------------------------------------------------------
      1        6          -0.000193269   -0.001190959    0.001203441
      2        1          -0.000216078    0.000405692   -0.000314132
      3        1           0.000057706    0.000182737    0.000301697
      4        6          -0.000207554    0.000479413   -0.000492424
      5        1          -0.000082070    0.000033496   -0.000030454
      6        1           0.000198375   -0.000309910   -0.000349889
      7        7           0.000098833    0.000607277   -0.000045138
      8        6          -0.000038104    0.000060483    0.000290657
      9        1           0.000110439   -0.000016743    0.000024318
     10        1           0.000037981   -0.000044756    0.000052858
     11        1           0.000220726   -0.000001520   -0.000049249
     12        6          -0.000131700    0.000098850   -0.000210375
     13        1          -0.000048841   -0.000084654   -0.000066743
     14        1           0.000102055   -0.000054257   -0.000025394
     15        1          -0.000068024   -0.000147701    0.000062058
     16        6           0.001033909   -0.000135543   -0.000036373
     17        1          -0.000560755   -0.000001819    0.000069624
     18        1          -0.000368463   -0.000045049   -0.000181742
     19        6           0.000647199    0.000250514   -0.001000383
     20        1          -0.000516570    0.000183154    0.000525545
     21        1           0.000139293    0.000064298    0.000208286
     22        1          -0.000215090   -0.000333002    0.000063813
 -------------------------------------------------------------------
 Cartesian Forces:  Max     0.001203441 RMS     0.000362231

 GradGradGradGradGradGradGradGradGradGradGradGradGradGradGradGradGradGrad
 Berny optimization.
 Using GEDIIS/GDIIS optimizer.
 FormGI is forming the generalized inverse of G from B-inverse, IUseBI=4.
 Internal  Forces:  Max     0.001142493 RMS     0.000247676
 Search for a local minimum.
 Step number   6 out of a maximum of  121
 All quantities printed in internal units (Hartrees-Bohrs-Radians)
 Mixed Optimization -- En-DIIS/RFO-DIIS
 Swapping is turned off.
 Update second derivatives using D2CorX and points    5    6
 DE= -3.15D-04 DEPred=-3.63D-04 R= 8.69D-01
 TightC=F SS=  1.41D+00  RLast= 2.93D-01 DXNew= 2.4000D+00 8.7796D-01
 Trust test= 8.69D-01 RLast= 2.93D-01 DXMaxT set to 1.43D+00
 ITU=  1  0  1  1  1  0
     Eigenvalues ---    0.00127   0.00277   0.00415   0.00434   0.00445
     Eigenvalues ---    0.00709   0.03401   0.03826   0.04457   0.04708
     Eigenvalues ---    0.04818   0.04895   0.05388   0.05472   0.05541
     Eigenvalues ---    0.05802   0.05815   0.06108   0.06133   0.06602
     Eigenvalues ---    0.08719   0.08914   0.12480   0.12706   0.14378
     Eigenvalues ---    0.15355   0.15606   0.15968   0.15994   0.16000
     Eigenvalues ---    0.16000   0.16000   0.16000   0.16003   0.16045
     Eigenvalues ---    0.16401   0.16889   0.21793   0.25753   0.29119
     Eigenvalues ---    0.29798   0.30826   0.32768   0.33262   0.33897
     Eigenvalues ---    0.34770   0.34836   0.34941   0.34995   0.35067
     Eigenvalues ---    0.35115   0.35126   0.35166   0.35212   0.35271
     Eigenvalues ---    0.35411   0.36412   0.37007   0.37201   0.37683
 En-DIIS/RFO-DIIS/Sim-DIIS IScMMF=       -3 using points:     6    5    4    3
 RFO step:  Lambda=-2.27591045D-04.
 DidBck=T Rises=F RFO-DIIS coefs:    0.71057    0.12096   -0.08636    0.25482
 Iteration  1 RMS(Cart)=  0.03098026 RMS(Int)=  0.00103778
 Iteration  2 RMS(Cart)=  0.00108855 RMS(Int)=  0.00001125
 Iteration  3 RMS(Cart)=  0.00000129 RMS(Int)=  0.00001120
 Iteration  4 RMS(Cart)=  0.00000000 RMS(Int)=  0.00001120
 Variable       Old X    -DE/DX   Delta X   Delta X   Delta X     New X
                                 (Linear)    (Quad)   (Total)
    R1        2.06105  -0.00011  -0.00041  -0.00041  -0.00083   2.06022
    R2        2.06329  -0.00005  -0.00033  -0.00027  -0.00059   2.06270
    R3        2.88602   0.00011  -0.00031   0.00110   0.00080   2.88682
    R4        2.88056   0.00025   0.00419   0.00130   0.00549   2.88605
    R5        2.05869   0.00003  -0.00037   0.00030  -0.00007   2.05862
    R6        2.06373   0.00027   0.00090   0.00022   0.00112   2.06485
    R7        2.86188  -0.00031  -0.00098  -0.00020  -0.00118   2.86070
    R8        2.79802   0.00020  -0.00011   0.00162   0.00151   2.79952
    R9        2.80041   0.00033   0.00019   0.00103   0.00122   2.80163
   R10        2.88166  -0.00020  -0.00226   0.00036  -0.00190   2.87976
   R11        2.05056  -0.00010  -0.00020  -0.00021  -0.00041   2.05015
   R12        2.06051   0.00005   0.00010   0.00017   0.00027   2.06078
   R13        2.05149   0.00010  -0.00013  -0.00003  -0.00016   2.05133
   R14        2.06209   0.00008   0.00016  -0.00023  -0.00007   2.06202
   R15        2.05014  -0.00012  -0.00024  -0.00003  -0.00027   2.04986
   R16        2.05378  -0.00013  -0.00016  -0.00018  -0.00034   2.05344
   R17        2.07600  -0.00027  -0.00048  -0.00053  -0.00101   2.07499
   R18        2.07317  -0.00037  -0.00051  -0.00128  -0.00179   2.07138
   R19        2.05465   0.00038   0.00080  -0.00024   0.00056   2.05521
   R20        2.05951   0.00024   0.00072  -0.00049   0.00023   2.05974
   R21        2.06366  -0.00005  -0.00007  -0.00101  -0.00108   2.06258
    A1        1.84622  -0.00004   0.00015   0.00055   0.00068   1.84690
    A2        1.92272   0.00022  -0.00276   0.00211  -0.00065   1.92207
    A3        1.91688   0.00005  -0.00348   0.00060  -0.00289   1.91399
    A4        1.87107   0.00037   0.00061   0.00220   0.00286   1.87394
    A5        1.90180   0.00015   0.00306  -0.00103   0.00206   1.90386
    A6        1.99832  -0.00069   0.00240  -0.00410  -0.00168   1.99664
    A7        1.91623   0.00055   0.00073   0.00187   0.00265   1.91888
    A8        1.92804   0.00010   0.00104  -0.00128  -0.00025   1.92778
    A9        2.02227  -0.00114  -0.00384   0.00059  -0.00324   2.01903
   A10        1.88095  -0.00026   0.00001  -0.00125  -0.00125   1.87969
   A11        1.84135   0.00029  -0.00221   0.00224   0.00005   1.84140
   A12        1.86843   0.00051   0.00435  -0.00224   0.00210   1.87052
   A13        1.91371  -0.00045   0.00020  -0.00156  -0.00135   1.91236
   A14        1.86644   0.00017   0.00044   0.00028   0.00072   1.86715
   A15        2.05036   0.00017  -0.00217   0.00004  -0.00212   2.04824
   A16        1.88104   0.00024   0.00022   0.00081   0.00103   1.88207
   A17        1.87897   0.00008   0.00033   0.00030   0.00063   1.87960
   A18        1.86672  -0.00018   0.00115   0.00026   0.00142   1.86814
   A19        1.87304   0.00010   0.00013   0.00020   0.00033   1.87337
   A20        1.92223   0.00008   0.00038  -0.00022   0.00016   1.92239
   A21        1.90710  -0.00025  -0.00023  -0.00043  -0.00067   1.90643
   A22        1.94538  -0.00001  -0.00001   0.00071   0.00070   1.94608
   A23        1.89500   0.00008  -0.00015   0.00045   0.00030   1.89530
   A24        1.92007   0.00000  -0.00011  -0.00070  -0.00081   1.91926
   A25        1.92396   0.00009   0.00075  -0.00054   0.00021   1.92417
   A26        1.88086  -0.00002  -0.00041  -0.00006  -0.00047   1.88039
   A27        1.88924   0.00014   0.00012   0.00105   0.00117   1.89041
   A28        1.94706  -0.00005   0.00001  -0.00055  -0.00054   1.94653
   A29        1.92232  -0.00011  -0.00032  -0.00049  -0.00081   1.92150
   A30        1.89895  -0.00003  -0.00016   0.00066   0.00050   1.89945
   A31        1.81846   0.00036   0.00074   0.00344   0.00417   1.82262
   A32        1.82937   0.00026   0.00010   0.00391   0.00401   1.83338
   A33        1.86323   0.00010   0.00202   0.00335   0.00536   1.86859
   A34        1.94115  -0.00063   0.00080  -0.00423  -0.00343   1.93772
   A35        1.93213   0.00007   0.00034   0.00038   0.00072   1.93285
   A36        1.93415  -0.00037   0.00153  -0.00203  -0.00050   1.93365
   A37        1.89274   0.00016  -0.00012  -0.00051  -0.00063   1.89212
   A38        1.88453   0.00056  -0.00317   0.00438   0.00121   1.88574
   A39        1.87704   0.00026   0.00047   0.00234   0.00283   1.87987
    D1        2.57721  -0.00028   0.00562  -0.02098  -0.01536   2.56185
    D2       -1.63390  -0.00020   0.00673  -0.02214  -0.01541  -1.64932
    D3        0.49414  -0.00029   0.01050  -0.02573  -0.01522   0.47893
    D4       -1.70505  -0.00002   0.00472  -0.01805  -0.01333  -1.71838
    D5        0.36702   0.00006   0.00583  -0.01921  -0.01338   0.35364
    D6        2.49507  -0.00003   0.00961  -0.02280  -0.01319   2.48188
    D7        0.40669  -0.00000   0.01066  -0.02038  -0.00973   0.39696
    D8        2.47876   0.00008   0.01177  -0.02155  -0.00978   2.46898
    D9       -1.67638  -0.00001   0.01555  -0.02513  -0.00958  -1.68596
   D10       -1.14522   0.00026   0.09116  -0.00164   0.08953  -1.05570
   D11        0.96029   0.00008   0.09178  -0.00486   0.08693   1.04722
   D12        3.04147   0.00022   0.09360  -0.00299   0.09061   3.13208
   D13        3.12311   0.00019   0.09123  -0.00206   0.08915  -3.07092
   D14       -1.05456   0.00002   0.09184  -0.00527   0.08655  -0.96801
   D15        1.02662   0.00015   0.09367  -0.00341   0.09023   1.11685
   D16        1.02840   0.00007   0.08650  -0.00142   0.08510   1.11350
   D17        3.13391  -0.00010   0.08712  -0.00464   0.08250  -3.06677
   D18       -1.06809   0.00003   0.08894  -0.00278   0.08618  -0.98191
   D19       -1.25554   0.00045   0.00441   0.02226   0.02666  -1.22889
   D20        2.99277   0.00030   0.00380   0.02196   0.02575   3.01851
   D21        0.89605   0.00030   0.00337   0.02138   0.02473   0.92078
   D22        2.90413   0.00025   0.00739   0.01786   0.02526   2.92940
   D23        0.86926   0.00011   0.00678   0.01756   0.02435   0.89361
   D24       -1.22746   0.00010   0.00635   0.01697   0.02334  -1.20412
   D25        0.90389   0.00018   0.00650   0.01923   0.02573   0.92962
   D26       -1.13098   0.00004   0.00589   0.01893   0.02482  -1.10616
   D27        3.05549   0.00004   0.00546   0.01834   0.02380   3.07929
   D28       -3.10514  -0.00010   0.00129  -0.00039   0.00090  -3.10424
   D29       -0.98453  -0.00001   0.00158   0.00047   0.00205  -0.98248
   D30        1.12646  -0.00012   0.00152  -0.00081   0.00072   1.12717
   D31       -1.07949  -0.00000   0.00205  -0.00044   0.00161  -1.07789
   D32        1.04112   0.00009   0.00233   0.00042   0.00275   1.04387
   D33       -3.13108  -0.00002   0.00228  -0.00086   0.00142  -3.12966
   D34        0.92854  -0.00005   0.00367   0.00042   0.00409   0.93263
   D35        3.04915   0.00004   0.00395   0.00128   0.00524   3.05439
   D36       -1.12305  -0.00007   0.00390   0.00001   0.00391  -1.11914
   D37        0.94550  -0.00016   0.00346   0.00352   0.00697   0.95248
   D38        3.07412  -0.00018   0.00367   0.00248   0.00615   3.08026
   D39       -1.15806  -0.00016   0.00332   0.00378   0.00711  -1.15095
   D40       -1.11090   0.00016   0.00288   0.00477   0.00765  -1.10325
   D41        1.01771   0.00013   0.00309   0.00374   0.00682   1.02454
   D42        3.06872   0.00016   0.00274   0.00504   0.00779   3.07651
   D43       -3.12701   0.00004   0.00180   0.00390   0.00570  -3.12131
   D44       -0.99840   0.00001   0.00201   0.00286   0.00487  -0.99352
   D45        1.05261   0.00004   0.00167   0.00417   0.00584   1.05845
   D46        0.87309   0.00049   0.00869  -0.00584   0.00286   0.87595
   D47       -1.08153   0.00013   0.00612  -0.01234  -0.00623  -1.08776
   D48        3.04222   0.00007   0.00764  -0.00765   0.00000   3.04222
   D49        1.08760  -0.00028   0.00507  -0.01415  -0.00909   1.07851
   D50       -1.22348   0.00030   0.00865  -0.00643   0.00221  -1.22126
   D51        3.10510  -0.00005   0.00607  -0.01294  -0.00688   3.09822
         Item               Value     Threshold  Converged?
 Maximum Force            0.001142     0.000450     NO 
 RMS     Force            0.000248     0.000300     YES
 Maximum Displacement     0.180389     0.001800     NO 
 RMS     Displacement     0.031007     0.001200     NO 
 Predicted change in Energy=-1.038888D-04
 GradGradGradGradGradGradGradGradGradGradGradGradGradGradGradGradGradGrad

                          Input orientation:                          
 ---------------------------------------------------------------------
 Center     Atomic      Atomic             Coordinates (Angstroms)
 Number     Number       Type             X           Y           Z
 ---------------------------------------------------------------------
      1          6           0        0.613436   -0.738117    0.306259
      2          1           0        0.259814   -0.440804    1.293751
      3          1           0        1.349800   -1.525244    0.478422
      4          6           0       -0.530495   -1.351990   -0.498891
      5          1           0       -0.409280   -1.116596   -1.555602
      6          1           0       -0.527232   -2.440031   -0.398438
      7          7           0       -1.919763   -0.873646   -0.134525
      8          6           0       -2.294712   -1.405863    1.196202
      9          1           0       -3.306585   -1.074112    1.403667
     10          1           0       -2.222215   -2.493965    1.199550
     11          1           0       -1.632479   -0.987951    1.947961
     12          6           0       -2.851847   -1.449880   -1.133102
     13          1           0       -2.737787   -2.534288   -1.174445
     14          1           0       -3.859076   -1.166185   -0.847321
     15          1           0       -2.626239   -1.013542   -2.102370
     16          6           0       -2.159800    0.631120   -0.115930
     17          1           0       -1.769902    0.982317   -1.080463
     18          1           0       -1.489868    1.016529    0.661342
     19          6           0        1.298094    0.446325   -0.372546
     20          1           0        0.608120    1.278030   -0.495057
     21          1           0        2.149401    0.789055    0.215537
     22          1           0        1.668267    0.165820   -1.360271
 ---------------------------------------------------------------------
                    Distance matrix (angstroms):
                    1          2          3          4          5
     1  C    0.000000
     2  H    1.090222   0.000000
     3  H    1.091532   1.740356   0.000000
     4  C    1.527640   2.160651   2.126186   0.000000
     5  H    2.157713   3.003864   2.720039   1.089377   0.000000
     6  H    2.166618   2.734932   2.264723   1.092673   1.761937
     7  N    2.574831   2.641568   3.389739   1.513817   2.088072
     8  C    3.113713   2.732483   3.716441   2.447183   3.348277
     9  H    4.084576   3.623860   4.768807   3.376924   4.141672
    10  H    3.452809   3.222548   3.770642   2.655320   3.574177
    11  H    2.793159   2.075605   3.367821   2.708132   3.713182
    12  C    3.819235   4.073117   4.500725   2.408419   2.501143
    13  H    4.080369   4.411380   4.523108   2.593519   2.752648
    14  H    4.638681   4.698471   5.386921   3.351922   3.522104
    15  H    4.046337   4.493436   4.767726   2.660420   2.285712
    16  C    3.121521   2.998459   4.161785   2.594999   2.862078
    17  H    3.250107   3.432479   4.295408   2.706168   2.546073
    18  H    2.762020   2.363292   3.815467   2.806496   3.260788
    19  C    1.527231   2.154429   2.148000   2.567808   2.599514
    20  H    2.169558   2.505103   3.058774   2.865914   2.809643
    21  H    2.167873   2.499127   2.462611   3.503759   3.649013
    22  H    2.169584   3.065218   2.518315   2.807184   2.449276
                    6          7          8          9         10
     6  H    0.000000
     7  N    2.112429   0.000000
     8  C    2.595451   1.481444   0.000000
     9  H    3.583032   2.080744   1.084890   0.000000
    10  H    2.330116   2.120535   1.090519   1.798195   0.000000
    11  H    2.972490   2.105314   1.085516   1.762473   1.782130
    12  C    2.631343   1.482559   2.395412   2.604455   2.632074
    13  H    2.344701   2.123282   2.662635   3.017003   2.429669
    14  H    3.595186   2.086766   2.584699   2.319627   2.938025
    15  H    3.056810   2.095494   3.338324   3.571951   3.641094
    16  C    3.489564   1.523904   2.426766   2.555798   3.391244
    17  H    3.704302   2.088506   3.340963   3.572281   4.181816
    18  H    3.741338   2.095465   2.608032   2.867452   3.626233
    19  C    3.415192   3.486199   4.335877   5.164274   4.848646
    20  H    3.888745   3.339145   4.300009   4.945972   5.011032
    21  H    4.238907   4.409673   5.052674   5.886495   5.554956
    22  H    3.540594   3.931527   4.971011   5.824597   5.363114
                   11         12         13         14         15
    11  H    0.000000
    12  C    3.345622   0.000000
    13  H    3.655445   1.091174   0.000000
    14  H    3.578143   1.084742   1.798890   0.000000
    15  H    4.170539   1.086633   1.784981   1.765882   0.000000
    16  C    2.675650   2.417463   3.387378   2.579298   2.620768
    17  H    3.615549   2.662509   3.648581   3.005839   2.400221
    18  H    2.386140   3.340387   4.187567   3.557169   3.612566
    19  C    4.003768   4.625586   5.080889   5.424206   4.530330
    20  H    4.015382   4.451962   5.117659   5.104324   4.277363
    21  H    4.523457   5.643061   6.071348   6.407373   5.606138
    22  H    4.813576   4.805572   5.170922   5.708668   4.514907
                   16         17         18         19         20
    16  C    0.000000
    17  H    1.098037   0.000000
    18  H    1.096130   1.764504   0.000000
    19  C    3.472324   3.193906   3.027671   0.000000
    20  H    2.867684   2.466807   2.409813   1.087569   0.000000
    21  H    4.324816   4.132542   3.673523   1.089967   1.766235
    22  H    4.052035   3.544851   3.845055   1.091473   1.763382
                   21         22
    21  H    0.000000
    22  H    1.761557   0.000000
 Stoichiometry    C6H15N
 Framework group  C1[X(C6H15N)]
 Deg. of freedom    60
 Full point group                 C1      NOp   1
 Largest Abelian subgroup         C1      NOp   1
 Largest concise Abelian subgroup C1      NOp   1
                         Standard orientation:                         
 ---------------------------------------------------------------------
 Center     Atomic      Atomic             Coordinates (Angstroms)
 Number     Number       Type             X           Y           Z
 ---------------------------------------------------------------------
      1          6           0       -1.610386    0.700684   -0.113892
      2          1           0       -1.368526    1.120168    0.862899
      3          1           0       -2.067414    1.513147   -0.681757
      4          6           0       -0.330690    0.297396   -0.844249
      5          1           0       -0.516246   -0.580683   -1.461735
      6          1           0        0.002690    1.102585   -1.503387
      7          7           0        0.841452   -0.070330    0.040344
      8          6           0        1.359483    1.146035    0.708759
      9          1           0        2.218504    0.848551    1.300851
     10          1           0        1.627281    1.897803   -0.034451
     11          1           0        0.598610    1.538931    1.375879
     12          6           0        1.908520   -0.589397   -0.848428
     13          1           0        2.135762    0.137387   -1.629969
     14          1           0        2.777810   -0.798198   -0.234096
     15          1           0        1.561296   -1.518527   -1.292188
     16          6           0        0.603966   -1.124001    1.115361
     17          1           0        0.126856   -1.956630    0.581713
     18          1           0       -0.154230   -0.689509    1.777067
     19          6           0       -2.626346   -0.427943    0.048769
     20          1           0       -2.227347   -1.225324    0.671495
     21          1           0       -3.543347   -0.058718    0.507911
     22          1           0       -2.889146   -0.855321   -0.920559
 ---------------------------------------------------------------------
 Rotational constants (GHZ):           4.1146503           1.6431446           1.5949004
 Standard basis: 6-311+G(2d,2p) (5D, 7F)
 There are   338 symmetry adapted cartesian basis functions of A   symmetry.
 There are   324 symmetry adapted basis functions of A   symmetry.
   324 basis functions,   459 primitive gaussians,   338 cartesian basis functions
    29 alpha electrons       29 beta electrons
       nuclear repulsion energy       346.2499201512 Hartrees.
 NAtoms=   22 NActive=   22 NUniq=   22 SFac= 1.00D+00 NAtFMM=   60 NAOKFM=F Big=F
 Integral buffers will be    131072 words long.
 Raffenetti 2 integral format.
 Two-electron integral symmetry is turned on.
 Nuclear repulsion after empirical dispersion term =      346.2338755475 Hartrees.
 One-electron integrals computed using PRISM.
 NBasis=   324 RedAO= T EigKep=  2.61D-05  NBF=   324
 NBsUse=   324 1.00D-06 EigRej= -1.00D+00 NBFU=   324
 Initial guess from the checkpoint file:  "aminopropyl_ylide.chk"
 B after Tr=     0.000000    0.000000   -0.000000
         Rot=    0.999995   -0.000929    0.001888   -0.002174 Ang=  -0.35 deg.
 ExpMin= 4.38D-02 ExpMax= 6.29D+03 ExpMxC= 9.49D+02 IAcc=2 IRadAn=         4 AccDes= 0.00D+00
 Harris functional with IExCor= 4639 and IRadAn=       4 diagonalized for initial guess.
 HarFok:  IExCor= 4639 AccDes= 0.00D+00 IRadAn=         4 IDoV= 1 UseB2=F ITyADJ=14
 ICtDFT=  3500011 ScaDFX=  1.000000  1.000000  1.000000  1.000000
 FoFCou: FMM=F IPFlag=           0 FMFlag=      100000 FMFlg1=           0
         NFxFlg=           0 DoJE=T BraDBF=F KetDBF=T FulRan=T
         wScrn=  0.000000 ICntrl=       500 IOpCl=  0 I1Cent=   200000004 NGrid=           0
         NMat0=    1 NMatS0=      1 NMatT0=    0 NMatD0=    1 NMtDS0=    0 NMtDT0=    0
 Petite list used in FoFCou.
 Requested convergence on RMS density matrix=1.00D-08 within  32 cycles.
 Requested convergence on MAX density matrix=1.00D-06.
 Requested convergence on             energy=1.00D-06.
 No special actions if energy rises.
 SCF Done:  E(RwB97XD) =  -292.313300551     A.U. after   11 cycles
            NFock= 11  Conv=0.68D-08     -V/T= 2.0047
 QCSCF skips out because SCF is already converged.
 Calling FoFJK, ICntrl=      2127 FMM=F ISym2X=0 I1Cent= 0 IOpClX= 0 NMat=1 NMatS=1 NMatT=0.
 ***** Axes restored to original set *****
 -------------------------------------------------------------------
 Center     Atomic                   Forces (Hartrees/Bohr)
 Number     Number              X              Y              Z
 -------------------------------------------------------------------
      1        6           0.000557341    0.000184907   -0.000104498
      2        1           0.000136195    0.000396607   -0.000075191
      3        1           0.000117068    0.000040689   -0.000053526
      4        6          -0.000160642    0.000176168   -0.000164435
      5        1          -0.000116838    0.000142267    0.000055175
      6        1           0.000090615   -0.000011511   -0.000150103
      7        7           0.000151853    0.000334288    0.000177376
      8        6          -0.000106177    0.000037908   -0.000140482
      9        1          -0.000045582   -0.000017061   -0.000007877
     10        1          -0.000014428    0.000050435   -0.000033216
     11        1          -0.000086455   -0.000030199   -0.000018635
     12        6           0.000013157    0.000044062    0.000170420
     13        1           0.000022708   -0.000078825   -0.000028673
     14        1           0.000032053    0.000038186   -0.000003401
     15        1           0.000029641    0.000044844    0.000021735
     16        6          -0.000039607   -0.000161271   -0.000025385
     17        1          -0.000074142   -0.000160174    0.000032918
     18        1           0.000072760   -0.000139158   -0.000007867
     19        6          -0.000448627   -0.000478075    0.000252828
     20        1          -0.000413160   -0.000086495   -0.000112864
     21        1           0.000074174   -0.000059826    0.000253996
     22        1           0.000208094   -0.000267766   -0.000038293
 -------------------------------------------------------------------
 Cartesian Forces:  Max     0.000557341 RMS     0.000170799

 GradGradGradGradGradGradGradGradGradGradGradGradGradGradGradGradGradGrad
 Berny optimization.
 Using GEDIIS/GDIIS optimizer.
 FormGI is forming the generalized inverse of G from B-inverse, IUseBI=4.
 Internal  Forces:  Max     0.001104547 RMS     0.000170293
 Search for a local minimum.
 Step number   7 out of a maximum of  121
 All quantities printed in internal units (Hartrees-Bohrs-Radians)
 Mixed Optimization -- En-DIIS/RFO-DIIS
 Swapping is turned off.
 Update second derivatives using D2CorX and points    4    5    6    7
 DE= -3.51D-05 DEPred=-1.04D-04 R= 3.38D-01
 Trust test= 3.38D-01 RLast= 2.77D-01 DXMaxT set to 1.43D+00
 ITU=  0  1  0  1  1  1  0
     Eigenvalues ---    0.00184   0.00283   0.00298   0.00435   0.00444
     Eigenvalues ---    0.00670   0.03417   0.03771   0.04465   0.04640
     Eigenvalues ---    0.04883   0.04896   0.05433   0.05482   0.05535
     Eigenvalues ---    0.05810   0.05818   0.06114   0.06136   0.06588
     Eigenvalues ---    0.08705   0.08912   0.12457   0.12677   0.14125
     Eigenvalues ---    0.14968   0.15661   0.15958   0.15993   0.16000
     Eigenvalues ---    0.16000   0.16000   0.16001   0.16034   0.16184
     Eigenvalues ---    0.16358   0.17063   0.21475   0.26029   0.29733
     Eigenvalues ---    0.30135   0.31682   0.32730   0.33197   0.33850
     Eigenvalues ---    0.34750   0.34835   0.34938   0.34992   0.35065
     Eigenvalues ---    0.35110   0.35130   0.35165   0.35211   0.35273
     Eigenvalues ---    0.35388   0.36737   0.37131   0.37242   0.39113
 En-DIIS/RFO-DIIS/Sim-DIIS IScMMF=       -3 using points:     7    6    5    4    3
 RFO step:  Lambda=-9.68214418D-05.
 DidBck=F Rises=F RFO-DIIS coefs:    1.18583    0.52707   -0.26861   -0.57048    0.12619
 Iteration  1 RMS(Cart)=  0.02261237 RMS(Int)=  0.00048311
 Iteration  2 RMS(Cart)=  0.00052107 RMS(Int)=  0.00000695
 Iteration  3 RMS(Cart)=  0.00000027 RMS(Int)=  0.00000695
 Variable       Old X    -DE/DX   Delta X   Delta X   Delta X     New X
                                 (Linear)    (Quad)   (Total)
    R1        2.06022  -0.00001  -0.00161   0.00119  -0.00042   2.05980
    R2        2.06270   0.00004   0.00044  -0.00029   0.00015   2.06284
    R3        2.88682   0.00013  -0.00000   0.00058   0.00058   2.88740
    R4        2.88605  -0.00110   0.01092  -0.01212  -0.00120   2.88485
    R5        2.05862  -0.00004  -0.00144   0.00127  -0.00018   2.05845
    R6        2.06485  -0.00000   0.00274  -0.00218   0.00055   2.06541
    R7        2.86070   0.00006  -0.00088   0.00056  -0.00032   2.86038
    R8        2.79952  -0.00013  -0.00099   0.00102   0.00003   2.79955
    R9        2.80163  -0.00019  -0.00197   0.00156  -0.00041   2.80122
   R10        2.87976  -0.00045  -0.00255   0.00154  -0.00100   2.87876
   R11        2.05015   0.00003  -0.00008   0.00002  -0.00006   2.05008
   R12        2.06078  -0.00005  -0.00019   0.00016  -0.00003   2.06076
   R13        2.05133  -0.00008  -0.00116   0.00085  -0.00031   2.05102
   R14        2.06202   0.00008  -0.00102   0.00102  -0.00000   2.06202
   R15        2.04986  -0.00002   0.00018  -0.00026  -0.00008   2.04978
   R16        2.05344   0.00000  -0.00089   0.00067  -0.00022   2.05322
   R17        2.07499  -0.00011  -0.00331   0.00255  -0.00077   2.07422
   R18        2.07138  -0.00001  -0.00359   0.00281  -0.00078   2.07060
   R19        2.05521   0.00021  -0.00132   0.00180   0.00049   2.05570
   R20        2.05974   0.00018  -0.00268   0.00271   0.00003   2.05977
   R21        2.06258   0.00017  -0.00343   0.00323  -0.00021   2.06238
    A1        1.84690  -0.00001   0.00068   0.00127   0.00194   1.84884
    A2        1.92207   0.00026   0.00168  -0.00032   0.00135   1.92341
    A3        1.91399  -0.00001   0.00147  -0.00305  -0.00159   1.91240
    A4        1.87394   0.00035  -0.00101   0.00472   0.00372   1.87766
    A5        1.90386   0.00002   0.00322  -0.00256   0.00066   1.90452
    A6        1.99664  -0.00056  -0.00559   0.00017  -0.00542   1.99122
    A7        1.91888  -0.00006  -0.00161   0.00124  -0.00036   1.91852
    A8        1.92778   0.00005   0.00046   0.00062   0.00106   1.92884
    A9        2.01903   0.00007   0.00106  -0.00181  -0.00075   2.01828
   A10        1.87969   0.00001  -0.00242   0.00177  -0.00065   1.87904
   A11        1.84140  -0.00005  -0.00512   0.00400  -0.00111   1.84029
   A12        1.87052  -0.00001   0.00729  -0.00555   0.00173   1.87226
   A13        1.91236   0.00019   0.00201  -0.00129   0.00073   1.91308
   A14        1.86715  -0.00004   0.00158  -0.00147   0.00011   1.86726
   A15        2.04824  -0.00006  -0.00344   0.00334  -0.00010   2.04813
   A16        1.88207  -0.00014  -0.00137   0.00077  -0.00059   1.88147
   A17        1.87960  -0.00002   0.00175  -0.00152   0.00024   1.87983
   A18        1.86814   0.00005  -0.00057   0.00011  -0.00047   1.86768
   A19        1.87337  -0.00001  -0.00385   0.00334  -0.00052   1.87286
   A20        1.92239  -0.00006  -0.00318   0.00260  -0.00059   1.92179
   A21        1.90643   0.00008  -0.00291   0.00269  -0.00023   1.90620
   A22        1.94608  -0.00000   0.00235  -0.00197   0.00037   1.94645
   A23        1.89530  -0.00002   0.00576  -0.00487   0.00089   1.89619
   A24        1.91926   0.00000   0.00176  -0.00168   0.00008   1.91934
   A25        1.92417   0.00004  -0.00325   0.00314  -0.00013   1.92404
   A26        1.88039  -0.00003  -0.00329   0.00269  -0.00060   1.87979
   A27        1.89041  -0.00009  -0.00278   0.00231  -0.00048   1.88993
   A28        1.94653   0.00003   0.00118  -0.00100   0.00016   1.94669
   A29        1.92150   0.00002   0.00219  -0.00199   0.00019   1.92170
   A30        1.89945   0.00003   0.00588  -0.00504   0.00083   1.90028
   A31        1.82262  -0.00021  -0.00425   0.00357  -0.00068   1.82194
   A32        1.83338  -0.00027   0.00119  -0.00123  -0.00004   1.83334
   A33        1.86859   0.00013   0.00936  -0.00681   0.00255   1.87113
   A34        1.93772  -0.00032  -0.00444   0.00064  -0.00381   1.93391
   A35        1.93285  -0.00018   0.00003  -0.00037  -0.00036   1.93249
   A36        1.93365  -0.00015  -0.00536   0.00280  -0.00257   1.93108
   A37        1.89212   0.00031  -0.00165   0.00275   0.00108   1.89320
   A38        1.88574   0.00024   0.00838  -0.00406   0.00430   1.89004
   A39        1.87987   0.00013   0.00359  -0.00190   0.00168   1.88156
    D1        2.56185  -0.00030  -0.02819  -0.00586  -0.03405   2.52779
    D2       -1.64932  -0.00030  -0.03190  -0.00253  -0.03443  -1.68375
    D3        0.47893  -0.00023  -0.02105  -0.01077  -0.03182   0.44710
    D4       -1.71838   0.00001  -0.02708  -0.00193  -0.02901  -1.74739
    D5        0.35364   0.00001  -0.03079   0.00140  -0.02938   0.32425
    D6        2.48188   0.00009  -0.01994  -0.00684  -0.02678   2.45510
    D7        0.39696  -0.00007  -0.02729  -0.00169  -0.02898   0.36798
    D8        2.46898  -0.00007  -0.03100   0.00165  -0.02935   2.43963
    D9       -1.68596   0.00000  -0.02015  -0.00659  -0.02675  -1.71271
   D10       -1.05570  -0.00011  -0.03774  -0.00207  -0.03981  -1.09551
   D11        1.04722  -0.00005  -0.04280   0.00158  -0.04122   1.00600
   D12        3.13208  -0.00010  -0.04177   0.00077  -0.04101   3.09107
   D13       -3.07092  -0.00010  -0.04115  -0.00047  -0.04162  -3.11255
   D14       -0.96801  -0.00004  -0.04620   0.00318  -0.04303  -1.01104
   D15        1.11685  -0.00009  -0.04518   0.00237  -0.04282   1.07403
   D16        1.11350  -0.00020  -0.03850  -0.00478  -0.04327   1.07022
   D17       -3.06677  -0.00013  -0.04356  -0.00113  -0.04468  -3.11145
   D18       -0.98191  -0.00018  -0.04253  -0.00194  -0.04447  -1.02638
   D19       -1.22889  -0.00016  -0.00429   0.00310  -0.00119  -1.23008
   D20        3.01851  -0.00008  -0.00458   0.00367  -0.00093   3.01759
   D21        0.92078  -0.00008  -0.00281   0.00249  -0.00033   0.92045
   D22        2.92940  -0.00008   0.00083  -0.00029   0.00054   2.92994
   D23        0.89361   0.00000   0.00054   0.00027   0.00081   0.89442
   D24       -1.20412   0.00001   0.00231  -0.00091   0.00140  -1.20272
   D25        0.92962  -0.00006   0.00272  -0.00169   0.00103   0.93066
   D26       -1.10616   0.00002   0.00242  -0.00113   0.00130  -1.10486
   D27        3.07929   0.00003   0.00419  -0.00231   0.00189   3.08119
   D28       -3.10424   0.00005  -0.00063   0.00166   0.00103  -3.10321
   D29       -0.98248   0.00001  -0.00207   0.00288   0.00081  -0.98167
   D30        1.12717   0.00003  -0.00376   0.00414   0.00038   1.12756
   D31       -1.07789   0.00003   0.00156  -0.00035   0.00121  -1.07668
   D32        1.04387  -0.00001   0.00012   0.00087   0.00099   1.04486
   D33       -3.12966   0.00001  -0.00157   0.00214   0.00057  -3.12909
   D34        0.93263   0.00001   0.00109  -0.00060   0.00049   0.93312
   D35        3.05439  -0.00003  -0.00035   0.00062   0.00027   3.05466
   D36       -1.11914  -0.00001  -0.00204   0.00188  -0.00016  -1.11929
   D37        0.95248   0.00005   0.00659  -0.00469   0.00190   0.95438
   D38        3.08026   0.00009   0.00394  -0.00230   0.00164   3.08191
   D39       -1.15095   0.00005   0.00762  -0.00557   0.00204  -1.14890
   D40       -1.10325  -0.00008   0.00411  -0.00281   0.00130  -1.10195
   D41        1.02454  -0.00004   0.00147  -0.00042   0.00105   1.02558
   D42        3.07651  -0.00008   0.00514  -0.00369   0.00145   3.07796
   D43       -3.12131  -0.00002   0.00304  -0.00148   0.00156  -3.11975
   D44       -0.99352   0.00002   0.00039   0.00090   0.00130  -0.99222
   D45        1.05845  -0.00001   0.00407  -0.00236   0.00170   1.06015
   D46        0.87595  -0.00007   0.01683  -0.00296   0.01388   0.88983
   D47       -1.08776  -0.00002   0.00771   0.00364   0.01135  -1.07640
   D48        3.04222   0.00013   0.01849  -0.00351   0.01498   3.05720
   D49        1.07851   0.00018   0.00937   0.00309   0.01245   1.09096
   D50       -1.22126  -0.00002   0.01748  -0.00331   0.01417  -1.20709
   D51        3.09822   0.00003   0.00836   0.00329   0.01164   3.10986
         Item               Value     Threshold  Converged?
 Maximum Force            0.001105     0.000450     NO 
 RMS     Force            0.000170     0.000300     YES
 Maximum Displacement     0.126847     0.001800     NO 
 RMS     Displacement     0.022607     0.001200     NO 
 Predicted change in Energy=-4.905029D-05
 GradGradGradGradGradGradGradGradGradGradGradGradGradGradGradGradGradGrad

                          Input orientation:                          
 ---------------------------------------------------------------------
 Center     Atomic      Atomic             Coordinates (Angstroms)
 Number     Number       Type             X           Y           Z
 ---------------------------------------------------------------------
      1          6           0        0.611055   -0.730639    0.309236
      2          1           0        0.251029   -0.411886    1.287436
      3          1           0        1.339981   -1.520273    0.500961
      4          6           0       -0.531305   -1.343483   -0.499504
      5          1           0       -0.412805   -1.098065   -1.554143
      6          1           0       -0.522956   -2.432710   -0.409550
      7          7           0       -1.921575   -0.872651   -0.129917
      8          6           0       -2.294462   -1.416503    1.196696
      9          1           0       -3.307564   -1.089941    1.406208
     10          1           0       -2.217857   -2.504299    1.190999
     11          1           0       -1.633362   -1.002302    1.951263
     12          6           0       -2.852836   -1.443782   -1.131867
     13          1           0       -2.736620   -2.527657   -1.180528
     14          1           0       -3.860229   -1.163882   -0.843101
     15          1           0       -2.628015   -1.000307   -2.097943
     16          6           0       -2.166465    0.630610   -0.099883
     17          1           0       -1.792211    0.987351   -1.068108
     18          1           0       -1.488473    1.013840    0.670869
     19          6           0        1.309067    0.436651   -0.384092
     20          1           0        0.612295    1.252838   -0.562182
     21          1           0        2.131393    0.811349    0.225374
     22          1           0        1.721567    0.122726   -1.344492
 ---------------------------------------------------------------------
                    Distance matrix (angstroms):
                    1          2          3          4          5
     1  C    0.000000
     2  H    1.089999   0.000000
     3  H    1.091610   1.741517   0.000000
     4  C    1.527947   2.161730   2.129295   0.000000
     5  H    2.157654   2.997681   2.733856   1.089283   0.000000
     6  H    2.167874   2.750008   2.265415   1.092967   1.761677
     7  N    2.574342   2.634655   3.384549   1.513647   2.087012
     8  C    3.114486   2.738068   3.701891   2.447682   3.348008
     9  H    4.085097   3.624563   4.754402   3.376927   4.140456
    10  H    3.453421   3.237730   3.755353   2.655137   3.573726
    11  H    2.794183   2.083312   3.348498   2.708725   3.713059
    12  C    3.818885   4.068392   4.500188   2.408204   2.500318
    13  H    4.081127   4.415131   4.523373   2.594123   2.753805
    14  H    4.637667   4.691176   5.382908   3.351425   3.520603
    15  H    4.044602   4.482848   4.771756   2.658753   2.283075
    16  C    3.120095   2.975858   4.157219   2.594318   2.859810
    17  H    3.259486   3.417789   4.308222   2.710347   2.547146
    18  H    2.753544   2.332106   3.801414   2.800520   3.250828
    19  C    1.526594   2.152548   2.147981   2.563038   2.586351
    20  H    2.166461   2.514538   3.057767   2.837716   2.749829
    21  H    2.167069   2.481944   2.477648   3.501244   3.644926
    22  H    2.167091   3.061917   2.500149   2.817660   2.467757
                    6          7          8          9         10
     6  H    0.000000
     7  N    2.113792   0.000000
     8  C    2.598257   1.481460   0.000000
     9  H    3.585255   2.080351   1.084856   0.000000
    10  H    2.332289   2.120113   1.090505   1.798384   0.000000
    11  H    2.975317   2.105039   1.085351   1.762872   1.782031
    12  C    2.632121   1.482343   2.394730   2.602654   2.631273
    13  H    2.346003   2.122999   2.661083   3.014002   2.427715
    14  H    3.596565   2.086103   2.583838   2.317391   2.937970
    15  H    3.055114   2.094870   3.337533   3.570560   3.639693
    16  C    3.490121   1.523374   2.426556   2.555526   3.390674
    17  H    3.706956   2.087234   3.340675   3.568428   4.180474
    18  H    3.738748   2.094680   2.613939   2.876753   3.630405
    19  C    3.404436   3.495128   4.349539   5.181596   4.854821
    20  H    3.859450   3.335424   4.320679   4.972772   5.019909
    21  H    4.239412   4.403253   5.049256   5.881456   5.553551
    22  H    3.527358   3.967172   4.995533   5.859101   5.371130
                   11         12         13         14         15
    11  H    0.000000
    12  C    3.344804   0.000000
    13  H    3.654040   1.091173   0.000000
    14  H    3.576803   1.084698   1.798954   0.000000
    15  H    4.169582   1.086516   1.785005   1.766277   0.000000
    16  C    2.675406   2.416444   3.386373   2.577094   2.620146
    17  H    3.619469   2.653187   3.641405   2.992513   2.389543
    18  H    2.392745   3.339349   4.186615   3.558062   3.608554
    19  C    4.022729   4.627810   5.078288   5.430839   4.527996
    20  H    4.055371   4.427576   5.088194   5.091455   4.234953
    21  H    4.521217   5.636511   6.068202   6.398649   5.597487
    22  H    4.835621   4.839867   5.189108   5.750060   4.554970
                   16         17         18         19         20
    16  C    0.000000
    17  H    1.097630   0.000000
    18  H    1.095717   1.765503   0.000000
    19  C    3.492522   3.223208   3.045048   0.000000
    20  H    2.884856   2.471455   2.447603   1.087827   0.000000
    21  H    4.313935   4.135062   3.652793   1.089985   1.767149
    22  H    4.113853   3.629131   3.893599   1.091363   1.766252
                   21         22
    21  H    0.000000
    22  H    1.762566   0.000000
 Stoichiometry    C6H15N
 Framework group  C1[X(C6H15N)]
 Deg. of freedom    60
 Full point group                 C1      NOp   1
 Largest Abelian subgroup         C1      NOp   1
 Largest concise Abelian subgroup C1      NOp   1
                         Standard orientation:                         
 ---------------------------------------------------------------------
 Center     Atomic      Atomic             Coordinates (Angstroms)
 Number     Number       Type             X           Y           Z
 ---------------------------------------------------------------------
      1          6           0       -1.610309    0.695561   -0.116451
      2          1           0       -1.364640    1.114451    0.859396
      3          1           0       -2.061017    1.509690   -0.687125
      4          6           0       -0.335749    0.271756   -0.844812
      5          1           0       -0.525086   -0.625478   -1.432740
      6          1           0       -0.008787    1.055891   -1.532419
      7          7           0        0.842883   -0.068668    0.041791
      8          6           0        1.366317    1.167027    0.669325
      9          1           0        2.230215    0.886699    1.262629
     10          1           0        1.627785    1.895789   -0.098621
     11          1           0        0.610718    1.579800    1.330140
     12          6           0        1.903534   -0.614256   -0.838376
     13          1           0        2.126058    0.089386   -1.642135
     14          1           0        2.776428   -0.805450   -0.223501
     15          1           0        1.552240   -1.555342   -1.252462
     16          6           0        0.613871   -1.089474    1.149120
     17          1           0        0.147037   -1.943064    0.640945
     18          1           0       -0.148264   -0.641016    1.796137
     19          6           0       -2.634079   -0.424441    0.050819
     20          1           0       -2.222116   -1.239356    0.642062
     21          1           0       -3.531112   -0.055899    0.548389
     22          1           0       -2.931147   -0.822462   -0.920986
 ---------------------------------------------------------------------
 Rotational constants (GHZ):           4.1222780           1.6390914           1.5918144
 Standard basis: 6-311+G(2d,2p) (5D, 7F)
 There are   338 symmetry adapted cartesian basis functions of A   symmetry.
 There are   324 symmetry adapted basis functions of A   symmetry.
   324 basis functions,   459 primitive gaussians,   338 cartesian basis functions
    29 alpha electrons       29 beta electrons
       nuclear repulsion energy       346.2175346796 Hartrees.
 NAtoms=   22 NActive=   22 NUniq=   22 SFac= 1.00D+00 NAtFMM=   60 NAOKFM=F Big=F
 Integral buffers will be    131072 words long.
 Raffenetti 2 integral format.
 Two-electron integral symmetry is turned on.
 Nuclear repulsion after empirical dispersion term =      346.2015033241 Hartrees.
 One-electron integrals computed using PRISM.
 NBasis=   324 RedAO= T EigKep=  2.62D-05  NBF=   324
 NBsUse=   324 1.00D-06 EigRej= -1.00D+00 NBFU=   324
 Initial guess from the checkpoint file:  "aminopropyl_ylide.chk"
 B after Tr=    -0.000000   -0.000000    0.000000
         Rot=    0.999922    0.012364   -0.001596    0.000235 Ang=   1.43 deg.
 ExpMin= 4.38D-02 ExpMax= 6.29D+03 ExpMxC= 9.49D+02 IAcc=2 IRadAn=         4 AccDes= 0.00D+00
 Harris functional with IExCor= 4639 and IRadAn=       4 diagonalized for initial guess.
 HarFok:  IExCor= 4639 AccDes= 0.00D+00 IRadAn=         4 IDoV= 1 UseB2=F ITyADJ=14
 ICtDFT=  3500011 ScaDFX=  1.000000  1.000000  1.000000  1.000000
 FoFCou: FMM=F IPFlag=           0 FMFlag=      100000 FMFlg1=           0
         NFxFlg=           0 DoJE=T BraDBF=F KetDBF=T FulRan=T
         wScrn=  0.000000 ICntrl=       500 IOpCl=  0 I1Cent=   200000004 NGrid=           0
         NMat0=    1 NMatS0=      1 NMatT0=    0 NMatD0=    1 NMtDS0=    0 NMtDT0=    0
 Petite list used in FoFCou.
 Requested convergence on RMS density matrix=1.00D-08 within  32 cycles.
 Requested convergence on MAX density matrix=1.00D-06.
 Requested convergence on             energy=1.00D-06.
 No special actions if energy rises.
 SCF Done:  E(RwB97XD) =  -292.313356202     A.U. after   11 cycles
            NFock= 11  Conv=0.69D-08     -V/T= 2.0047
 QCSCF skips out because SCF is already converged.
 Calling FoFJK, ICntrl=      2127 FMM=F ISym2X=0 I1Cent= 0 IOpClX= 0 NMat=1 NMatS=1 NMatT=0.
 ***** Axes restored to original set *****
 -------------------------------------------------------------------
 Center     Atomic                   Forces (Hartrees/Bohr)
 Number     Number              X              Y              Z
 -------------------------------------------------------------------
      1        6           0.000502368   -0.000031824   -0.000030446
      2        1          -0.000119133    0.000278419   -0.000036068
      3        1          -0.000025310    0.000104342    0.000109246
      4        6           0.000045742   -0.000274365   -0.000196230
      5        1          -0.000082593    0.000143316   -0.000000985
      6        1          -0.000059611    0.000189550   -0.000126564
      7        7          -0.000047054    0.000149984    0.000195734
      8        6           0.000010520   -0.000020818   -0.000253142
      9        1          -0.000015209   -0.000013717    0.000079313
     10        1          -0.000000148    0.000004967    0.000025410
     11        1           0.000004723    0.000036196    0.000099562
     12        6           0.000053571   -0.000031630    0.000212704
     13        1           0.000003520   -0.000044570   -0.000044222
     14        1          -0.000033889    0.000026170   -0.000077891
     15        1          -0.000043473    0.000027615   -0.000084567
     16        6          -0.000134839   -0.000350870   -0.000022032
     17        1           0.000150098    0.000099647   -0.000064654
     18        1           0.000241038    0.000140529    0.000045885
     19        6          -0.000453700   -0.000673960    0.000500462
     20        1          -0.000267147    0.000080678   -0.000134675
     21        1           0.000119264    0.000043341    0.000008121
     22        1           0.000151261    0.000117000   -0.000204962
 -------------------------------------------------------------------
 Cartesian Forces:  Max     0.000673960 RMS     0.000180329

 GradGradGradGradGradGradGradGradGradGradGradGradGradGradGradGradGradGrad
 Berny optimization.
 Using GEDIIS/GDIIS optimizer.
 FormGI is forming the generalized inverse of G from B-inverse, IUseBI=4.
 Internal  Forces:  Max     0.000695293 RMS     0.000145314
 Search for a local minimum.
 Step number   8 out of a maximum of  121
 All quantities printed in internal units (Hartrees-Bohrs-Radians)
 Mixed Optimization -- En-DIIS/RFO-DIIS
 Swapping is turned off.
 Update second derivatives using D2CorX and points    5    6    7    8
 DE= -5.57D-05 DEPred=-4.91D-05 R= 1.13D+00
 TightC=F SS=  1.41D+00  RLast= 1.60D-01 DXNew= 2.4000D+00 4.8018D-01
 Trust test= 1.13D+00 RLast= 1.60D-01 DXMaxT set to 1.43D+00
 ITU=  1  0  1  0  1  1  1  0
     Eigenvalues ---    0.00174   0.00232   0.00309   0.00434   0.00446
     Eigenvalues ---    0.00784   0.03352   0.03802   0.04552   0.04709
     Eigenvalues ---    0.04900   0.04944   0.05464   0.05497   0.05579
     Eigenvalues ---    0.05815   0.05832   0.06115   0.06137   0.06704
     Eigenvalues ---    0.08623   0.08889   0.12425   0.12672   0.14144
     Eigenvalues ---    0.15277   0.15710   0.15946   0.15992   0.16000
     Eigenvalues ---    0.16000   0.16000   0.16019   0.16090   0.16507
     Eigenvalues ---    0.16715   0.17084   0.21353   0.26297   0.29723
     Eigenvalues ---    0.30018   0.30798   0.32708   0.33277   0.33939
     Eigenvalues ---    0.34784   0.34855   0.34943   0.34994   0.35068
     Eigenvalues ---    0.35117   0.35132   0.35171   0.35224   0.35275
     Eigenvalues ---    0.35421   0.36528   0.37137   0.37194   0.39634
 En-DIIS/RFO-DIIS/Sim-DIIS IScMMF=       -3 using points:     8    7    6    5    4    3
 RFO step:  Lambda=-3.13282522D-05.
 DidBck=F Rises=F RFO-DIIS coefs:    1.77836   -0.41470   -0.16368   -0.10835   -0.04143
                  RFO-DIIS coefs:   -0.05020
 Iteration  1 RMS(Cart)=  0.01909766 RMS(Int)=  0.00031428
 Iteration  2 RMS(Cart)=  0.00034376 RMS(Int)=  0.00001011
 Iteration  3 RMS(Cart)=  0.00000011 RMS(Int)=  0.00001011
 Variable       Old X    -DE/DX   Delta X   Delta X   Delta X     New X
                                 (Linear)    (Quad)   (Total)
    R1        2.05980   0.00009  -0.00080   0.00060  -0.00020   2.05960
    R2        2.06284  -0.00007   0.00002  -0.00029  -0.00027   2.06258
    R3        2.88740   0.00001   0.00085  -0.00012   0.00074   2.88814
    R4        2.88485  -0.00061   0.00191  -0.00337  -0.00146   2.88339
    R5        2.05845   0.00002  -0.00029   0.00017  -0.00013   2.05832
    R6        2.06541  -0.00020   0.00105  -0.00106  -0.00001   2.06540
    R7        2.86038  -0.00014  -0.00056   0.00001  -0.00055   2.85983
    R8        2.79955  -0.00004   0.00050  -0.00053  -0.00003   2.79952
    R9        2.80122   0.00002  -0.00022  -0.00011  -0.00033   2.80089
   R10        2.87876  -0.00015  -0.00134  -0.00023  -0.00157   2.87719
   R11        2.05008   0.00002  -0.00018   0.00014  -0.00004   2.05004
   R12        2.06076  -0.00000   0.00004  -0.00000   0.00004   2.06080
   R13        2.05102   0.00009  -0.00047   0.00048   0.00001   2.05102
   R14        2.06202   0.00005  -0.00023   0.00028   0.00005   2.06206
   R15        2.04978   0.00002  -0.00008   0.00010   0.00002   2.04981
   R16        2.05322   0.00008  -0.00039   0.00041   0.00002   2.05324
   R17        2.07422   0.00014  -0.00133   0.00104  -0.00030   2.07392
   R18        2.07060   0.00023  -0.00170   0.00139  -0.00030   2.07030
   R19        2.05570   0.00025   0.00019   0.00100   0.00119   2.05688
   R20        2.05977   0.00011  -0.00046   0.00077   0.00032   2.06009
   R21        2.06238   0.00020  -0.00107   0.00129   0.00023   2.06260
    A1        1.84884  -0.00004   0.00174   0.00106   0.00280   1.85164
    A2        1.92341   0.00010   0.00176  -0.00281  -0.00112   1.92229
    A3        1.91240   0.00002  -0.00120  -0.00286  -0.00409   1.90831
    A4        1.87766   0.00028   0.00354   0.00340   0.00694   1.88460
    A5        1.90452   0.00016   0.00100   0.00264   0.00366   1.90818
    A6        1.99122  -0.00049  -0.00613  -0.00107  -0.00723   1.98399
    A7        1.91852   0.00017   0.00012  -0.00012  -0.00002   1.91850
    A8        1.92884   0.00030   0.00064   0.00269   0.00333   1.93217
    A9        2.01828  -0.00070  -0.00050  -0.00381  -0.00432   2.01396
   A10        1.87904  -0.00009  -0.00135   0.00133  -0.00002   1.87902
   A11        1.84029   0.00014  -0.00119  -0.00056  -0.00176   1.83853
   A12        1.87226   0.00020   0.00216   0.00065   0.00282   1.87508
   A13        1.91308   0.00004   0.00051   0.00000   0.00051   1.91360
   A14        1.86726   0.00007   0.00037   0.00035   0.00071   1.86797
   A15        2.04813  -0.00019  -0.00088  -0.00111  -0.00200   2.04614
   A16        1.88147  -0.00007  -0.00043   0.00001  -0.00042   1.88105
   A17        1.87983   0.00008   0.00062   0.00031   0.00093   1.88076
   A18        1.86768   0.00007  -0.00021   0.00052   0.00032   1.86799
   A19        1.87286   0.00010  -0.00092   0.00120   0.00028   1.87314
   A20        1.92179   0.00001  -0.00096   0.00056  -0.00040   1.92139
   A21        1.90620   0.00005  -0.00071   0.00053  -0.00019   1.90601
   A22        1.94645  -0.00005   0.00090  -0.00058   0.00032   1.94677
   A23        1.89619  -0.00008   0.00164  -0.00143   0.00021   1.89640
   A24        1.91934  -0.00003   0.00004  -0.00026  -0.00022   1.91912
   A25        1.92404   0.00003  -0.00069   0.00065  -0.00005   1.92400
   A26        1.87979   0.00007  -0.00104   0.00106   0.00003   1.87981
   A27        1.88993   0.00005  -0.00037   0.00033  -0.00004   1.88989
   A28        1.94669  -0.00002   0.00009   0.00007   0.00016   1.94685
   A29        1.92170  -0.00004   0.00025  -0.00045  -0.00020   1.92149
   A30        1.90028  -0.00008   0.00176  -0.00165   0.00011   1.90039
   A31        1.82194   0.00004   0.00019  -0.00056  -0.00037   1.82157
   A32        1.83334   0.00004   0.00164  -0.00072   0.00092   1.83425
   A33        1.87113  -0.00013   0.00488  -0.00416   0.00070   1.87183
   A34        1.93391  -0.00020  -0.00500  -0.00003  -0.00504   1.92887
   A35        1.93249   0.00007  -0.00004   0.00104   0.00100   1.93349
   A36        1.93108   0.00028  -0.00328   0.00362   0.00034   1.93142
   A37        1.89320   0.00008   0.00035   0.00065   0.00099   1.89419
   A38        1.89004  -0.00009   0.00566  -0.00355   0.00210   1.89213
   A39        1.88156  -0.00015   0.00275  -0.00193   0.00082   1.88237
    D1        2.52779  -0.00028  -0.03759  -0.00515  -0.04274   2.48506
    D2       -1.68375  -0.00010  -0.03878  -0.00192  -0.04071  -1.72446
    D3        0.44710  -0.00011  -0.03577  -0.00172  -0.03749   0.40961
    D4       -1.74739  -0.00011  -0.03267  -0.00347  -0.03613  -1.78352
    D5        0.32425   0.00007  -0.03387  -0.00025  -0.03410   0.29015
    D6        2.45510   0.00006  -0.03085  -0.00005  -0.03089   2.42422
    D7        0.36798  -0.00002  -0.03281   0.00163  -0.03119   0.33679
    D8        2.43963   0.00016  -0.03401   0.00485  -0.02916   2.41047
    D9       -1.71271   0.00015  -0.03099   0.00505  -0.02595  -1.73866
   D10       -1.09551   0.00004  -0.02349   0.00126  -0.02225  -1.11776
   D11        1.00600   0.00006  -0.02641   0.00275  -0.02368   0.98233
   D12        3.09107   0.00010  -0.02513   0.00336  -0.02179   3.06928
   D13       -3.11255  -0.00002  -0.02547   0.00010  -0.02537  -3.13792
   D14       -1.01104  -0.00000  -0.02839   0.00159  -0.02680  -1.03783
   D15        1.07403   0.00004  -0.02711   0.00220  -0.02491   1.04912
   D16        1.07022  -0.00017  -0.02664  -0.00545  -0.03208   1.03814
   D17       -3.11145  -0.00015  -0.02956  -0.00397  -0.03351   3.13823
   D18       -1.02638  -0.00011  -0.02828  -0.00336  -0.03163  -1.05801
   D19       -1.23008  -0.00007   0.00477  -0.00037   0.00441  -1.22567
   D20        3.01759  -0.00004   0.00481  -0.00057   0.00425   3.02183
   D21        0.92045  -0.00006   0.00538  -0.00080   0.00458   0.92503
   D22        2.92994   0.00005   0.00583   0.00256   0.00838   2.93832
   D23        0.89442   0.00007   0.00587   0.00235   0.00822   0.90264
   D24       -1.20272   0.00005   0.00644   0.00213   0.00856  -1.19416
   D25        0.93066  -0.00000   0.00695   0.00102   0.00797   0.93863
   D26       -1.10486   0.00002   0.00699   0.00082   0.00781  -1.09706
   D27        3.08119  -0.00000   0.00755   0.00059   0.00814   3.08933
   D28       -3.10321  -0.00008   0.00126   0.00056   0.00182  -3.10139
   D29       -0.98167  -0.00006   0.00122   0.00093   0.00215  -0.97953
   D30        1.12756  -0.00006   0.00021   0.00130   0.00151   1.12907
   D31       -1.07668  -0.00001   0.00173   0.00098   0.00271  -1.07397
   D32        1.04486   0.00000   0.00169   0.00135   0.00303   1.04790
   D33       -3.12909   0.00000   0.00068   0.00172   0.00240  -3.12669
   D34        0.93312   0.00008   0.00159   0.00175   0.00334   0.93645
   D35        3.05466   0.00009   0.00154   0.00212   0.00366   3.05832
   D36       -1.11929   0.00009   0.00054   0.00249   0.00302  -1.11627
   D37        0.95438   0.00005   0.00457  -0.00131   0.00326   0.95764
   D38        3.08191   0.00009   0.00360  -0.00016   0.00344   3.08535
   D39       -1.14890   0.00006   0.00492  -0.00135   0.00356  -1.14534
   D40       -1.10195   0.00000   0.00400  -0.00150   0.00251  -1.09944
   D41        1.02558   0.00004   0.00303  -0.00035   0.00269   1.02827
   D42        3.07796   0.00000   0.00435  -0.00154   0.00280   3.08076
   D43       -3.11975  -0.00009   0.00360  -0.00212   0.00148  -3.11827
   D44       -0.99222  -0.00006   0.00263  -0.00097   0.00166  -0.99057
   D45        1.06015  -0.00009   0.00394  -0.00217   0.00177   1.06193
   D46        0.88983  -0.00003   0.00963  -0.00409   0.00554   0.89537
   D47       -1.07640   0.00008   0.00354   0.00102   0.00455  -1.07185
   D48        3.05720  -0.00005   0.01019  -0.00465   0.00554   3.06274
   D49        1.09096   0.00006   0.00410   0.00046   0.00455   1.09552
   D50       -1.20709  -0.00005   0.00989  -0.00422   0.00567  -1.20142
   D51        3.10986   0.00006   0.00381   0.00088   0.00469   3.11455
         Item               Value     Threshold  Converged?
 Maximum Force            0.000695     0.000450     NO 
 RMS     Force            0.000145     0.000300     YES
 Maximum Displacement     0.096472     0.001800     NO 
 RMS     Displacement     0.019094     0.001200     NO 
 Predicted change in Energy=-1.425257D-05
 GradGradGradGradGradGradGradGradGradGradGradGradGradGradGradGradGradGrad

                          Input orientation:                          
 ---------------------------------------------------------------------
 Center     Atomic      Atomic             Coordinates (Angstroms)
 Number     Number       Type             X           Y           Z
 ---------------------------------------------------------------------
      1          6           0        0.606522   -0.725878    0.313082
      2          1           0        0.234089   -0.384098    1.278664
      3          1           0        1.327624   -1.516125    0.529472
      4          6           0       -0.531736   -1.336608   -0.503735
      5          1           0       -0.415487   -1.076118   -1.554936
      6          1           0       -0.519223   -2.426938   -0.428975
      7          7           0       -1.922116   -0.872267   -0.127598
      8          6           0       -2.290285   -1.424606    1.196808
      9          1           0       -3.304435   -1.103795    1.409996
     10          1           0       -2.208413   -2.511991    1.185036
     11          1           0       -1.629426   -1.011501    1.952192
     12          6           0       -2.855131   -1.439682   -1.129769
     13          1           0       -2.738561   -2.523329   -1.182977
     14          1           0       -3.862035   -1.161191   -0.837910
     15          1           0       -2.632261   -0.992455   -2.094580
     16          6           0       -2.168522    0.629714   -0.089183
     17          1           0       -1.802704    0.990601   -1.058918
     18          1           0       -1.485828    1.011303    0.677996
     19          6           0        1.316346    0.426536   -0.391356
     20          1           0        0.614448    1.228312   -0.613233
     21          1           0        2.115032    0.828087    0.232577
     22          1           0        1.761752    0.089014   -1.328920
 ---------------------------------------------------------------------
                    Distance matrix (angstroms):
                    1          2          3          4          5
     1  C    0.000000
     2  H    1.089893   0.000000
     3  H    1.091468   1.743155   0.000000
     4  C    1.528337   2.161183   2.134705   0.000000
     5  H    2.157931   2.988332   2.752599   1.089216   0.000000
     6  H    2.170613   2.767076   2.271354   1.092962   1.761608
     7  N    2.570922   2.620134   3.377441   1.513357   2.085373
     8  C    3.108164   2.731634   3.680079   2.447873   3.347896
     9  H    4.079415   3.613359   4.733002   3.377044   4.139759
    10  H    3.445920   3.240758   3.731631   2.654189   3.575439
    11  H    2.787064   2.078453   3.320079   2.709649   3.711843
    12  C    3.817640   4.056857   4.500485   2.408465   2.502960
    13  H    4.081496   4.412781   4.525573   2.596104   2.762145
    14  H    4.634899   4.675681   5.378501   3.351617   3.521372
    15  H    4.044455   4.468203   4.779181   2.657336   2.283047
    16  C    3.114533   2.944717   4.148541   2.591784   2.851566
    17  H    3.260836   3.391550   4.313422   2.709149   2.538057
    18  H    2.743882   2.294790   3.784899   2.796331   3.238664
    19  C    1.525824   2.148807   2.149879   2.556700   2.571213
    20  H    2.162632   2.514719   3.057176   2.811502   2.694062
    21  H    2.167231   2.470149   2.490680   3.497634   3.636582
    22  H    2.166743   3.058935   2.493704   2.823724   2.479715
                    6          7          8          9         10
     6  H    0.000000
     7  N    2.115641   0.000000
     8  C    2.604707   1.481444   0.000000
     9  H    3.590254   2.080530   1.084836   0.000000
    10  H    2.337869   2.119827   1.090526   1.798578   0.000000
    11  H    2.984288   2.104894   1.085356   1.762994   1.781916
    12  C    2.631017   1.482168   2.394209   2.600980   2.631808
    13  H    2.345905   2.122832   2.659233   3.009784   2.426659
    14  H    3.597740   2.085978   2.584543   2.316742   2.941333
    15  H    3.049083   2.094701   3.337205   3.570192   3.639302
    16  C    3.489809   1.522544   2.426691   2.557907   3.390506
    17  H    3.704554   2.086119   3.340547   3.568925   4.179483
    18  H    3.739146   2.094556   2.617244   2.883885   3.632192
    19  C    3.393088   3.499157   4.353938   5.190221   4.852203
    20  H    3.831451   3.329029   4.330322   4.988970   5.019181
    21  H    4.239357   4.395395   5.040951   5.872743   5.545762
    22  H    3.513227   3.992258   5.008927   5.881386   5.370979
                   11         12         13         14         15
    11  H    0.000000
    12  C    3.344275   0.000000
    13  H    3.653094   1.091197   0.000000
    14  H    3.576537   1.084710   1.799079   0.000000
    15  H    4.169222   1.086529   1.784908   1.766363   0.000000
    16  C    2.674215   2.415916   3.385707   2.576028   2.620707
    17  H    3.620114   2.649320   3.638533   2.986619   2.386057
    18  H    2.394981   3.339211   4.186429   3.558660   3.607843
    19  C    4.029608   4.629173   5.076480   5.434696   4.528356
    20  H    4.078375   4.407151   5.063802   5.079282   4.203250
    21  H    4.512442   5.630389   6.065736   6.389719   5.591674
    22  H    4.845299   4.867461   5.205617   5.781962   4.589461
                   16         17         18         19         20
    16  C    0.000000
    17  H    1.097474   0.000000
    18  H    1.095556   1.765703   0.000000
    19  C    3.503840   3.239180   3.055756   0.000000
    20  H    2.894455   2.469366   2.474980   1.088456   0.000000
    21  H    4.300200   4.128320   3.632927   1.090153   1.768425
    22  H    4.156484   3.686612   3.927481   1.091483   1.768195
                   21         22
    21  H    0.000000
    22  H    1.763323   0.000000
 Stoichiometry    C6H15N
 Framework group  C1[X(C6H15N)]
 Deg. of freedom    60
 Full point group                 C1      NOp   1
 Largest Abelian subgroup         C1      NOp   1
 Largest concise Abelian subgroup C1      NOp   1
                         Standard orientation:                         
 ---------------------------------------------------------------------
 Center     Atomic      Atomic             Coordinates (Angstroms)
 Number     Number       Type             X           Y           Z
 ---------------------------------------------------------------------
      1          6           0       -1.607414    0.691468   -0.122113
      2          1           0       -1.354625    1.106015    0.853650
      3          1           0       -2.051438    1.509315   -0.692439
      4          6           0       -0.339258    0.243964   -0.848292
      5          1           0       -0.532723   -0.674162   -1.401472
      6          1           0       -0.017272    1.002238   -1.566561
      7          7           0        0.843401   -0.067375    0.043131
      8          6           0        1.366812    1.187093    0.632220
      9          1           0        2.234742    0.926392    1.228542
     10          1           0        1.621612    1.894159   -0.157958
     11          1           0        0.613448    1.616595    1.284882
     12          6           0        1.902363   -0.636511   -0.823763
     13          1           0        2.122866    0.044847   -1.647073
     14          1           0        2.776577   -0.810507   -0.205644
     15          1           0        1.550498   -1.588661   -1.211251
     16          6           0        0.618435   -1.055533    1.179385
     17          1           0        0.156891   -1.925990    0.695930
     18          1           0       -0.146036   -0.592527    1.812988
     19          6           0       -2.637918   -0.420120    0.052747
     20          1           0       -2.215720   -1.245411    0.623168
     21          1           0       -3.519343   -0.051333    0.577647
     22          1           0       -2.961399   -0.801509   -0.917426
 ---------------------------------------------------------------------
 Rotational constants (GHZ):           4.1305404           1.6383636           1.5917439
 Standard basis: 6-311+G(2d,2p) (5D, 7F)
 There are   338 symmetry adapted cartesian basis functions of A   symmetry.
 There are   324 symmetry adapted basis functions of A   symmetry.
   324 basis functions,   459 primitive gaussians,   338 cartesian basis functions
    29 alpha electrons       29 beta electrons
       nuclear repulsion energy       346.3124587453 Hartrees.
 NAtoms=   22 NActive=   22 NUniq=   22 SFac= 1.00D+00 NAtFMM=   60 NAOKFM=F Big=F
 Integral buffers will be    131072 words long.
 Raffenetti 2 integral format.
 Two-electron integral symmetry is turned on.
 Nuclear repulsion after empirical dispersion term =      346.2964291775 Hartrees.
 One-electron integrals computed using PRISM.
 NBasis=   324 RedAO= T EigKep=  2.63D-05  NBF=   324
 NBsUse=   324 1.00D-06 EigRej= -1.00D+00 NBFU=   324
 Initial guess from the checkpoint file:  "aminopropyl_ylide.chk"
 B after Tr=     0.000000   -0.000000    0.000000
         Rot=    0.999922    0.012451   -0.000769    0.000057 Ang=   1.43 deg.
 ExpMin= 4.38D-02 ExpMax= 6.29D+03 ExpMxC= 9.49D+02 IAcc=2 IRadAn=         4 AccDes= 0.00D+00
 Harris functional with IExCor= 4639 and IRadAn=       4 diagonalized for initial guess.
 HarFok:  IExCor= 4639 AccDes= 0.00D+00 IRadAn=         4 IDoV= 1 UseB2=F ITyADJ=14
 ICtDFT=  3500011 ScaDFX=  1.000000  1.000000  1.000000  1.000000
 FoFCou: FMM=F IPFlag=           0 FMFlag=      100000 FMFlg1=           0
         NFxFlg=           0 DoJE=T BraDBF=F KetDBF=T FulRan=T
         wScrn=  0.000000 ICntrl=       500 IOpCl=  0 I1Cent=   200000004 NGrid=           0
         NMat0=    1 NMatS0=      1 NMatT0=    0 NMatD0=    1 NMtDS0=    0 NMtDT0=    0
 Petite list used in FoFCou.
 Requested convergence on RMS density matrix=1.00D-08 within  32 cycles.
 Requested convergence on MAX density matrix=1.00D-06.
 Requested convergence on             energy=1.00D-06.
 No special actions if energy rises.
 SCF Done:  E(RwB97XD) =  -292.313370577     A.U. after   11 cycles
            NFock= 11  Conv=0.52D-08     -V/T= 2.0047
 QCSCF skips out because SCF is already converged.
 Calling FoFJK, ICntrl=      2127 FMM=F ISym2X=0 I1Cent= 0 IOpClX= 0 NMat=1 NMatS=1 NMatT=0.
 ***** Axes restored to original set *****
 -------------------------------------------------------------------
 Center     Atomic                   Forces (Hartrees/Bohr)
 Number     Number              X              Y              Z
 -------------------------------------------------------------------
      1        6           0.000219357    0.000051786   -0.000055323
      2        1          -0.000085813    0.000027981   -0.000002118
      3        1          -0.000129611    0.000077379    0.000090963
      4        6           0.000257663   -0.000403682   -0.000138801
      5        1          -0.000042851    0.000042818   -0.000034875
      6        1          -0.000131342    0.000220299    0.000009629
      7        7          -0.000238661   -0.000163861    0.000274239
      8        6           0.000112201   -0.000028133   -0.000198877
      9        1          -0.000013821   -0.000008899    0.000082271
     10        1          -0.000026587   -0.000003437    0.000034521
     11        1          -0.000042034    0.000006859    0.000122793
     12        6           0.000074840   -0.000065350    0.000080613
     13        1          -0.000004470   -0.000006676   -0.000030141
     14        1          -0.000029287    0.000017300   -0.000084382
     15        1          -0.000067037    0.000016600   -0.000096176
     16        6          -0.000324187   -0.000246012   -0.000015478
     17        1           0.000176552    0.000232880   -0.000110932
     18        1           0.000249249    0.000234810    0.000053483
     19        6          -0.000174277   -0.000459909    0.000483456
     20        1           0.000111073    0.000097683   -0.000073168
     21        1           0.000061349    0.000076620   -0.000190476
     22        1           0.000047696    0.000282947   -0.000201223
 -------------------------------------------------------------------
 Cartesian Forces:  Max     0.000483456 RMS     0.000162609

 GradGradGradGradGradGradGradGradGradGradGradGradGradGradGradGradGradGrad
 Berny optimization.
 Using GEDIIS/GDIIS optimizer.
 FormGI is forming the generalized inverse of G from B-inverse, IUseBI=4.
 Internal  Forces:  Max     0.000366173 RMS     0.000094091
 Search for a local minimum.
 Step number   9 out of a maximum of  121
 All quantities printed in internal units (Hartrees-Bohrs-Radians)
 Mixed Optimization -- En-DIIS/RFO-DIIS
 Swapping is turned off.
 Update second derivatives using D2CorX and points    5    6    7    8    9
 DE= -1.44D-05 DEPred=-1.43D-05 R= 1.01D+00
 TightC=F SS=  1.41D+00  RLast= 1.36D-01 DXNew= 2.4000D+00 4.0749D-01
 Trust test= 1.01D+00 RLast= 1.36D-01 DXMaxT set to 1.43D+00
 ITU=  1  1  0  1  0  1  1  1  0
     Eigenvalues ---    0.00160   0.00227   0.00314   0.00433   0.00446
     Eigenvalues ---    0.00815   0.03376   0.03882   0.04545   0.04767
     Eigenvalues ---    0.04921   0.04984   0.05485   0.05499   0.05586
     Eigenvalues ---    0.05816   0.05848   0.06113   0.06137   0.06702
     Eigenvalues ---    0.08573   0.08857   0.12383   0.12673   0.14461
     Eigenvalues ---    0.15468   0.15709   0.15945   0.15992   0.16000
     Eigenvalues ---    0.16000   0.16004   0.16019   0.16095   0.16562
     Eigenvalues ---    0.16850   0.18092   0.21387   0.26343   0.29323
     Eigenvalues ---    0.29975   0.30925   0.32933   0.33373   0.34220
     Eigenvalues ---    0.34793   0.34868   0.34957   0.35012   0.35082
     Eigenvalues ---    0.35121   0.35129   0.35181   0.35220   0.35372
     Eigenvalues ---    0.35443   0.36455   0.37138   0.37230   0.39061
 En-DIIS/RFO-DIIS/Sim-DIIS IScMMF=       -3 using points:     9    8    7    6    5    4    3
 RFO step:  Lambda=-1.02551816D-05.
 DidBck=F Rises=F RFO-DIIS coefs:    0.88135    0.24822   -0.17980   -0.09081    0.04025
                  RFO-DIIS coefs:    0.06457    0.03623
 Iteration  1 RMS(Cart)=  0.00835643 RMS(Int)=  0.00009156
 Iteration  2 RMS(Cart)=  0.00009531 RMS(Int)=  0.00000190
 Iteration  3 RMS(Cart)=  0.00000001 RMS(Int)=  0.00000190
 Variable       Old X    -DE/DX   Delta X   Delta X   Delta X     New X
                                 (Linear)    (Quad)   (Total)
    R1        2.05960   0.00004   0.00007   0.00008   0.00016   2.05976
    R2        2.06258  -0.00012  -0.00008  -0.00023  -0.00031   2.06226
    R3        2.88814   0.00013  -0.00007   0.00028   0.00021   2.88835
    R4        2.88339   0.00001  -0.00038   0.00084   0.00046   2.88385
    R5        2.05832   0.00004   0.00009  -0.00002   0.00007   2.05839
    R6        2.06540  -0.00022  -0.00008  -0.00047  -0.00054   2.06486
    R7        2.85983   0.00015  -0.00006   0.00059   0.00053   2.86036
    R8        2.79952   0.00004   0.00011  -0.00015  -0.00004   2.79949
    R9        2.80089   0.00012   0.00026  -0.00002   0.00023   2.80113
   R10        2.87719   0.00020  -0.00011   0.00056   0.00045   2.87764
   R11        2.05004   0.00003  -0.00004   0.00011   0.00008   2.05012
   R12        2.06080   0.00000   0.00004  -0.00004  -0.00000   2.06079
   R13        2.05102   0.00006   0.00006   0.00011   0.00018   2.05120
   R14        2.06206   0.00001   0.00015  -0.00011   0.00003   2.06210
   R15        2.04981   0.00001  -0.00008   0.00012   0.00004   2.04984
   R16        2.05324   0.00008   0.00005   0.00016   0.00021   2.05345
   R17        2.07392   0.00023   0.00026   0.00037   0.00063   2.07456
   R18        2.07030   0.00027   0.00028   0.00043   0.00071   2.07101
   R19        2.05688   0.00002   0.00025  -0.00028  -0.00002   2.05686
   R20        2.06009  -0.00004   0.00046  -0.00046   0.00000   2.06009
   R21        2.06260   0.00011   0.00037  -0.00007   0.00030   2.06290
    A1        1.85164   0.00000  -0.00019  -0.00047  -0.00066   1.85098
    A2        1.92229  -0.00005  -0.00049  -0.00047  -0.00096   1.92133
    A3        1.90831  -0.00004  -0.00062   0.00044  -0.00019   1.90812
    A4        1.88460  -0.00006  -0.00017  -0.00076  -0.00092   1.88369
    A5        1.90818   0.00004  -0.00011   0.00069   0.00058   1.90876
    A6        1.98399   0.00010   0.00146   0.00050   0.00197   1.98596
    A7        1.91850   0.00003   0.00021   0.00007   0.00028   1.91879
    A8        1.93217   0.00010  -0.00004   0.00034   0.00031   1.93248
    A9        2.01396  -0.00007  -0.00043   0.00043   0.00000   2.01397
   A10        1.87902   0.00001   0.00023   0.00023   0.00046   1.87948
   A11        1.83853   0.00000   0.00016  -0.00025  -0.00009   1.83844
   A12        1.87508  -0.00007  -0.00009  -0.00086  -0.00096   1.87412
   A13        1.91360   0.00001  -0.00006   0.00023   0.00017   1.91376
   A14        1.86797  -0.00002  -0.00024  -0.00025  -0.00049   1.86748
   A15        2.04614  -0.00005   0.00019  -0.00047  -0.00028   2.04586
   A16        1.88105   0.00000   0.00014  -0.00005   0.00009   1.88114
   A17        1.88076   0.00004  -0.00022   0.00067   0.00045   1.88121
   A18        1.86799   0.00002   0.00021  -0.00013   0.00008   1.86808
   A19        1.87314   0.00007   0.00039  -0.00002   0.00037   1.87351
   A20        1.92139   0.00003   0.00046  -0.00018   0.00028   1.92167
   A21        1.90601   0.00013   0.00036   0.00034   0.00070   1.90671
   A22        1.94677  -0.00006  -0.00030  -0.00013  -0.00043   1.94634
   A23        1.89640  -0.00011  -0.00070  -0.00011  -0.00081   1.89560
   A24        1.91912  -0.00006  -0.00021   0.00011  -0.00010   1.91902
   A25        1.92400   0.00001   0.00056  -0.00041   0.00016   1.92415
   A26        1.87981   0.00008   0.00025   0.00023   0.00048   1.88029
   A27        1.88989   0.00009   0.00032   0.00008   0.00039   1.89029
   A28        1.94685  -0.00003  -0.00015   0.00014   0.00000   1.94685
   A29        1.92149  -0.00005  -0.00029   0.00006  -0.00023   1.92127
   A30        1.90039  -0.00010  -0.00068  -0.00010  -0.00078   1.89960
   A31        1.82157   0.00022   0.00061   0.00013   0.00074   1.82231
   A32        1.83425   0.00018  -0.00026   0.00075   0.00049   1.83475
   A33        1.87183  -0.00022  -0.00054  -0.00158  -0.00212   1.86972
   A34        1.92887   0.00011   0.00092   0.00045   0.00137   1.93023
   A35        1.93349   0.00020  -0.00008   0.00116   0.00108   1.93457
   A36        1.93142   0.00037   0.00068   0.00182   0.00251   1.93392
   A37        1.89419  -0.00017   0.00019  -0.00114  -0.00095   1.89324
   A38        1.89213  -0.00028  -0.00153  -0.00133  -0.00286   1.88927
   A39        1.88237  -0.00025  -0.00027  -0.00109  -0.00136   1.88101
    D1        2.48506  -0.00003   0.00567   0.00026   0.00593   2.49099
    D2       -1.72446   0.00006   0.00606   0.00081   0.00687  -1.71759
    D3        0.40961  -0.00001   0.00558   0.00025   0.00584   0.41544
    D4       -1.78352  -0.00008   0.00511  -0.00098   0.00413  -1.77939
    D5        0.29015   0.00001   0.00550  -0.00043   0.00506   0.29521
    D6        2.42422  -0.00006   0.00502  -0.00099   0.00403   2.42825
    D7        0.33679  -0.00001   0.00581  -0.00032   0.00549   0.34228
    D8        2.41047   0.00008   0.00620   0.00023   0.00642   2.41689
    D9       -1.73866   0.00001   0.00572  -0.00033   0.00539  -1.73326
   D10       -1.11776   0.00004   0.02246   0.00010   0.02256  -1.09520
   D11        0.98233   0.00003   0.02326  -0.00028   0.02298   1.00530
   D12        3.06928   0.00008   0.02332   0.00029   0.02361   3.09289
   D13       -3.13792   0.00004   0.02308   0.00004   0.02312  -3.11479
   D14       -1.03783   0.00003   0.02389  -0.00034   0.02354  -1.01429
   D15        1.04912   0.00008   0.02395   0.00023   0.02418   1.07329
   D16        1.03814   0.00001   0.02238   0.00018   0.02256   1.06070
   D17        3.13823   0.00000   0.02318  -0.00020   0.02298  -3.12198
   D18       -1.05801   0.00006   0.02324   0.00037   0.02361  -1.03439
   D19       -1.22567  -0.00002  -0.00068  -0.00022  -0.00091  -1.22658
   D20        3.02183  -0.00001  -0.00068  -0.00014  -0.00082   3.02101
   D21        0.92503   0.00001  -0.00090   0.00053  -0.00037   0.92466
   D22        2.93832  -0.00002  -0.00081  -0.00039  -0.00120   2.93712
   D23        0.90264  -0.00001  -0.00081  -0.00031  -0.00112   0.90152
   D24       -1.19416   0.00001  -0.00103   0.00036  -0.00066  -1.19482
   D25        0.93863   0.00001  -0.00110  -0.00015  -0.00125   0.93737
   D26       -1.09706   0.00001  -0.00110  -0.00007  -0.00117  -1.09823
   D27        3.08933   0.00003  -0.00132   0.00060  -0.00072   3.08861
   D28       -3.10139  -0.00000   0.00055   0.00005   0.00060  -3.10080
   D29       -0.97953  -0.00001   0.00071  -0.00023   0.00048  -0.97905
   D30        1.12907   0.00002   0.00097   0.00000   0.00097   1.13004
   D31       -1.07397  -0.00002   0.00031  -0.00016   0.00015  -1.07382
   D32        1.04790  -0.00003   0.00047  -0.00044   0.00003   1.04793
   D33       -3.12669  -0.00000   0.00073  -0.00020   0.00053  -3.12617
   D34        0.93645   0.00002   0.00051   0.00000   0.00052   0.93697
   D35        3.05832   0.00001   0.00067  -0.00027   0.00040   3.05872
   D36       -1.11627   0.00004   0.00093  -0.00004   0.00089  -1.11538
   D37        0.95764   0.00002  -0.00009  -0.00003  -0.00012   0.95753
   D38        3.08535   0.00004   0.00023   0.00005   0.00028   3.08563
   D39       -1.14534   0.00001  -0.00027   0.00009  -0.00018  -1.14552
   D40       -1.09944   0.00001   0.00004  -0.00014  -0.00010  -1.09954
   D41        1.02827   0.00003   0.00036  -0.00006   0.00030   1.02856
   D42        3.08076   0.00001  -0.00014  -0.00002  -0.00016   3.08060
   D43       -3.11827  -0.00004   0.00012  -0.00083  -0.00070  -3.11898
   D44       -0.99057  -0.00002   0.00044  -0.00075  -0.00031  -0.99088
   D45        1.06193  -0.00005  -0.00006  -0.00071  -0.00077   1.06116
   D46        0.89537  -0.00005  -0.00046  -0.00117  -0.00163   0.89374
   D47       -1.07185   0.00003  -0.00001   0.00024   0.00023  -1.07162
   D48        3.06274  -0.00004  -0.00059  -0.00064  -0.00123   3.06150
   D49        1.09552   0.00004  -0.00014   0.00077   0.00062   1.09614
   D50       -1.20142  -0.00001  -0.00044  -0.00043  -0.00087  -1.20229
   D51        3.11455   0.00008   0.00001   0.00097   0.00099   3.11553
         Item               Value     Threshold  Converged?
 Maximum Force            0.000366     0.000450     YES
 RMS     Force            0.000094     0.000300     YES
 Maximum Displacement     0.047642     0.001800     NO 
 RMS     Displacement     0.008359     0.001200     NO 
 Predicted change in Energy=-3.332580D-06
 GradGradGradGradGradGradGradGradGradGradGradGradGradGradGradGradGradGrad

                          Input orientation:                          
 ---------------------------------------------------------------------
 Center     Atomic      Atomic             Coordinates (Angstroms)
 Number     Number       Type             X           Y           Z
 ---------------------------------------------------------------------
      1          6           0        0.607026   -0.726757    0.312963
      2          1           0        0.234647   -0.388163    1.279782
      3          1           0        1.329060   -1.516456    0.527399
      4          6           0       -0.531341   -1.338945   -0.502821
      5          1           0       -0.414836   -1.081244   -1.554720
      6          1           0       -0.520265   -2.428777   -0.424838
      7          7           0       -1.921882   -0.872973   -0.128168
      8          6           0       -2.291440   -1.422880    1.196841
      9          1           0       -3.305743   -1.101641    1.408857
     10          1           0       -2.210018   -2.510320    1.187323
     11          1           0       -1.631755   -1.008668    1.952781
     12          6           0       -2.854222   -1.441757   -1.130372
     13          1           0       -2.738063   -2.525550   -1.181847
     14          1           0       -3.861484   -1.162384   -0.840525
     15          1           0       -2.630648   -0.996294   -2.095963
     16          6           0       -2.167093    0.629525   -0.093039
     17          1           0       -1.799072    0.989158   -1.062784
     18          1           0       -1.484194    1.012833    0.673635
     19          6           0        1.314715    0.429011   -0.388647
     20          1           0        0.617302    1.240538   -0.588022
     21          1           0        2.128309    0.815709    0.225328
     22          1           0        1.740650    0.103016   -1.339430
 ---------------------------------------------------------------------
                    Distance matrix (angstroms):
                    1          2          3          4          5
     1  C    0.000000
     2  H    1.089977   0.000000
     3  H    1.091302   1.742660   0.000000
     4  C    1.528449   2.160647   2.134000   0.000000
     5  H    2.158264   2.989413   2.750601   1.089255   0.000000
     6  H    2.170716   2.764005   2.271362   1.092675   1.761702
     7  N    2.571254   2.620683   3.378233   1.513637   2.085573
     8  C    3.109169   2.731050   3.683060   2.448233   3.348051
     9  H    4.080598   3.613872   4.736078   3.377592   4.140115
    10  H    3.446932   3.238593   3.734747   2.654555   3.575435
    11  H    2.789376   2.078801   3.325055   2.711083   3.713317
    12  C    3.817680   4.057094   4.500404   2.408354   2.502128
    13  H    4.081634   4.411921   4.525625   2.595907   2.760876
    14  H    4.635503   4.676902   5.379436   3.351876   3.520801
    15  H    4.044515   4.469384   4.778272   2.657555   2.282539
    16  C    3.114494   2.947657   4.148887   2.592002   2.851955
    17  H    3.259808   3.394207   4.311843   2.709384   2.538636
    18  H    2.743986   2.298830   3.785907   2.796933   3.239483
    19  C    1.526067   2.148948   2.150393   2.558638   2.575257
    20  H    2.163822   2.507545   3.058068   2.824955   2.718545
    21  H    2.168221   2.479342   2.483756   3.499496   3.637938
    22  H    2.168878   3.060976   2.505424   2.817998   2.468794
                    6          7          8          9         10
     6  H    0.000000
     7  N    2.114963   0.000000
     8  C    2.603600   1.481425   0.000000
     9  H    3.589236   2.080819   1.084876   0.000000
    10  H    2.336874   2.120010   1.090526   1.798351   0.000000
    11  H    2.984157   2.105453   1.085449   1.762592   1.781929
    12  C    2.630464   1.482292   2.394369   2.601391   2.632211
    13  H    2.345433   2.123065   2.659608   3.010237   2.427350
    14  H    3.597262   2.086449   2.585296   2.317813   2.942182
    15  H    3.049325   2.095179   3.337603   3.570800   3.639941
    16  C    3.489318   1.522781   2.427265   2.559131   3.391134
    17  H    3.704673   2.087133   3.341595   3.570786   4.180694
    18  H    3.739048   2.095405   2.618795   2.886104   3.633635
    19  C    3.396383   3.498367   4.352887   5.188695   4.852535
    20  H    3.845069   3.335543   4.329008   4.986342   5.021406
    21  H    4.238437   4.402346   5.048693   5.882677   5.550584
    22  H    3.515422   3.979177   5.001878   5.871147   5.368592
                   11         12         13         14         15
    11  H    0.000000
    12  C    3.344820   0.000000
    13  H    3.653866   1.091215   0.000000
    14  H    3.577412   1.084729   1.799111   0.000000
    15  H    4.170163   1.086641   1.784873   1.765975   0.000000
    16  C    2.675003   2.416281   3.386149   2.576942   2.621044
    17  H    3.621178   2.650898   3.639925   2.988659   2.387676
    18  H    2.396760   3.340125   4.187500   3.560303   3.608548
    19  C    4.028759   4.629252   5.077757   5.434131   4.529052
    20  H    4.070978   4.420445   5.078831   5.088941   4.222142
    21  H    4.522226   5.635574   6.068421   6.397384   5.596375
    22  H    4.842273   4.852101   5.195485   5.764899   4.570456
                   16         17         18         19         20
    16  C    0.000000
    17  H    1.097807   0.000000
    18  H    1.095932   1.764896   0.000000
    19  C    3.500083   3.234794   3.050112   0.000000
    20  H    2.893303   2.475369   2.461689   1.088444   0.000000
    21  H    4.311207   4.136863   3.645547   1.090153   1.767812
    22  H    4.135355   3.659428   3.908941   1.091642   1.766488
                   21         22
    21  H    0.000000
    22  H    1.762577   0.000000
 Stoichiometry    C6H15N
 Framework group  C1[X(C6H15N)]
 Deg. of freedom    60
 Full point group                 C1      NOp   1
 Largest Abelian subgroup         C1      NOp   1
 Largest concise Abelian subgroup C1      NOp   1
                         Standard orientation:                         
 ---------------------------------------------------------------------
 Center     Atomic      Atomic             Coordinates (Angstroms)
 Number     Number       Type             X           Y           Z
 ---------------------------------------------------------------------
      1          6           0       -1.607395    0.692656   -0.122056
      2          1           0       -1.354759    1.106628    0.854085
      3          1           0       -2.051720    1.511015   -0.691095
      4          6           0       -0.337898    0.249294   -0.848667
      5          1           0       -0.530219   -0.665470   -1.407859
      6          1           0       -0.013768    1.011858   -1.560969
      7          7           0        0.843338   -0.067578    0.043168
      8          6           0        1.366792    1.183278    0.639805
      9          1           0        2.234011    0.919153    1.235728
     10          1           0        1.623043    1.894753   -0.145933
     11          1           0        0.613502    1.609965    1.294551
     12          6           0        1.903016   -0.632716   -0.825675
     13          1           0        2.124994    0.052861   -1.645102
     14          1           0        2.776558   -0.811167   -0.207842
     15          1           0        1.551358   -1.582707   -1.218921
     16          6           0        0.615636   -1.062295    1.173456
     17          1           0        0.152836   -1.929684    0.684955
     18          1           0       -0.150239   -0.602919    1.808653
     19          6           0       -2.637224   -0.419961    0.052346
     20          1           0       -2.222998   -1.236167    0.641358
     21          1           0       -3.528866   -0.047571    0.557060
     22          1           0       -2.944662   -0.819043   -0.916104
 ---------------------------------------------------------------------
 Rotational constants (GHZ):           4.1284248           1.6386139           1.5917592
 Standard basis: 6-311+G(2d,2p) (5D, 7F)
 There are   338 symmetry adapted cartesian basis functions of A   symmetry.
 There are   324 symmetry adapted basis functions of A   symmetry.
   324 basis functions,   459 primitive gaussians,   338 cartesian basis functions
    29 alpha electrons       29 beta electrons
       nuclear repulsion energy       346.2779677925 Hartrees.
 NAtoms=   22 NActive=   22 NUniq=   22 SFac= 1.00D+00 NAtFMM=   60 NAOKFM=F Big=F
 Integral buffers will be    131072 words long.
 Raffenetti 2 integral format.
 Two-electron integral symmetry is turned on.
 Nuclear repulsion after empirical dispersion term =      346.2619391882 Hartrees.
 One-electron integrals computed using PRISM.
 NBasis=   324 RedAO= T EigKep=  2.63D-05  NBF=   324
 NBsUse=   324 1.00D-06 EigRej= -1.00D+00 NBFU=   324
 Initial guess from the checkpoint file:  "aminopropyl_ylide.chk"
 B after Tr=    -0.000000    0.000000   -0.000000
         Rot=    0.999998   -0.002126    0.000420    0.000122 Ang=  -0.25 deg.
 ExpMin= 4.38D-02 ExpMax= 6.29D+03 ExpMxC= 9.49D+02 IAcc=2 IRadAn=         4 AccDes= 0.00D+00
 Harris functional with IExCor= 4639 and IRadAn=       4 diagonalized for initial guess.
 HarFok:  IExCor= 4639 AccDes= 0.00D+00 IRadAn=         4 IDoV= 1 UseB2=F ITyADJ=14
 ICtDFT=  3500011 ScaDFX=  1.000000  1.000000  1.000000  1.000000
 FoFCou: FMM=F IPFlag=           0 FMFlag=      100000 FMFlg1=           0
         NFxFlg=           0 DoJE=T BraDBF=F KetDBF=T FulRan=T
         wScrn=  0.000000 ICntrl=       500 IOpCl=  0 I1Cent=   200000004 NGrid=           0
         NMat0=    1 NMatS0=      1 NMatT0=    0 NMatD0=    1 NMtDS0=    0 NMtDT0=    0
 Petite list used in FoFCou.
 Requested convergence on RMS density matrix=1.00D-08 within  32 cycles.
 Requested convergence on MAX density matrix=1.00D-06.
 Requested convergence on             energy=1.00D-06.
 No special actions if energy rises.
 SCF Done:  E(RwB97XD) =  -292.313375163     A.U. after   10 cycles
            NFock= 10  Conv=0.76D-08     -V/T= 2.0047
 QCSCF skips out because SCF is already converged.
 Calling FoFJK, ICntrl=      2127 FMM=F ISym2X=0 I1Cent= 0 IOpClX= 0 NMat=1 NMatS=1 NMatT=0.
 ***** Axes restored to original set *****
 -------------------------------------------------------------------
 Center     Atomic                   Forces (Hartrees/Bohr)
 Number     Number              X              Y              Z
 -------------------------------------------------------------------
      1        6           0.000161321    0.000136979   -0.000106682
      2        1           0.000020111    0.000053979    0.000011458
      3        1           0.000007835    0.000016237   -0.000008290
      4        6           0.000120897   -0.000027091   -0.000095425
      5        1          -0.000029760    0.000024746    0.000006983
      6        1          -0.000005266    0.000047095    0.000011651
      7        7          -0.000089858   -0.000025255    0.000074235
      8        6           0.000048090    0.000024011   -0.000078469
      9        1          -0.000009885   -0.000001421    0.000014099
     10        1          -0.000007385    0.000003296   -0.000000866
     11        1          -0.000009366    0.000007996    0.000016015
     12        6           0.000016926   -0.000001757    0.000008138
     13        1          -0.000002492    0.000007176    0.000001745
     14        1          -0.000006872    0.000007045   -0.000009675
     15        1          -0.000010676    0.000007396   -0.000006419
     16        6          -0.000180959   -0.000034363    0.000021766
     17        1           0.000069524    0.000008885   -0.000028446
     18        1           0.000063901    0.000016387    0.000029362
     19        6          -0.000167742   -0.000236886    0.000209326
     20        1          -0.000021690   -0.000019669   -0.000048593
     21        1          -0.000008020   -0.000007821   -0.000001652
     22        1           0.000041367   -0.000006966   -0.000020260
 -------------------------------------------------------------------
 Cartesian Forces:  Max     0.000236886 RMS     0.000066535

 GradGradGradGradGradGradGradGradGradGradGradGradGradGradGradGradGradGrad
 Berny optimization.
 Using GEDIIS/GDIIS optimizer.
 FormGI is forming the generalized inverse of G from B-inverse, IUseBI=4.
 Internal  Forces:  Max     0.000339945 RMS     0.000040036
 Search for a local minimum.
 Step number  10 out of a maximum of  121
 All quantities printed in internal units (Hartrees-Bohrs-Radians)
 Mixed Optimization -- En-DIIS/RFO-DIIS
 Swapping is turned off.
 Update second derivatives using D2CorX and points    5    6    7    8    9
                                                     10
 DE= -4.59D-06 DEPred=-3.33D-06 R= 1.38D+00
 TightC=F SS=  1.41D+00  RLast= 7.21D-02 DXNew= 2.4000D+00 2.1625D-01
 Trust test= 1.38D+00 RLast= 7.21D-02 DXMaxT set to 1.43D+00
 ITU=  1  1  1  0  1  0  1  1  1  0
     Eigenvalues ---    0.00168   0.00233   0.00314   0.00433   0.00447
     Eigenvalues ---    0.00845   0.03349   0.03912   0.04555   0.04707
     Eigenvalues ---    0.04815   0.04930   0.05463   0.05472   0.05559
     Eigenvalues ---    0.05811   0.05835   0.06104   0.06131   0.06631
     Eigenvalues ---    0.08558   0.08763   0.12394   0.12647   0.14133
     Eigenvalues ---    0.15245   0.15516   0.15788   0.15972   0.15995
     Eigenvalues ---    0.16000   0.16006   0.16012   0.16022   0.16096
     Eigenvalues ---    0.16766   0.17048   0.21378   0.26422   0.28887
     Eigenvalues ---    0.30008   0.30840   0.32875   0.33446   0.33862
     Eigenvalues ---    0.34800   0.34813   0.34964   0.34991   0.35063
     Eigenvalues ---    0.35099   0.35128   0.35167   0.35217   0.35257
     Eigenvalues ---    0.35440   0.36600   0.37066   0.37199   0.38312
 En-DIIS/RFO-DIIS/Sim-DIIS IScMMF=       -3 using points:    10    9    8    7    6    5    4    3
 RFO step:  Lambda=-3.43840721D-06.
 DidBck=F Rises=F RFO-DIIS coefs:    1.21435    0.09191   -0.16672   -0.10868   -0.02764
                  RFO-DIIS coefs:   -0.01010    0.04790   -0.04101
 Iteration  1 RMS(Cart)=  0.00862272 RMS(Int)=  0.00006471
 Iteration  2 RMS(Cart)=  0.00007083 RMS(Int)=  0.00000326
 Iteration  3 RMS(Cart)=  0.00000000 RMS(Int)=  0.00000326
 Variable       Old X    -DE/DX   Delta X   Delta X   Delta X     New X
                                 (Linear)    (Quad)   (Total)
    R1        2.05976   0.00002   0.00001  -0.00001  -0.00001   2.05975
    R2        2.06226  -0.00001  -0.00015   0.00002  -0.00013   2.06213
    R3        2.88835   0.00002   0.00044  -0.00013   0.00031   2.88866
    R4        2.88385  -0.00034  -0.00132  -0.00019  -0.00151   2.88234
    R5        2.05839  -0.00000   0.00007  -0.00012  -0.00004   2.05835
    R6        2.06486  -0.00005  -0.00025   0.00004  -0.00021   2.06464
    R7        2.86036   0.00012   0.00002   0.00034   0.00036   2.86072
    R8        2.79949  -0.00006   0.00014  -0.00036  -0.00022   2.79927
    R9        2.80113  -0.00000   0.00003  -0.00006  -0.00003   2.80110
   R10        2.87764  -0.00000  -0.00020   0.00010  -0.00010   2.87754
   R11        2.05012   0.00001   0.00000   0.00003   0.00003   2.05015
   R12        2.06079  -0.00000   0.00002  -0.00002   0.00000   2.06080
   R13        2.05120   0.00001   0.00006  -0.00001   0.00005   2.05125
   R14        2.06210  -0.00001   0.00005  -0.00008  -0.00003   2.06207
   R15        2.04984   0.00001   0.00001   0.00001   0.00002   2.04986
   R16        2.05345   0.00001   0.00008  -0.00004   0.00004   2.05349
   R17        2.07456   0.00005   0.00014   0.00007   0.00021   2.07476
   R18        2.07101   0.00007   0.00012   0.00017   0.00029   2.07130
   R19        2.05686   0.00001   0.00042  -0.00010   0.00032   2.05718
   R20        2.06009  -0.00001   0.00017  -0.00020  -0.00003   2.06007
   R21        2.06290   0.00004   0.00025  -0.00005   0.00019   2.06309
    A1        1.85098  -0.00000   0.00094  -0.00014   0.00080   1.85178
    A2        1.92133   0.00003  -0.00013  -0.00001  -0.00016   1.92117
    A3        1.90812   0.00000  -0.00129   0.00011  -0.00119   1.90694
    A4        1.88369   0.00005   0.00254  -0.00047   0.00207   1.88576
    A5        1.90876  -0.00001   0.00087   0.00014   0.00102   1.90977
    A6        1.98596  -0.00006  -0.00260   0.00033  -0.00228   1.98368
    A7        1.91879  -0.00000   0.00009   0.00026   0.00034   1.91913
    A8        1.93248  -0.00001   0.00108  -0.00027   0.00082   1.93329
    A9        2.01397   0.00004  -0.00111  -0.00002  -0.00113   2.01283
   A10        1.87948   0.00002   0.00007   0.00024   0.00031   1.87979
   A11        1.83844  -0.00002  -0.00018  -0.00037  -0.00056   1.83788
   A12        1.87412  -0.00003   0.00005   0.00018   0.00024   1.87436
   A13        1.91376  -0.00001   0.00014  -0.00019  -0.00005   1.91371
   A14        1.86748  -0.00001  -0.00001   0.00011   0.00011   1.86759
   A15        2.04586   0.00002  -0.00033   0.00005  -0.00029   2.04557
   A16        1.88114   0.00002  -0.00012   0.00028   0.00017   1.88131
   A17        1.88121  -0.00001   0.00031  -0.00016   0.00015   1.88136
   A18        1.86808  -0.00001   0.00000  -0.00006  -0.00005   1.86802
   A19        1.87351   0.00001   0.00030  -0.00017   0.00013   1.87364
   A20        1.92167  -0.00000  -0.00001  -0.00004  -0.00005   1.92162
   A21        1.90671   0.00001   0.00024  -0.00009   0.00015   1.90687
   A22        1.94634  -0.00001  -0.00004  -0.00002  -0.00005   1.94629
   A23        1.89560  -0.00002  -0.00028   0.00013  -0.00015   1.89545
   A24        1.91902  -0.00000  -0.00020   0.00018  -0.00002   1.91900
   A25        1.92415  -0.00000   0.00009  -0.00010  -0.00000   1.92415
   A26        1.88029   0.00001   0.00024  -0.00016   0.00008   1.88037
   A27        1.89029   0.00001   0.00021  -0.00007   0.00014   1.89042
   A28        1.94685  -0.00000  -0.00003   0.00003   0.00001   1.94686
   A29        1.92127   0.00000  -0.00021   0.00017  -0.00003   1.92123
   A30        1.89960  -0.00001  -0.00030   0.00011  -0.00019   1.89942
   A31        1.82231  -0.00004   0.00029  -0.00067  -0.00038   1.82193
   A32        1.83475  -0.00003   0.00051  -0.00043   0.00007   1.83482
   A33        1.86972  -0.00002  -0.00039  -0.00035  -0.00074   1.86898
   A34        1.93023  -0.00001  -0.00179   0.00054  -0.00125   1.92899
   A35        1.93457  -0.00000   0.00049   0.00015   0.00064   1.93521
   A36        1.93392   0.00001   0.00038  -0.00005   0.00033   1.93425
   A37        1.89324   0.00002   0.00031  -0.00020   0.00011   1.89335
   A38        1.88927  -0.00001   0.00059  -0.00028   0.00031   1.88958
   A39        1.88101  -0.00001   0.00007  -0.00020  -0.00013   1.88088
    D1        2.49099  -0.00004  -0.01645  -0.00005  -0.01649   2.47449
    D2       -1.71759  -0.00003  -0.01563   0.00024  -0.01539  -1.73298
    D3        0.41544  -0.00005  -0.01552   0.00026  -0.01526   0.40018
    D4       -1.77939  -0.00000  -0.01399  -0.00048  -0.01447  -1.79386
    D5        0.29521   0.00001  -0.01318  -0.00019  -0.01336   0.28185
    D6        2.42825  -0.00001  -0.01306  -0.00018  -0.01324   2.41501
    D7        0.34228  -0.00002  -0.01275  -0.00042  -0.01318   0.32910
    D8        2.41689  -0.00001  -0.01194  -0.00013  -0.01207   2.40482
    D9       -1.73326  -0.00003  -0.01182  -0.00012  -0.01194  -1.74521
   D10       -1.09520  -0.00003  -0.01207  -0.00018  -0.01226  -1.10746
   D11        1.00530  -0.00001  -0.01253   0.00002  -0.01252   0.99279
   D12        3.09289  -0.00002  -0.01189  -0.00016  -0.01205   3.08084
   D13       -3.11479  -0.00002  -0.01298  -0.00015  -0.01312  -3.12792
   D14       -1.01429  -0.00000  -0.01344   0.00005  -0.01338  -1.02767
   D15        1.07329  -0.00001  -0.01279  -0.00012  -0.01291   1.06038
   D16        1.06070  -0.00003  -0.01511   0.00013  -0.01498   1.04572
   D17       -3.12198  -0.00001  -0.01557   0.00033  -0.01524  -3.13722
   D18       -1.03439  -0.00002  -0.01493   0.00015  -0.01477  -1.04916
   D19       -1.22658   0.00001   0.00138   0.00028   0.00166  -1.22492
   D20        3.02101  -0.00000   0.00145  -0.00002   0.00143   3.02244
   D21        0.92466   0.00000   0.00167  -0.00007   0.00160   0.92627
   D22        2.93712  -0.00000   0.00210   0.00023   0.00232   2.93944
   D23        0.90152  -0.00001   0.00216  -0.00007   0.00209   0.90361
   D24       -1.19482  -0.00001   0.00238  -0.00011   0.00227  -1.19256
   D25        0.93737  -0.00000   0.00207   0.00005   0.00213   0.93950
   D26       -1.09823  -0.00001   0.00214  -0.00025   0.00190  -1.09633
   D27        3.08861  -0.00001   0.00236  -0.00029   0.00207   3.09068
   D28       -3.10080   0.00001   0.00088  -0.00048   0.00040  -3.10040
   D29       -0.97905   0.00001   0.00101  -0.00063   0.00038  -0.97867
   D30        1.13004   0.00001   0.00091  -0.00049   0.00042   1.13046
   D31       -1.07382   0.00000   0.00088  -0.00029   0.00059  -1.07323
   D32        1.04793  -0.00000   0.00102  -0.00044   0.00057   1.04850
   D33       -3.12617   0.00001   0.00092  -0.00030   0.00061  -3.12555
   D34        0.93697  -0.00001   0.00098  -0.00029   0.00069   0.93766
   D35        3.05872  -0.00001   0.00112  -0.00045   0.00067   3.05939
   D36       -1.11538  -0.00000   0.00102  -0.00030   0.00072  -1.11466
   D37        0.95753  -0.00001   0.00087   0.00010   0.00098   0.95850
   D38        3.08563  -0.00000   0.00105  -0.00002   0.00103   3.08667
   D39       -1.14552  -0.00001   0.00094  -0.00001   0.00093  -1.14459
   D40       -1.09954  -0.00000   0.00077   0.00012   0.00090  -1.09864
   D41        1.02856  -0.00000   0.00095   0.00000   0.00096   1.02952
   D42        3.08060  -0.00001   0.00084   0.00001   0.00085   3.08145
   D43       -3.11898   0.00001   0.00047   0.00020   0.00066  -3.11832
   D44       -0.99088   0.00001   0.00065   0.00008   0.00072  -0.99015
   D45        1.06116   0.00001   0.00053   0.00008   0.00062   1.06178
   D46        0.89374  -0.00003   0.00075  -0.00031   0.00044   0.89418
   D47       -1.07162   0.00001   0.00087   0.00051   0.00138  -1.07024
   D48        3.06150  -0.00003   0.00095  -0.00067   0.00029   3.06179
   D49        1.09614   0.00001   0.00107   0.00016   0.00123   1.09737
   D50       -1.20229  -0.00003   0.00097  -0.00044   0.00053  -1.20176
   D51        3.11553   0.00002   0.00109   0.00038   0.00147   3.11701
         Item               Value     Threshold  Converged?
 Maximum Force            0.000340     0.000450     YES
 RMS     Force            0.000040     0.000300     YES
 Maximum Displacement     0.045331     0.001800     NO 
 RMS     Displacement     0.008622     0.001200     NO 
 Predicted change in Energy=-9.978376D-07
 GradGradGradGradGradGradGradGradGradGradGradGradGradGradGradGradGradGrad

                          Input orientation:                          
 ---------------------------------------------------------------------
 Center     Atomic      Atomic             Coordinates (Angstroms)
 Number     Number       Type             X           Y           Z
 ---------------------------------------------------------------------
      1          6           0        0.605324   -0.723952    0.314136
      2          1           0        0.228724   -0.375978    1.275973
      3          1           0        1.323424   -1.514424    0.538363
      4          6           0       -0.531672   -1.335349   -0.504452
      5          1           0       -0.416426   -1.072423   -1.555173
      6          1           0       -0.518989   -2.425392   -0.431403
      7          7           0       -1.922787   -0.872680   -0.127084
      8          6           0       -2.289845   -1.426524    1.196851
      9          1           0       -3.304629   -1.108014    1.410759
     10          1           0       -2.206127   -2.513763    1.184573
     11          1           0       -1.630376   -1.012795    1.953283
     12          6           0       -2.855300   -1.440252   -1.129793
     13          1           0       -2.738132   -2.523807   -1.183627
     14          1           0       -3.862655   -1.162449   -0.838723
     15          1           0       -2.632996   -0.992582   -2.094679
     16          6           0       -2.170135    0.629318   -0.087987
     17          1           0       -1.803953    0.991459   -1.057621
     18          1           0       -1.485877    1.012053    0.677980
     19          6           0        1.319046    0.424298   -0.391952
     20          1           0        0.620784    1.229956   -0.612010
     21          1           0        2.122033    0.822758    0.228408
     22          1           0        1.760213    0.087526   -1.332089
 ---------------------------------------------------------------------
                    Distance matrix (angstroms):
                    1          2          3          4          5
     1  C    0.000000
     2  H    1.089974   0.000000
     3  H    1.091234   1.743128   0.000000
     4  C    1.528611   2.160673   2.135629   0.000000
     5  H    2.158639   2.986075   2.757778   1.089232   0.000000
     6  H    2.171361   2.770254   2.272619   1.092562   1.761790
     7  N    2.570631   2.616158   3.375284   1.513827   2.085297
     8  C    3.107217   2.730036   3.673833   2.448248   3.347944
     9  H    4.078948   3.610904   4.727063   3.377722   4.140016
    10  H    3.444611   3.241447   3.724782   2.654292   3.575849
    11  H    2.787219   2.078590   3.313392   2.711393   3.713017
    12  C    3.817583   4.053590   4.499998   2.408590   2.502869
    13  H    4.081847   4.411920   4.525522   2.596571   2.763129
    14  H    4.635105   4.672243   5.377329   3.352175   3.521065
    15  H    4.044907   4.464408   4.781056   2.657419   2.282679
    16  C    3.113874   2.936926   4.146432   2.591895   2.850272
    17  H    3.260210   3.383389   4.313595   2.709009   2.536217
    18  H    2.742119   2.285625   3.780840   2.796238   3.236624
    19  C    1.525266   2.147375   2.150383   2.556202   2.570043
    20  H    2.162346   2.509425   3.057561   2.814340   2.695609
    21  H    2.167964   2.473657   2.489230   3.498094   3.635471
    22  H    2.168484   3.059785   2.501123   2.821754   2.476491
                    6          7          8          9         10
     6  H    0.000000
     7  N    2.115225   0.000000
     8  C    2.604781   1.481310   0.000000
     9  H    3.590103   2.080824   1.084892   0.000000
    10  H    2.337867   2.119877   1.090527   1.798332   0.000000
    11  H    2.986192   2.105484   1.085477   1.762533   1.781940
    12  C    2.629943   1.482277   2.394410   2.601285   2.632516
    13  H    2.345234   2.123039   2.659261   3.009357   2.427241
    14  H    3.597365   2.086500   2.585929   2.318302   2.943443
    15  H    3.047698   2.095282   3.337699   3.571066   3.640014
    16  C    3.489337   1.522730   2.427267   2.559617   3.391116
    17  H    3.703802   2.086871   3.341463   3.571094   4.180401
    18  H    3.739202   2.095527   2.619589   2.887820   3.634113
    19  C    3.391263   3.501684   4.355908   5.193854   4.852266
    20  H    3.833180   3.335563   4.335968   4.996655   5.023402
    21  H    4.238022   4.400166   5.045971   5.880008   5.547936
    22  H    3.510094   3.992309   5.009078   5.882615   5.369558
                   11         12         13         14         15
    11  H    0.000000
    12  C    3.344924   0.000000
    13  H    3.653832   1.091200   0.000000
    14  H    3.577815   1.084739   1.799112   0.000000
    15  H    4.170330   1.086661   1.784859   1.765882   0.000000
    16  C    2.674819   2.416181   3.386037   2.576559   2.621376
    17  H    3.621147   2.650237   3.639459   2.987555   2.387304
    18  H    2.397350   3.340233   4.187604   3.560606   3.608612
    19  C    4.032921   4.630996   5.077280   5.437591   4.530504
    20  H    4.083917   4.413759   5.069497   5.086867   4.210115
    21  H    4.519405   5.633807   6.067500   6.395022   5.594864
    22  H    4.847728   4.866004   5.203481   5.781219   4.587861
                   16         17         18         19         20
    16  C    0.000000
    17  H    1.097918   0.000000
    18  H    1.096084   1.764626   0.000000
    19  C    3.508391   3.243133   3.059053   0.000000
    20  H    2.902515   2.476853   2.479834   1.088613   0.000000
    21  H    4.308159   4.134695   3.640737   1.090140   1.768011
    22  H    4.158000   3.687236   3.928388   1.091743   1.766907
                   21         22
    21  H    0.000000
    22  H    1.762564   0.000000
 Stoichiometry    C6H15N
 Framework group  C1[X(C6H15N)]
 Deg. of freedom    60
 Full point group                 C1      NOp   1
 Largest Abelian subgroup         C1      NOp   1
 Largest concise Abelian subgroup C1      NOp   1
                         Standard orientation:                         
 ---------------------------------------------------------------------
 Center     Atomic      Atomic             Coordinates (Angstroms)
 Number     Number       Type             X           Y           Z
 ---------------------------------------------------------------------
      1          6           0       -1.606848    0.690118   -0.123729
      2          1           0       -1.351823    1.102877    0.852302
      3          1           0       -2.047815    1.509942   -0.693139
      4          6           0       -0.339854    0.237384   -0.849270
      5          1           0       -0.533342   -0.685419   -1.394636
      6          1           0       -0.018044    0.989850   -1.573098
      7          7           0        0.844046   -0.067000    0.043704
      8          6           0        1.367163    1.191724    0.623566
      9          1           0        2.236410    0.936309    1.220361
     10          1           0        1.620222    1.893894   -0.171523
     11          1           0        0.615082    1.625378    1.275164
     12          6           0        1.902381   -0.641738   -0.820441
     13          1           0        2.122338    0.034220   -1.648341
     14          1           0        2.777257   -0.812428   -0.202287
     15          1           0        1.550694   -1.596585   -1.201777
     16          6           0        0.619890   -1.047970    1.186578
     17          1           0        0.157398   -1.921874    0.709278
     18          1           0       -0.146271   -0.582319    1.817105
     19          6           0       -2.639995   -0.417952    0.052982
     20          1           0       -2.222548   -1.240257    0.631455
     21          1           0       -3.524456   -0.045626    0.570192
     22          1           0       -2.959848   -0.808365   -0.915095
 ---------------------------------------------------------------------
 Rotational constants (GHZ):           4.1314936           1.6372423           1.5908667
 Standard basis: 6-311+G(2d,2p) (5D, 7F)
 There are   338 symmetry adapted cartesian basis functions of A   symmetry.
 There are   324 symmetry adapted basis functions of A   symmetry.
   324 basis functions,   459 primitive gaussians,   338 cartesian basis functions
    29 alpha electrons       29 beta electrons
       nuclear repulsion energy       346.2741121907 Hartrees.
 NAtoms=   22 NActive=   22 NUniq=   22 SFac= 1.00D+00 NAtFMM=   60 NAOKFM=F Big=F
 Integral buffers will be    131072 words long.
 Raffenetti 2 integral format.
 Two-electron integral symmetry is turned on.
 Nuclear repulsion after empirical dispersion term =      346.2580896599 Hartrees.
 One-electron integrals computed using PRISM.
 NBasis=   324 RedAO= T EigKep=  2.64D-05  NBF=   324
 NBsUse=   324 1.00D-06 EigRej= -1.00D+00 NBFU=   324
 Initial guess from the checkpoint file:  "aminopropyl_ylide.chk"
 B after Tr=     0.000000   -0.000000    0.000000
         Rot=    0.999986    0.005206   -0.000482   -0.000044 Ang=   0.60 deg.
 ExpMin= 4.38D-02 ExpMax= 6.29D+03 ExpMxC= 9.49D+02 IAcc=2 IRadAn=         4 AccDes= 0.00D+00
 Harris functional with IExCor= 4639 and IRadAn=       4 diagonalized for initial guess.
 HarFok:  IExCor= 4639 AccDes= 0.00D+00 IRadAn=         4 IDoV= 1 UseB2=F ITyADJ=14
 ICtDFT=  3500011 ScaDFX=  1.000000  1.000000  1.000000  1.000000
 FoFCou: FMM=F IPFlag=           0 FMFlag=      100000 FMFlg1=           0
         NFxFlg=           0 DoJE=T BraDBF=F KetDBF=T FulRan=T
         wScrn=  0.000000 ICntrl=       500 IOpCl=  0 I1Cent=   200000004 NGrid=           0
         NMat0=    1 NMatS0=      1 NMatT0=    0 NMatD0=    1 NMtDS0=    0 NMtDT0=    0
 Petite list used in FoFCou.
 Requested convergence on RMS density matrix=1.00D-08 within  32 cycles.
 Requested convergence on MAX density matrix=1.00D-06.
 Requested convergence on             energy=1.00D-06.
 No special actions if energy rises.
 SCF Done:  E(RwB97XD) =  -292.313376540     A.U. after   10 cycles
            NFock= 10  Conv=0.69D-08     -V/T= 2.0047
 QCSCF skips out because SCF is already converged.
 Calling FoFJK, ICntrl=      2127 FMM=F ISym2X=0 I1Cent= 0 IOpClX= 0 NMat=1 NMatS=1 NMatT=0.
 ***** Axes restored to original set *****
 -------------------------------------------------------------------
 Center     Atomic                   Forces (Hartrees/Bohr)
 Number     Number              X              Y              Z
 -------------------------------------------------------------------
      1        6          -0.000036288   -0.000020531    0.000017130
      2        1          -0.000008589   -0.000029286   -0.000013473
      3        1          -0.000012086   -0.000006144    0.000020344
      4        6           0.000054168   -0.000028485   -0.000004761
      5        1          -0.000005448   -0.000000344    0.000008694
      6        1          -0.000000384   -0.000007494   -0.000000349
      7        7          -0.000052604   -0.000060507    0.000043238
      8        6           0.000013151    0.000002028   -0.000012145
      9        1          -0.000007177   -0.000002272    0.000005072
     10        1          -0.000008790   -0.000002871    0.000001186
     11        1          -0.000003891   -0.000005034   -0.000009234
     12        6           0.000012642   -0.000000252   -0.000010105
     13        1          -0.000000400    0.000004089    0.000004675
     14        1           0.000000249    0.000000596    0.000006668
     15        1           0.000003700    0.000001820    0.000009026
     16        6          -0.000011443    0.000040905   -0.000008895
     17        1           0.000014437    0.000021304   -0.000011797
     18        1           0.000002019    0.000007405   -0.000010317
     19        6           0.000053796    0.000003354   -0.000025936
     20        1           0.000023980    0.000033376    0.000020972
     21        1          -0.000000806    0.000010136   -0.000026414
     22        1          -0.000030238    0.000038206   -0.000003578
 -------------------------------------------------------------------
 Cartesian Forces:  Max     0.000060507 RMS     0.000020882

 GradGradGradGradGradGradGradGradGradGradGradGradGradGradGradGradGradGrad
 Berny optimization.
 Using GEDIIS/GDIIS optimizer.
 FormGI is forming the generalized inverse of G from B-inverse, IUseBI=4.
 Internal  Forces:  Max     0.000102045 RMS     0.000017639
 Search for a local minimum.
 Step number  11 out of a maximum of  121
 All quantities printed in internal units (Hartrees-Bohrs-Radians)
 Mixed Optimization -- En-DIIS/RFO-DIIS
 Swapping is turned off.
 Update second derivatives using D2CorX and points    5    6    7    8    9
                                                     10   11
 DE= -1.38D-06 DEPred=-9.98D-07 R= 1.38D+00
 TightC=F SS=  1.41D+00  RLast= 5.90D-02 DXNew= 2.4000D+00 1.7707D-01
 Trust test= 1.38D+00 RLast= 5.90D-02 DXMaxT set to 1.43D+00
 ITU=  1  1  1  1  0  1  0  1  1  1  0
     Eigenvalues ---    0.00178   0.00236   0.00324   0.00433   0.00447
     Eigenvalues ---    0.00873   0.03332   0.03898   0.04460   0.04572
     Eigenvalues ---    0.04780   0.04935   0.05456   0.05484   0.05545
     Eigenvalues ---    0.05815   0.05831   0.06108   0.06136   0.06619
     Eigenvalues ---    0.08523   0.08740   0.12372   0.12688   0.14115
     Eigenvalues ---    0.15017   0.15508   0.15761   0.15970   0.15994
     Eigenvalues ---    0.16002   0.16009   0.16013   0.16040   0.16112
     Eigenvalues ---    0.16739   0.17375   0.21300   0.26429   0.27782
     Eigenvalues ---    0.30009   0.30866   0.32835   0.33508   0.33805
     Eigenvalues ---    0.34783   0.34811   0.34958   0.35012   0.35054
     Eigenvalues ---    0.35110   0.35128   0.35167   0.35218   0.35299
     Eigenvalues ---    0.35436   0.36557   0.37167   0.37200   0.38775
 En-DIIS/RFO-DIIS/Sim-DIIS IScMMF=       -3 using points:    11   10    9    8    7    6    5    4    3
 RFO step:  Lambda=-1.56453358D-06.
 DidBck=T Rises=F RFO-DIIS coefs:    0.76918    0.31108   -0.07618   -0.05386    0.05641
                  RFO-DIIS coefs:   -0.00242   -0.00157   -0.00019   -0.00244
 Iteration  1 RMS(Cart)=  0.00351559 RMS(Int)=  0.00001214
 Iteration  2 RMS(Cart)=  0.00001304 RMS(Int)=  0.00000062
 Iteration  3 RMS(Cart)=  0.00000000 RMS(Int)=  0.00000062
 Variable       Old X    -DE/DX   Delta X   Delta X   Delta X     New X
                                 (Linear)    (Quad)   (Total)
    R1        2.05975  -0.00002   0.00003  -0.00003  -0.00000   2.05975
    R2        2.06213   0.00000  -0.00000   0.00003   0.00003   2.06217
    R3        2.88866  -0.00000  -0.00007  -0.00002  -0.00009   2.88857
    R4        2.88234   0.00010   0.00045  -0.00025   0.00020   2.88254
    R5        2.05835  -0.00001   0.00002  -0.00004  -0.00001   2.05834
    R6        2.06464   0.00001  -0.00002   0.00004   0.00002   2.06466
    R7        2.86072   0.00004  -0.00003   0.00017   0.00014   2.86086
    R8        2.79927  -0.00001   0.00005  -0.00009  -0.00004   2.79923
    R9        2.80110  -0.00002   0.00005  -0.00008  -0.00004   2.80106
   R10        2.87754   0.00007   0.00011   0.00008   0.00018   2.87773
   R11        2.05015   0.00001   0.00000   0.00002   0.00002   2.05017
   R12        2.06080   0.00000   0.00000  -0.00001  -0.00001   2.06079
   R13        2.05125  -0.00001   0.00002  -0.00004  -0.00003   2.05123
   R14        2.06207  -0.00000   0.00001  -0.00000   0.00000   2.06207
   R15        2.04986   0.00000   0.00000  -0.00000   0.00000   2.04986
   R16        2.05349  -0.00001   0.00002  -0.00003  -0.00001   2.05348
   R17        2.07476   0.00002   0.00003   0.00002   0.00006   2.07482
   R18        2.07130  -0.00000   0.00002  -0.00001   0.00000   2.07130
   R19        2.05718   0.00000  -0.00010   0.00002  -0.00008   2.05710
   R20        2.06007  -0.00001  -0.00001  -0.00001  -0.00001   2.06005
   R21        2.06309  -0.00002  -0.00002  -0.00002  -0.00004   2.06305
    A1        1.85178  -0.00000  -0.00032   0.00000  -0.00031   1.85147
    A2        1.92117  -0.00001  -0.00008   0.00014   0.00006   1.92124
    A3        1.90694  -0.00001   0.00034  -0.00004   0.00031   1.90724
    A4        1.88576  -0.00003  -0.00070   0.00001  -0.00069   1.88507
    A5        1.90977   0.00001  -0.00022  -0.00004  -0.00027   1.90951
    A6        1.98368   0.00003   0.00088  -0.00007   0.00081   1.98449
    A7        1.91913   0.00000  -0.00003  -0.00004  -0.00007   1.91906
    A8        1.93329  -0.00001  -0.00022  -0.00007  -0.00029   1.93301
    A9        2.01283   0.00002   0.00030   0.00018   0.00049   2.01332
   A10        1.87979   0.00000  -0.00001   0.00001  -0.00000   1.87978
   A11        1.83788  -0.00002   0.00018  -0.00019  -0.00001   1.83787
   A12        1.87436   0.00001  -0.00023   0.00010  -0.00012   1.87424
   A13        1.91371   0.00001  -0.00002   0.00018   0.00016   1.91388
   A14        1.86759   0.00000  -0.00006  -0.00007  -0.00013   1.86746
   A15        2.04557  -0.00002   0.00004  -0.00000   0.00004   2.04561
   A16        1.88131  -0.00001  -0.00000  -0.00005  -0.00005   1.88126
   A17        1.88136   0.00001  -0.00000   0.00005   0.00005   1.88141
   A18        1.86802   0.00000   0.00004  -0.00012  -0.00009   1.86794
   A19        1.87364   0.00001   0.00002  -0.00000   0.00002   1.87366
   A20        1.92162   0.00001   0.00005   0.00000   0.00006   1.92168
   A21        1.90687  -0.00000   0.00002  -0.00002   0.00000   1.90687
   A22        1.94629  -0.00001  -0.00003  -0.00005  -0.00009   1.94620
   A23        1.89545  -0.00000  -0.00006   0.00003  -0.00003   1.89541
   A24        1.91900   0.00000  -0.00001   0.00005   0.00004   1.91903
   A25        1.92415  -0.00000   0.00001   0.00000   0.00001   1.92416
   A26        1.88037  -0.00001   0.00005  -0.00008  -0.00003   1.88033
   A27        1.89042  -0.00001   0.00002  -0.00008  -0.00006   1.89037
   A28        1.94686   0.00000  -0.00001   0.00002   0.00001   1.94687
   A29        1.92123   0.00001  -0.00002   0.00008   0.00006   1.92129
   A30        1.89942   0.00001  -0.00005   0.00006   0.00001   1.89943
   A31        1.82193   0.00002   0.00019  -0.00016   0.00003   1.82196
   A32        1.83482   0.00001   0.00005  -0.00022  -0.00017   1.83465
   A33        1.86898  -0.00002  -0.00010  -0.00006  -0.00016   1.86882
   A34        1.92899   0.00002   0.00053   0.00000   0.00053   1.92952
   A35        1.93521   0.00003  -0.00004  -0.00006  -0.00010   1.93512
   A36        1.93425   0.00003   0.00023  -0.00012   0.00011   1.93436
   A37        1.89335  -0.00004  -0.00016   0.00001  -0.00014   1.89321
   A38        1.88958  -0.00003  -0.00045   0.00008  -0.00037   1.88921
   A39        1.88088  -0.00002  -0.00014   0.00008  -0.00006   1.88082
    D1        2.47449   0.00002   0.00560  -0.00008   0.00552   2.48001
    D2       -1.73298   0.00002   0.00543  -0.00014   0.00529  -1.72769
    D3        0.40018   0.00003   0.00518   0.00008   0.00526   0.40544
    D4       -1.79386  -0.00001   0.00479   0.00000   0.00479  -1.78907
    D5        0.28185  -0.00001   0.00462  -0.00005   0.00456   0.28641
    D6        2.41501   0.00000   0.00437   0.00016   0.00453   2.41954
    D7        0.32910   0.00001   0.00458  -0.00009   0.00449   0.33359
    D8        2.40482   0.00001   0.00441  -0.00015   0.00426   2.40907
    D9       -1.74521   0.00002   0.00416   0.00007   0.00423  -1.74098
   D10       -1.10746   0.00002   0.00604  -0.00002   0.00602  -1.10143
   D11        0.99279   0.00001   0.00617  -0.00004   0.00613   0.99892
   D12        3.08084   0.00002   0.00611  -0.00005   0.00607   3.08691
   D13       -3.12792   0.00002   0.00636   0.00002   0.00638  -3.12154
   D14       -1.02767   0.00000   0.00648   0.00000   0.00649  -1.02119
   D15        1.06038   0.00002   0.00643  -0.00001   0.00642   1.06680
   D16        1.04572   0.00003   0.00682   0.00009   0.00691   1.05264
   D17       -3.13722   0.00001   0.00695   0.00007   0.00702  -3.13020
   D18       -1.04916   0.00003   0.00690   0.00006   0.00696  -1.04221
   D19       -1.22492  -0.00000  -0.00026  -0.00013  -0.00039  -1.22531
   D20        3.02244   0.00000  -0.00021  -0.00013  -0.00035   3.02209
   D21        0.92627   0.00001  -0.00024   0.00009  -0.00016   0.92611
   D22        2.93944  -0.00000  -0.00054  -0.00005  -0.00059   2.93885
   D23        0.90361   0.00000  -0.00049  -0.00005  -0.00054   0.90307
   D24       -1.19256   0.00001  -0.00052   0.00017  -0.00035  -1.19291
   D25        0.93950   0.00000  -0.00051  -0.00002  -0.00052   0.93898
   D26       -1.09633   0.00000  -0.00046  -0.00002  -0.00048  -1.09681
   D27        3.09068   0.00002  -0.00049   0.00020  -0.00029   3.09040
   D28       -3.10040  -0.00000  -0.00010  -0.00015  -0.00025  -3.10065
   D29       -0.97867  -0.00001  -0.00009  -0.00022  -0.00031  -0.97898
   D30        1.13046  -0.00000  -0.00005  -0.00017  -0.00022   1.13024
   D31       -1.07323  -0.00000  -0.00018  -0.00017  -0.00035  -1.07358
   D32        1.04850  -0.00000  -0.00018  -0.00023  -0.00041   1.04809
   D33       -3.12555  -0.00000  -0.00014  -0.00018  -0.00032  -3.12588
   D34        0.93766   0.00000  -0.00014  -0.00031  -0.00045   0.93721
   D35        3.05939  -0.00000  -0.00013  -0.00038  -0.00051   3.05888
   D36       -1.11466   0.00000  -0.00010  -0.00033  -0.00042  -1.11509
   D37        0.95850   0.00001  -0.00030   0.00009  -0.00021   0.95829
   D38        3.08667   0.00001  -0.00028   0.00006  -0.00022   3.08645
   D39       -1.14459   0.00001  -0.00030   0.00005  -0.00025  -1.14484
   D40       -1.09864   0.00000  -0.00025  -0.00006  -0.00031  -1.09895
   D41        1.02952  -0.00000  -0.00023  -0.00009  -0.00031   1.02921
   D42        3.08145   0.00000  -0.00024  -0.00010  -0.00035   3.08110
   D43       -3.11832  -0.00001  -0.00026  -0.00003  -0.00029  -3.11861
   D44       -0.99015  -0.00001  -0.00024  -0.00006  -0.00030  -0.99046
   D45        1.06178  -0.00001  -0.00026  -0.00008  -0.00033   1.06144
   D46        0.89418  -0.00001  -0.00093  -0.00031  -0.00124   0.89294
   D47       -1.07024  -0.00001  -0.00093  -0.00009  -0.00102  -1.07125
   D48        3.06179   0.00000  -0.00093  -0.00002  -0.00095   3.06084
   D49        1.09737   0.00001  -0.00092   0.00019  -0.00073   1.09664
   D50       -1.20176  -0.00000  -0.00091  -0.00012  -0.00103  -1.20279
   D51        3.11701   0.00000  -0.00090   0.00010  -0.00080   3.11620
         Item               Value     Threshold  Converged?
 Maximum Force            0.000102     0.000450     YES
 RMS     Force            0.000018     0.000300     YES
 Maximum Displacement     0.019226     0.001800     NO 
 RMS     Displacement     0.003516     0.001200     NO 
 Predicted change in Energy=-7.765322D-07
 GradGradGradGradGradGradGradGradGradGradGradGradGradGradGradGradGradGrad

                          Input orientation:                          
 ---------------------------------------------------------------------
 Center     Atomic      Atomic             Coordinates (Angstroms)
 Number     Number       Type             X           Y           Z
 ---------------------------------------------------------------------
      1          6           0        0.606055   -0.724961    0.313718
      2          1           0        0.230951   -0.380281    1.277322
      3          1           0        1.325521   -1.515177    0.534524
      4          6           0       -0.531457   -1.336576   -0.503902
      5          1           0       -0.415954   -1.075267   -1.554993
      6          1           0       -0.519315   -2.426526   -0.429239
      7          7           0       -1.922545   -0.872834   -0.127444
      8          6           0       -2.290549   -1.425105    1.196863
      9          1           0       -3.305174   -1.105592    1.410091
     10          1           0       -2.207762   -2.512424    1.185705
     11          1           0       -1.631073   -1.011157    1.953150
     12          6           0       -2.854833   -1.441042   -1.129974
     13          1           0       -2.737939   -2.524678   -1.182814
     14          1           0       -3.862207   -1.162703   -0.839482
     15          1           0       -2.632043   -0.994226   -2.095136
     16          6           0       -2.169324    0.629403   -0.090164
     17          1           0       -1.801531    0.990493   -1.059614
     18          1           0       -1.485822    1.012446    0.676325
     19          6           0        1.317514    0.425912   -0.390614
     20          1           0        0.619903    1.234437   -0.601836
     21          1           0        2.125359    0.819160    0.226747
     22          1           0        1.751876    0.093682   -1.335500
 ---------------------------------------------------------------------
                    Distance matrix (angstroms):
                    1          2          3          4          5
     1  C    0.000000
     2  H    1.089972   0.000000
     3  H    1.091251   1.742934   0.000000
     4  C    1.528565   2.160677   2.135087   0.000000
     5  H    2.158541   2.987223   2.755420   1.089227   0.000000
     6  H    2.171121   2.768098   2.272184   1.092571   1.761790
     7  N    2.571052   2.617923   3.376499   1.513903   2.085351
     8  C    3.108128   2.730585   3.677332   2.448437   3.348014
     9  H    4.079783   3.612186   4.730509   3.377903   4.140076
    10  H    3.445715   3.240641   3.728623   2.654691   3.575950
    11  H    2.788259   2.078913   3.317828   2.711486   3.713177
    12  C    3.817691   4.054917   4.500157   2.408517   2.502511
    13  H    4.081775   4.411917   4.525489   2.596357   2.762412
    14  H    4.635391   4.674076   5.378165   3.352124   3.520832
    15  H    4.044794   4.466222   4.780044   2.657384   2.282404
    16  C    3.114507   2.941225   4.147699   2.592077   2.850601
    17  H    3.259646   3.386927   4.312553   2.708719   2.536255
    18  H    2.743358   2.290894   3.783204   2.796722   3.237582
    19  C    1.525374   2.147691   2.150295   2.556931   2.571814
    20  H    2.162792   2.507954   3.057709   2.818746   2.704855
    21  H    2.167984   2.476115   2.486684   3.498531   3.636169
    22  H    2.168640   3.060178   2.503437   2.819717   2.472672
                    6          7          8          9         10
     6  H    0.000000
     7  N    2.115205   0.000000
     8  C    2.604673   1.481289   0.000000
     9  H    3.590127   2.080830   1.084905   0.000000
    10  H    2.338007   2.119897   1.090523   1.798287   0.000000
    11  H    2.985808   2.105459   1.085464   1.762511   1.781950
    12  C    2.629990   1.482258   2.394335   2.601397   2.632286
    13  H    2.345166   2.123031   2.659338   3.009770   2.427162
    14  H    3.597287   2.086459   2.585665   2.318216   2.942841
    15  H    3.048001   2.095217   3.337593   3.571011   3.639897
    16  C    3.489441   1.522828   2.427372   2.559517   3.391223
    17  H    3.703710   2.087001   3.341547   3.571268   4.180539
    18  H    3.739376   2.095484   2.619198   2.886961   3.633920
    19  C    3.392909   3.500569   4.354821   5.192041   4.852440
    20  H    3.838001   3.336117   4.333498   4.992976   5.022943
    21  H    4.237817   4.401570   5.047583   5.881808   5.549324
    22  H    3.511561   3.986843   5.006073   5.877948   5.369078
                   11         12         13         14         15
    11  H    0.000000
    12  C    3.344853   0.000000
    13  H    3.653788   1.091202   0.000000
    14  H    3.577669   1.084740   1.799118   0.000000
    15  H    4.170233   1.086654   1.784888   1.765886   0.000000
    16  C    2.675123   2.416168   3.386064   2.576620   2.621105
    17  H    3.621105   2.650803   3.639844   2.988494   2.387711
    18  H    2.397154   3.340137   4.187534   3.560358   3.608539
    19  C    4.031446   4.630405   5.077427   5.436423   4.530032
    20  H    4.078913   4.417115   5.073813   5.088424   4.215689
    21  H    4.521206   5.634848   6.067930   6.396528   5.595747
    22  H    4.845640   4.859978   5.199765   5.774293   4.580320
                   16         17         18         19         20
    16  C    0.000000
    17  H    1.097948   0.000000
    18  H    1.096085   1.764550   0.000000
    19  C    3.505670   3.239562   3.056317   0.000000
    20  H    2.899597   2.476371   2.473267   1.088572   0.000000
    21  H    4.310539   4.135764   3.644188   1.090134   1.767881
    22  H    4.148936   3.675199   3.921001   1.091721   1.766620
                   21         22
    21  H    0.000000
    22  H    1.762504   0.000000
 Stoichiometry    C6H15N
 Framework group  C1[X(C6H15N)]
 Deg. of freedom    60
 Full point group                 C1      NOp   1
 Largest Abelian subgroup         C1      NOp   1
 Largest concise Abelian subgroup C1      NOp   1
                         Standard orientation:                         
 ---------------------------------------------------------------------
 Center     Atomic      Atomic             Coordinates (Angstroms)
 Number     Number       Type             X           Y           Z
 ---------------------------------------------------------------------
      1          6           0       -1.607193    0.691032   -0.123124
      2          1           0       -1.353035    1.104141    0.852983
      3          1           0       -2.049332    1.510399   -0.692315
      4          6           0       -0.339290    0.241625   -0.849049
      5          1           0       -0.532240   -0.678473   -1.399145
      6          1           0       -0.016701    0.997631   -1.568841
      7          7           0        0.843866   -0.067156    0.043532
      8          6           0        1.367082    1.188643    0.629563
      9          1           0        2.235613    0.930087    1.226071
     10          1           0        1.621378    1.894264   -0.162064
     11          1           0        0.614614    1.619752    1.282379
     12          6           0        1.902597   -0.638257   -0.822506
     13          1           0        2.123182    0.041309   -1.647281
     14          1           0        2.777057   -0.811825   -0.204562
     15          1           0        1.550925   -1.591346   -1.208206
     16          6           0        0.618625   -1.053473    1.181710
     17          1           0        0.155177   -1.924593    0.700196
     18          1           0       -0.147216   -0.590017    1.814245
     19          6           0       -2.639010   -0.418546    0.052815
     20          1           0       -2.223257   -1.238007    0.636444
     21          1           0       -3.526757   -0.045924    0.564136
     22          1           0       -2.953337   -0.813451   -0.915226
 ---------------------------------------------------------------------
 Rotational constants (GHZ):           4.1303620           1.6376400           1.5911047
 Standard basis: 6-311+G(2d,2p) (5D, 7F)
 There are   338 symmetry adapted cartesian basis functions of A   symmetry.
 There are   324 symmetry adapted basis functions of A   symmetry.
   324 basis functions,   459 primitive gaussians,   338 cartesian basis functions
    29 alpha electrons       29 beta electrons
       nuclear repulsion energy       346.2709675181 Hartrees.
 NAtoms=   22 NActive=   22 NUniq=   22 SFac= 1.00D+00 NAtFMM=   60 NAOKFM=F Big=F
 Integral buffers will be    131072 words long.
 Raffenetti 2 integral format.
 Two-electron integral symmetry is turned on.
 Nuclear repulsion after empirical dispersion term =      346.2549427764 Hartrees.
 One-electron integrals computed using PRISM.
 NBasis=   324 RedAO= T EigKep=  2.63D-05  NBF=   324
 NBsUse=   324 1.00D-06 EigRej= -1.00D+00 NBFU=   324
 Initial guess from the checkpoint file:  "aminopropyl_ylide.chk"
 B after Tr=     0.000000   -0.000000    0.000000
         Rot=    0.999998   -0.001908    0.000161    0.000008 Ang=  -0.22 deg.
 Requested convergence on RMS density matrix=1.00D-08 within  32 cycles.
 Requested convergence on MAX density matrix=1.00D-06.
 Requested convergence on             energy=1.00D-06.
 No special actions if energy rises.
 SCF Done:  E(RwB97XD) =  -292.313377130     A.U. after   10 cycles
            NFock= 10  Conv=0.28D-08     -V/T= 2.0047
 QCSCF skips out because SCF is already converged.
 Calling FoFJK, ICntrl=      2127 FMM=F ISym2X=0 I1Cent= 0 IOpClX= 0 NMat=1 NMatS=1 NMatT=0.
 ***** Axes restored to original set *****
 -------------------------------------------------------------------
 Center     Atomic                   Forces (Hartrees/Bohr)
 Number     Number              X              Y              Z
 -------------------------------------------------------------------
      1        6          -0.000014446   -0.000004104    0.000001638
      2        1          -0.000006131   -0.000006379    0.000005561
      3        1          -0.000004113   -0.000005779    0.000002099
      4        6           0.000012219    0.000006038   -0.000002152
      5        1          -0.000002495    0.000000661    0.000003359
      6        1          -0.000003210   -0.000005411    0.000003388
      7        7          -0.000012337   -0.000035664    0.000007842
      8        6           0.000013843    0.000009524   -0.000008498
      9        1          -0.000001177   -0.000001082   -0.000002284
     10        1          -0.000000951   -0.000001179   -0.000001714
     11        1           0.000004641   -0.000000989   -0.000001190
     12        6          -0.000000031   -0.000001424   -0.000012091
     13        1          -0.000001830    0.000001270    0.000000084
     14        1          -0.000000643   -0.000000549    0.000000981
     15        1          -0.000001860   -0.000000297    0.000002556
     16        6          -0.000002703    0.000025755    0.000005659
     17        1           0.000003047   -0.000000825   -0.000000347
     18        1           0.000006956   -0.000000207    0.000004227
     19        6           0.000013673    0.000013771   -0.000013265
     20        1           0.000000040    0.000001917    0.000001094
     21        1          -0.000000676    0.000002568   -0.000001310
     22        1          -0.000001816    0.000002385    0.000004364
 -------------------------------------------------------------------
 Cartesian Forces:  Max     0.000035664 RMS     0.000007850

 GradGradGradGradGradGradGradGradGradGradGradGradGradGradGradGradGradGrad
 Berny optimization.
 Using GEDIIS/GDIIS optimizer.
 FormGI is forming the generalized inverse of G from B-inverse, IUseBI=4.
 Internal  Forces:  Max     0.000025890 RMS     0.000005852
 Search for a local minimum.
 Step number  12 out of a maximum of  121
 All quantities printed in internal units (Hartrees-Bohrs-Radians)
 Mixed Optimization -- En-DIIS/RFO-DIIS
 Swapping is turned off.
 Update second derivatives using D2CorX and points    5    6    7    8    9
                                                     10   11   12
 DE= -5.90D-07 DEPred=-7.77D-07 R= 7.60D-01
 Trust test= 7.60D-01 RLast= 2.45D-02 DXMaxT set to 1.43D+00
 ITU=  0  1  1  1  1  0  1  0  1  1  1  0
     Eigenvalues ---    0.00180   0.00236   0.00339   0.00436   0.00446
     Eigenvalues ---    0.00888   0.03359   0.03916   0.04367   0.04609
     Eigenvalues ---    0.04780   0.04942   0.05458   0.05485   0.05536
     Eigenvalues ---    0.05813   0.05829   0.06111   0.06138   0.06605
     Eigenvalues ---    0.08496   0.08737   0.12380   0.12726   0.14289
     Eigenvalues ---    0.14955   0.15533   0.15760   0.15974   0.15994
     Eigenvalues ---    0.16003   0.16010   0.16027   0.16033   0.16108
     Eigenvalues ---    0.16719   0.17386   0.21399   0.26637   0.27421
     Eigenvalues ---    0.30039   0.30513   0.32816   0.33567   0.33996
     Eigenvalues ---    0.34780   0.34835   0.34954   0.35025   0.35052
     Eigenvalues ---    0.35115   0.35127   0.35165   0.35220   0.35389
     Eigenvalues ---    0.35447   0.36498   0.37153   0.37218   0.38596
 En-DIIS/RFO-DIIS/Sim-DIIS IScMMF=       -3 using points:    12   11   10    9    8    7    6    5    4    3
 RFO step:  Lambda=-1.47887086D-08.
 DIIS inversion failure, remove point  10.
 DIIS inversion failure, remove point   9.
 RFO-DIIS uses    8 points instead of   10
 DidBck=F Rises=F RFO-DIIS coefs:    0.83626    0.17208    0.00374   -0.03156    0.00707
                  RFO-DIIS coefs:    0.01190    0.00021    0.00030    0.00000    0.00000
 Iteration  1 RMS(Cart)=  0.00014419 RMS(Int)=  0.00000031
 Iteration  2 RMS(Cart)=  0.00000001 RMS(Int)=  0.00000031
 Variable       Old X    -DE/DX   Delta X   Delta X   Delta X     New X
                                 (Linear)    (Quad)   (Total)
    R1        2.05975   0.00001   0.00001  -0.00000   0.00001   2.05976
    R2        2.06217   0.00000  -0.00001   0.00001   0.00001   2.06217
    R3        2.88857  -0.00001  -0.00000  -0.00002  -0.00002   2.88855
    R4        2.88254   0.00003  -0.00000   0.00008   0.00008   2.88261
    R5        2.05834  -0.00000   0.00001  -0.00002  -0.00001   2.05833
    R6        2.06466   0.00001  -0.00002   0.00003   0.00001   2.06467
    R7        2.86086  -0.00001   0.00000  -0.00000  -0.00000   2.86086
    R8        2.79923  -0.00002   0.00000  -0.00006  -0.00005   2.79918
    R9        2.80106   0.00001   0.00002  -0.00001   0.00001   2.80108
   R10        2.87773   0.00002   0.00002   0.00005   0.00007   2.87780
   R11        2.05017   0.00000  -0.00000   0.00000   0.00000   2.05018
   R12        2.06079   0.00000   0.00000  -0.00000   0.00000   2.06079
   R13        2.05123   0.00000   0.00001  -0.00001   0.00000   2.05123
   R14        2.06207  -0.00000  -0.00000  -0.00000  -0.00000   2.06207
   R15        2.04986   0.00000   0.00000   0.00000   0.00000   2.04986
   R16        2.05348  -0.00000   0.00001  -0.00002  -0.00001   2.05347
   R17        2.07482   0.00000   0.00002  -0.00001   0.00001   2.07483
   R18        2.07130   0.00001   0.00003  -0.00001   0.00002   2.07132
   R19        2.05710   0.00000  -0.00001   0.00001  -0.00000   2.05710
   R20        2.06005  -0.00000  -0.00000   0.00000  -0.00000   2.06005
   R21        2.06305  -0.00000   0.00001  -0.00002  -0.00001   2.06304
    A1        1.85147  -0.00000  -0.00003  -0.00002  -0.00004   1.85142
    A2        1.92124  -0.00001  -0.00002  -0.00002  -0.00004   1.92120
    A3        1.90724   0.00000   0.00004   0.00003   0.00007   1.90731
    A4        1.88507  -0.00000  -0.00006  -0.00002  -0.00008   1.88499
    A5        1.90951   0.00000  -0.00002   0.00004   0.00002   1.90953
    A6        1.98449   0.00000   0.00008  -0.00001   0.00007   1.98456
    A7        1.91906   0.00001   0.00002   0.00001   0.00003   1.91909
    A8        1.93301   0.00001  -0.00002   0.00001  -0.00001   1.93300
    A9        2.01332  -0.00003   0.00001  -0.00005  -0.00005   2.01327
   A10        1.87978  -0.00000   0.00002   0.00002   0.00004   1.87982
   A11        1.83787   0.00001   0.00005  -0.00002   0.00002   1.83789
   A12        1.87424   0.00001  -0.00007   0.00004  -0.00003   1.87421
   A13        1.91388  -0.00000  -0.00005  -0.00001  -0.00005   1.91382
   A14        1.86746   0.00001   0.00000   0.00005   0.00005   1.86751
   A15        2.04561  -0.00001   0.00003  -0.00009  -0.00006   2.04556
   A16        1.88126   0.00000   0.00003   0.00002   0.00005   1.88131
   A17        1.88141   0.00000  -0.00002  -0.00000  -0.00003   1.88139
   A18        1.86794   0.00000   0.00001   0.00004   0.00005   1.86799
   A19        1.87366  -0.00000   0.00000  -0.00001  -0.00001   1.87365
   A20        1.92168  -0.00000   0.00001  -0.00001  -0.00000   1.92168
   A21        1.90687  -0.00000   0.00002  -0.00003  -0.00001   1.90686
   A22        1.94620   0.00000  -0.00000  -0.00000  -0.00001   1.94619
   A23        1.89541   0.00000  -0.00002   0.00005   0.00003   1.89544
   A24        1.91903   0.00000  -0.00000   0.00001   0.00001   1.91904
   A25        1.92416   0.00000   0.00000  -0.00000  -0.00000   1.92416
   A26        1.88033  -0.00000   0.00002  -0.00003  -0.00001   1.88032
   A27        1.89037   0.00000   0.00002  -0.00002   0.00001   1.89037
   A28        1.94687  -0.00000  -0.00001  -0.00001  -0.00001   1.94685
   A29        1.92129  -0.00000  -0.00001   0.00002   0.00001   1.92130
   A30        1.89943  -0.00000  -0.00003   0.00003   0.00000   1.89943
   A31        1.82196  -0.00000   0.00001  -0.00006  -0.00004   1.82192
   A32        1.83465  -0.00001   0.00001  -0.00006  -0.00005   1.83460
   A33        1.86882   0.00000  -0.00006   0.00002  -0.00004   1.86878
   A34        1.92952   0.00000   0.00007  -0.00004   0.00003   1.92955
   A35        1.93512   0.00000   0.00002  -0.00000   0.00002   1.93513
   A36        1.93436  -0.00000   0.00004  -0.00003   0.00001   1.93437
   A37        1.89321  -0.00000  -0.00002  -0.00001  -0.00002   1.89319
   A38        1.88921  -0.00000  -0.00007   0.00004  -0.00002   1.88919
   A39        1.88082  -0.00000  -0.00005   0.00004  -0.00001   1.88081
    D1        2.48001   0.00000   0.00030  -0.00003   0.00027   2.48029
    D2       -1.72769   0.00001   0.00033   0.00001   0.00034  -1.72735
    D3        0.40544   0.00000   0.00022   0.00003   0.00025   0.40569
    D4       -1.78907  -0.00001   0.00022  -0.00007   0.00016  -1.78892
    D5        0.28641   0.00000   0.00025  -0.00003   0.00022   0.28663
    D6        2.41954  -0.00000   0.00014  -0.00001   0.00013   2.41968
    D7        0.33359  -0.00000   0.00020  -0.00003   0.00017   0.33376
    D8        2.40907   0.00000   0.00023   0.00000   0.00023   2.40930
    D9       -1.74098   0.00000   0.00012   0.00002   0.00015  -1.74084
   D10       -1.10143   0.00000   0.00004   0.00003   0.00007  -1.10136
   D11        0.99892   0.00000   0.00007  -0.00000   0.00007   0.99899
   D12        3.08691   0.00000   0.00005   0.00002   0.00007   3.08698
   D13       -3.12154  -0.00000   0.00007   0.00001   0.00008  -3.12146
   D14       -1.02119  -0.00000   0.00010  -0.00002   0.00008  -1.02111
   D15        1.06680  -0.00000   0.00008   0.00000   0.00008   1.06688
   D16        1.05264  -0.00000   0.00011   0.00001   0.00012   1.05275
   D17       -3.13020  -0.00000   0.00014  -0.00002   0.00012  -3.13008
   D18       -1.04221  -0.00000   0.00012  -0.00000   0.00012  -1.04209
   D19       -1.22531   0.00000  -0.00001   0.00001   0.00001  -1.22530
   D20        3.02209   0.00000  -0.00001  -0.00004  -0.00005   3.02204
   D21        0.92611  -0.00000  -0.00005  -0.00006  -0.00012   0.92599
   D22        2.93885   0.00000  -0.00007   0.00005  -0.00002   2.93883
   D23        0.90307   0.00000  -0.00008   0.00000  -0.00008   0.90299
   D24       -1.19291  -0.00000  -0.00012  -0.00003  -0.00015  -1.19306
   D25        0.93898   0.00000  -0.00008   0.00002  -0.00006   0.93891
   D26       -1.09681  -0.00000  -0.00009  -0.00003  -0.00012  -1.09692
   D27        3.09040  -0.00001  -0.00013  -0.00005  -0.00019   3.09021
   D28       -3.10065  -0.00001  -0.00000  -0.00016  -0.00016  -3.10081
   D29       -0.97898  -0.00001   0.00000  -0.00018  -0.00018  -0.97916
   D30        1.13024  -0.00001   0.00001  -0.00019  -0.00018   1.13006
   D31       -1.07358   0.00000  -0.00001  -0.00010  -0.00010  -1.07368
   D32        1.04809  -0.00000  -0.00000  -0.00012  -0.00012   1.04797
   D33       -3.12588  -0.00000   0.00001  -0.00013  -0.00012  -3.12600
   D34        0.93721   0.00001   0.00001  -0.00004  -0.00003   0.93718
   D35        3.05888   0.00001   0.00001  -0.00007  -0.00005   3.05883
   D36       -1.11509   0.00000   0.00002  -0.00008  -0.00005  -1.11514
   D37        0.95829   0.00000  -0.00005   0.00003  -0.00002   0.95827
   D38        3.08645  -0.00000  -0.00005   0.00000  -0.00004   3.08640
   D39       -1.14484   0.00000  -0.00006   0.00002  -0.00004  -1.14488
   D40       -1.09895   0.00000  -0.00002   0.00001  -0.00001  -1.09896
   D41        1.02921   0.00000  -0.00001  -0.00002  -0.00003   1.02917
   D42        3.08110   0.00000  -0.00002  -0.00001  -0.00003   3.08108
   D43       -3.11861  -0.00000  -0.00001  -0.00002  -0.00003  -3.11864
   D44       -0.99046  -0.00000  -0.00000  -0.00005  -0.00005  -0.99051
   D45        1.06144  -0.00000  -0.00001  -0.00004  -0.00005   1.06139
   D46        0.89294   0.00000  -0.00008   0.00002  -0.00006   0.89288
   D47       -1.07125   0.00001  -0.00003   0.00005   0.00002  -1.07123
   D48        3.06084  -0.00001  -0.00014  -0.00005  -0.00019   3.06064
   D49        1.09664  -0.00000  -0.00009  -0.00003  -0.00012   1.09653
   D50       -1.20279  -0.00000  -0.00011  -0.00001  -0.00013  -1.20291
   D51        3.11620   0.00000  -0.00006   0.00001  -0.00005   3.11616
         Item               Value     Threshold  Converged?
 Maximum Force            0.000026     0.000450     YES
 RMS     Force            0.000006     0.000300     YES
 Maximum Displacement     0.000533     0.001800     YES
 RMS     Displacement     0.000144     0.001200     YES
 Predicted change in Energy=-1.060695D-08
 Optimization completed.
    -- Stationary point found.
                           ----------------------------
                           !   Optimized Parameters   !
                           ! (Angstroms and Degrees)  !
 --------------------------                            --------------------------
 ! Name  Definition              Value          Derivative Info.                !
 --------------------------------------------------------------------------------
 ! R1    R(1,2)                  1.09           -DE/DX =    0.0                 !
 ! R2    R(1,3)                  1.0913         -DE/DX =    0.0                 !
 ! R3    R(1,4)                  1.5286         -DE/DX =    0.0                 !
 ! R4    R(1,19)                 1.5254         -DE/DX =    0.0                 !
 ! R5    R(4,5)                  1.0892         -DE/DX =    0.0                 !
 ! R6    R(4,6)                  1.0926         -DE/DX =    0.0                 !
 ! R7    R(4,7)                  1.5139         -DE/DX =    0.0                 !
 ! R8    R(7,8)                  1.4813         -DE/DX =    0.0                 !
 ! R9    R(7,12)                 1.4823         -DE/DX =    0.0                 !
 ! R10   R(7,16)                 1.5228         -DE/DX =    0.0                 !
 ! R11   R(8,9)                  1.0849         -DE/DX =    0.0                 !
 ! R12   R(8,10)                 1.0905         -DE/DX =    0.0                 !
 ! R13   R(8,11)                 1.0855         -DE/DX =    0.0                 !
 ! R14   R(12,13)                1.0912         -DE/DX =    0.0                 !
 ! R15   R(12,14)                1.0847         -DE/DX =    0.0                 !
 ! R16   R(12,15)                1.0867         -DE/DX =    0.0                 !
 ! R17   R(16,17)                1.0979         -DE/DX =    0.0                 !
 ! R18   R(16,18)                1.0961         -DE/DX =    0.0                 !
 ! R19   R(19,20)                1.0886         -DE/DX =    0.0                 !
 ! R20   R(19,21)                1.0901         -DE/DX =    0.0                 !
 ! R21   R(19,22)                1.0917         -DE/DX =    0.0                 !
 ! A1    A(2,1,3)              106.0814         -DE/DX =    0.0                 !
 ! A2    A(2,1,4)              110.0787         -DE/DX =    0.0                 !
 ! A3    A(2,1,19)             109.2769         -DE/DX =    0.0                 !
 ! A4    A(3,1,4)              108.0063         -DE/DX =    0.0                 !
 ! A5    A(3,1,19)             109.4067         -DE/DX =    0.0                 !
 ! A6    A(4,1,19)             113.7031         -DE/DX =    0.0                 !
 ! A7    A(1,4,5)              109.9538         -DE/DX =    0.0                 !
 ! A8    A(1,4,6)              110.7531         -DE/DX =    0.0                 !
 ! A9    A(1,4,7)              115.3548         -DE/DX =    0.0                 !
 ! A10   A(5,4,6)              107.7036         -DE/DX =    0.0                 !
 ! A11   A(5,4,7)              105.3023         -DE/DX =    0.0                 !
 ! A12   A(6,4,7)              107.3859         -DE/DX =    0.0                 !
 ! A13   A(4,7,8)              109.657          -DE/DX =    0.0                 !
 ! A14   A(4,7,12)             106.9973         -DE/DX =    0.0                 !
 ! A15   A(4,7,16)             117.2049         -DE/DX =    0.0                 !
 ! A16   A(8,7,12)             107.7881         -DE/DX =    0.0                 !
 ! A17   A(8,7,16)             107.7969         -DE/DX =    0.0                 !
 ! A18   A(12,7,16)            107.025          -DE/DX =    0.0                 !
 ! A19   A(7,8,9)              107.3526         -DE/DX =    0.0                 !
 ! A20   A(7,8,10)             110.1042         -DE/DX =    0.0                 !
 ! A21   A(7,8,11)             109.2556         -DE/DX =    0.0                 !
 ! A22   A(9,8,10)             111.5092         -DE/DX =    0.0                 !
 ! A23   A(9,8,11)             108.5991         -DE/DX =    0.0                 !
 ! A24   A(10,8,11)            109.9526         -DE/DX =    0.0                 !
 ! A25   A(7,12,13)            110.2463         -DE/DX =    0.0                 !
 ! A26   A(7,12,14)            107.735          -DE/DX =    0.0                 !
 ! A27   A(7,12,15)            108.31           -DE/DX =    0.0                 !
 ! A28   A(13,12,14)           111.5472         -DE/DX =    0.0                 !
 ! A29   A(13,12,15)           110.0818         -DE/DX =    0.0                 !
 ! A30   A(14,12,15)           108.8294         -DE/DX =    0.0                 !
 ! A31   A(7,16,17)            104.3905         -DE/DX =    0.0                 !
 ! A32   A(7,16,18)            105.1178         -DE/DX =    0.0                 !
 ! A33   A(17,16,18)           107.0756         -DE/DX =    0.0                 !
 ! A34   A(1,19,20)            110.5533         -DE/DX =    0.0                 !
 ! A35   A(1,19,21)            110.874          -DE/DX =    0.0                 !
 ! A36   A(1,19,22)            110.8308         -DE/DX =    0.0                 !
 ! A37   A(20,19,21)           108.473          -DE/DX =    0.0                 !
 ! A38   A(20,19,22)           108.244          -DE/DX =    0.0                 !
 ! A39   A(21,19,22)           107.7632         -DE/DX =    0.0                 !
 ! D1    D(2,1,4,5)            142.0943         -DE/DX =    0.0                 !
 ! D2    D(2,1,4,6)            -98.9892         -DE/DX =    0.0                 !
 ! D3    D(2,1,4,7)             23.2301         -DE/DX =    0.0                 !
 ! D4    D(3,1,4,5)           -102.5062         -DE/DX =    0.0                 !
 ! D5    D(3,1,4,6)             16.4103         -DE/DX =    0.0                 !
 ! D6    D(3,1,4,7)            138.6296         -DE/DX =    0.0                 !
 ! D7    D(19,1,4,5)            19.1133         -DE/DX =    0.0                 !
 ! D8    D(19,1,4,6)           138.0298         -DE/DX =    0.0                 !
 ! D9    D(19,1,4,7)           -99.7509         -DE/DX =    0.0                 !
 ! D10   D(2,1,19,20)          -63.1075         -DE/DX =    0.0                 !
 ! D11   D(2,1,19,21)           57.2338         -DE/DX =    0.0                 !
 ! D12   D(2,1,19,22)          176.8668         -DE/DX =    0.0                 !
 ! D13   D(3,1,19,20)         -178.851          -DE/DX =    0.0                 !
 ! D14   D(3,1,19,21)          -58.5097         -DE/DX =    0.0                 !
 ! D15   D(3,1,19,22)           61.1233         -DE/DX =    0.0                 !
 ! D16   D(4,1,19,20)           60.3116         -DE/DX =    0.0                 !
 ! D17   D(4,1,19,21)         -179.3471         -DE/DX =    0.0                 !
 ! D18   D(4,1,19,22)          -59.7141         -DE/DX =    0.0                 !
 ! D19   D(1,4,7,8)            -70.205          -DE/DX =    0.0                 !
 ! D20   D(1,4,7,12)           173.1532         -DE/DX =    0.0                 !
 ! D21   D(1,4,7,16)            53.0622         -DE/DX =    0.0                 !
 ! D22   D(5,4,7,8)            168.3839         -DE/DX =    0.0                 !
 ! D23   D(5,4,7,12)            51.7421         -DE/DX =    0.0                 !
 ! D24   D(5,4,7,16)           -68.3489         -DE/DX =    0.0                 !
 ! D25   D(6,4,7,8)             53.7994         -DE/DX =    0.0                 !
 ! D26   D(6,4,7,12)           -62.8424         -DE/DX =    0.0                 !
 ! D27   D(6,4,7,16)           177.0666         -DE/DX =    0.0                 !
 ! D28   D(4,7,8,9)           -177.6541         -DE/DX =    0.0                 !
 ! D29   D(4,7,8,10)           -56.0914         -DE/DX =    0.0                 !
 ! D30   D(4,7,8,11)            64.7579         -DE/DX =    0.0                 !
 ! D31   D(12,7,8,9)           -61.5115         -DE/DX =    0.0                 !
 ! D32   D(12,7,8,10)           60.0512         -DE/DX =    0.0                 !
 ! D33   D(12,7,8,11)         -179.0995         -DE/DX =    0.0                 !
 ! D34   D(16,7,8,9)            53.6982         -DE/DX =    0.0                 !
 ! D35   D(16,7,8,10)          175.261          -DE/DX =    0.0                 !
 ! D36   D(16,7,8,11)          -63.8898         -DE/DX =    0.0                 !
 ! D37   D(4,7,12,13)           54.9061         -DE/DX =    0.0                 !
 ! D38   D(4,7,12,14)          176.8405         -DE/DX =    0.0                 !
 ! D39   D(4,7,12,15)          -65.5944         -DE/DX =    0.0                 !
 ! D40   D(8,7,12,13)          -62.9652         -DE/DX =    0.0                 !
 ! D41   D(8,7,12,14)           58.9692         -DE/DX =    0.0                 !
 ! D42   D(8,7,12,15)          176.5343         -DE/DX =    0.0                 !
 ! D43   D(16,7,12,13)        -178.6833         -DE/DX =    0.0                 !
 ! D44   D(16,7,12,14)         -56.7489         -DE/DX =    0.0                 !
 ! D45   D(16,7,12,15)          60.8162         -DE/DX =    0.0                 !
 ! D46   D(4,7,16,17)           51.1617         -DE/DX =    0.0                 !
 ! D47   D(4,7,16,18)          -61.3783         -DE/DX =    0.0                 !
 ! D48   D(8,7,16,17)          175.3731         -DE/DX =    0.0                 !
 ! D49   D(8,7,16,18)           62.8331         -DE/DX =    0.0                 !
 ! D50   D(12,7,16,17)         -68.9147         -DE/DX =    0.0                 !
 ! D51   D(12,7,16,18)         178.5453         -DE/DX =    0.0                 !
 --------------------------------------------------------------------------------
 GradGradGradGradGradGradGradGradGradGradGradGradGradGradGradGradGradGrad

                          Input orientation:                          
 ---------------------------------------------------------------------
 Center     Atomic      Atomic             Coordinates (Angstroms)
 Number     Number       Type             X           Y           Z
 ---------------------------------------------------------------------
      1          6           0        0.606055   -0.724961    0.313718
      2          1           0        0.230951   -0.380281    1.277322
      3          1           0        1.325521   -1.515177    0.534524
      4          6           0       -0.531457   -1.336576   -0.503902
      5          1           0       -0.415954   -1.075267   -1.554993
      6          1           0       -0.519315   -2.426526   -0.429239
      7          7           0       -1.922545   -0.872834   -0.127444
      8          6           0       -2.290549   -1.425105    1.196863
      9          1           0       -3.305174   -1.105592    1.410091
     10          1           0       -2.207762   -2.512424    1.185705
     11          1           0       -1.631073   -1.011157    1.953150
     12          6           0       -2.854833   -1.441042   -1.129974
     13          1           0       -2.737939   -2.524678   -1.182814
     14          1           0       -3.862207   -1.162703   -0.839482
     15          1           0       -2.632043   -0.994226   -2.095136
     16          6           0       -2.169324    0.629403   -0.090164
     17          1           0       -1.801531    0.990493   -1.059614
     18          1           0       -1.485822    1.012446    0.676325
     19          6           0        1.317514    0.425912   -0.390614
     20          1           0        0.619903    1.234437   -0.601836
     21          1           0        2.125359    0.819160    0.226747
     22          1           0        1.751876    0.093682   -1.335500
 ---------------------------------------------------------------------
                    Distance matrix (angstroms):
                    1          2          3          4          5
     1  C    0.000000
     2  H    1.089972   0.000000
     3  H    1.091251   1.742934   0.000000
     4  C    1.528565   2.160677   2.135087   0.000000
     5  H    2.158541   2.987223   2.755420   1.089227   0.000000
     6  H    2.171121   2.768098   2.272184   1.092571   1.761790
     7  N    2.571052   2.617923   3.376499   1.513903   2.085351
     8  C    3.108128   2.730585   3.677332   2.448437   3.348014
     9  H    4.079783   3.612186   4.730509   3.377903   4.140076
    10  H    3.445715   3.240641   3.728623   2.654691   3.575950
    11  H    2.788259   2.078913   3.317828   2.711486   3.713177
    12  C    3.817691   4.054917   4.500157   2.408517   2.502511
    13  H    4.081775   4.411917   4.525489   2.596357   2.762412
    14  H    4.635391   4.674076   5.378165   3.352124   3.520832
    15  H    4.044794   4.466222   4.780044   2.657384   2.282404
    16  C    3.114507   2.941225   4.147699   2.592077   2.850601
    17  H    3.259646   3.386927   4.312553   2.708719   2.536255
    18  H    2.743358   2.290894   3.783204   2.796722   3.237582
    19  C    1.525374   2.147691   2.150295   2.556931   2.571814
    20  H    2.162792   2.507954   3.057709   2.818746   2.704855
    21  H    2.167984   2.476115   2.486684   3.498531   3.636169
    22  H    2.168640   3.060178   2.503437   2.819717   2.472672
                    6          7          8          9         10
     6  H    0.000000
     7  N    2.115205   0.000000
     8  C    2.604673   1.481289   0.000000
     9  H    3.590127   2.080830   1.084905   0.000000
    10  H    2.338007   2.119897   1.090523   1.798287   0.000000
    11  H    2.985808   2.105459   1.085464   1.762511   1.781950
    12  C    2.629990   1.482258   2.394335   2.601397   2.632286
    13  H    2.345166   2.123031   2.659338   3.009770   2.427162
    14  H    3.597287   2.086459   2.585665   2.318216   2.942841
    15  H    3.048001   2.095217   3.337593   3.571011   3.639897
    16  C    3.489441   1.522828   2.427372   2.559517   3.391223
    17  H    3.703710   2.087001   3.341547   3.571268   4.180539
    18  H    3.739376   2.095484   2.619198   2.886961   3.633920
    19  C    3.392909   3.500569   4.354821   5.192041   4.852440
    20  H    3.838001   3.336117   4.333498   4.992976   5.022943
    21  H    4.237817   4.401570   5.047583   5.881808   5.549324
    22  H    3.511561   3.986843   5.006073   5.877948   5.369078
                   11         12         13         14         15
    11  H    0.000000
    12  C    3.344853   0.000000
    13  H    3.653788   1.091202   0.000000
    14  H    3.577669   1.084740   1.799118   0.000000
    15  H    4.170233   1.086654   1.784888   1.765886   0.000000
    16  C    2.675123   2.416168   3.386064   2.576620   2.621105
    17  H    3.621105   2.650803   3.639844   2.988494   2.387711
    18  H    2.397154   3.340137   4.187534   3.560358   3.608539
    19  C    4.031446   4.630405   5.077427   5.436423   4.530032
    20  H    4.078913   4.417115   5.073813   5.088424   4.215689
    21  H    4.521206   5.634848   6.067930   6.396528   5.595747
    22  H    4.845640   4.859978   5.199765   5.774293   4.580320
                   16         17         18         19         20
    16  C    0.000000
    17  H    1.097948   0.000000
    18  H    1.096085   1.764550   0.000000
    19  C    3.505670   3.239562   3.056317   0.000000
    20  H    2.899597   2.476371   2.473267   1.088572   0.000000
    21  H    4.310539   4.135764   3.644188   1.090134   1.767881
    22  H    4.148936   3.675199   3.921001   1.091721   1.766620
                   21         22
    21  H    0.000000
    22  H    1.762504   0.000000
 Stoichiometry    C6H15N
 Framework group  C1[X(C6H15N)]
 Deg. of freedom    60
 Full point group                 C1      NOp   1
 Largest Abelian subgroup         C1      NOp   1
 Largest concise Abelian subgroup C1      NOp   1
                         Standard orientation:                         
 ---------------------------------------------------------------------
 Center     Atomic      Atomic             Coordinates (Angstroms)
 Number     Number       Type             X           Y           Z
 ---------------------------------------------------------------------
      1          6           0       -1.607193    0.691032   -0.123124
      2          1           0       -1.353035    1.104141    0.852983
      3          1           0       -2.049332    1.510399   -0.692315
      4          6           0       -0.339290    0.241625   -0.849049
      5          1           0       -0.532240   -0.678473   -1.399145
      6          1           0       -0.016701    0.997631   -1.568841
      7          7           0        0.843866   -0.067156    0.043532
      8          6           0        1.367082    1.188643    0.629563
      9          1           0        2.235613    0.930087    1.226071
     10          1           0        1.621378    1.894264   -0.162064
     11          1           0        0.614614    1.619752    1.282379
     12          6           0        1.902597   -0.638257   -0.822506
     13          1           0        2.123182    0.041309   -1.647281
     14          1           0        2.777057   -0.811825   -0.204562
     15          1           0        1.550925   -1.591346   -1.208206
     16          6           0        0.618625   -1.053473    1.181710
     17          1           0        0.155177   -1.924593    0.700196
     18          1           0       -0.147216   -0.590017    1.814245
     19          6           0       -2.639010   -0.418546    0.052815
     20          1           0       -2.223257   -1.238007    0.636444
     21          1           0       -3.526757   -0.045924    0.564136
     22          1           0       -2.953337   -0.813451   -0.915226
 ---------------------------------------------------------------------
 Rotational constants (GHZ):           4.1303620           1.6376400           1.5911047

 **********************************************************************

            Population analysis using the SCF density.

 **********************************************************************

 Orbital symmetries:
       Occupied  (A) (A) (A) (A) (A) (A) (A) (A) (A) (A) (A) (A)
                 (A) (A) (A) (A) (A) (A) (A) (A) (A) (A) (A) (A)
                 (A) (A) (A) (A) (A)
       Virtual   (A) (A) (A) (A) (A) (A) (A) (A) (A) (A) (A) (A)
                 (A) (A) (A) (A) (A) (A) (A) (A) (A) (A) (A) (A)
                 (A) (A) (A) (A) (A) (A) (A) (A) (A) (A) (A) (A)
                 (A) (A) (A) (A) (A) (A) (A) (A) (A) (A) (A) (A)
                 (A) (A) (A) (A) (A) (A) (A) (A) (A) (A) (A) (A)
                 (A) (A) (A) (A) (A) (A) (A) (A) (A) (A) (A) (A)
                 (A) (A) (A) (A) (A) (A) (A) (A) (A) (A) (A) (A)
                 (A) (A) (A) (A) (A) (A) (A) (A) (A) (A) (A) (A)
                 (A) (A) (A) (A) (A) (A) (A) (A) (A) (A) (A) (A)
                 (A) (A) (A) (A) (A) (A) (A) (A) (A) (A) (A) (A)
                 (A) (A) (A) (A) (A) (A) (A) (A) (A) (A) (A) (A)
                 (A) (A) (A) (A) (A) (A) (A) (A) (A) (A) (A) (A)
                 (A) (A) (A) (A) (A) (A) (A) (A) (A) (A) (A) (A)
                 (A) (A) (A) (A) (A) (A) (A) (A) (A) (A) (A) (A)
                 (A) (A) (A) (A) (A) (A) (A) (A) (A) (A) (A) (A)
                 (A) (A) (A) (A) (A) (A) (A) (A) (A) (A) (A) (A)
                 (A) (A) (A) (A) (A) (A) (A) (A) (A) (A) (A) (A)
                 (A) (A) (A) (A) (A) (A) (A) (A) (A) (A) (A) (A)
                 (A) (A) (A) (A) (A) (A) (A) (A) (A) (A) (A) (A)
                 (A) (A) (A) (A) (A) (A) (A) (A) (A) (A) (A) (A)
                 (A) (A) (A) (A) (A) (A) (A) (A) (A) (A) (A) (A)
                 (A) (A) (A) (A) (A) (A) (A) (A) (A) (A) (A) (A)
                 (A) (A) (A) (A) (A) (A) (A) (A) (A) (A) (A) (A)
                 (A) (A) (A) (A) (A) (A) (A) (A) (A) (A) (A) (A)
                 (A) (A) (A) (A) (A) (A) (A)
 The electronic state is 1-A.
 Alpha  occ. eigenvalues --  -14.53134 -10.32931 -10.31965 -10.31877 -10.29198
 Alpha  occ. eigenvalues --  -10.27033 -10.21237  -1.09287  -0.89897  -0.83649
 Alpha  occ. eigenvalues --   -0.80872  -0.77988  -0.71513  -0.67076  -0.60599
 Alpha  occ. eigenvalues --   -0.58130  -0.56658  -0.54246  -0.52171  -0.51639
 Alpha  occ. eigenvalues --   -0.48760  -0.47925  -0.47563  -0.44832  -0.43642
 Alpha  occ. eigenvalues --   -0.42910  -0.42580  -0.40208  -0.21771
 Alpha virt. eigenvalues --    0.05176   0.06899   0.07279   0.07908   0.09435
 Alpha virt. eigenvalues --    0.09702   0.10340   0.10793   0.10943   0.12094
 Alpha virt. eigenvalues --    0.13383   0.13645   0.14223   0.14598   0.15713
 Alpha virt. eigenvalues --    0.16136   0.16483   0.17006   0.18181   0.19528
 Alpha virt. eigenvalues --    0.19835   0.20000   0.21333   0.22219   0.22462
 Alpha virt. eigenvalues --    0.23554   0.23958   0.24401   0.25094   0.26170
 Alpha virt. eigenvalues --    0.26515   0.27409   0.27961   0.28903   0.29840
 Alpha virt. eigenvalues --    0.30232   0.30878   0.31865   0.32022   0.33327
 Alpha virt. eigenvalues --    0.33502   0.34725   0.34931   0.35505   0.38251
 Alpha virt. eigenvalues --    0.39165   0.40228   0.43152   0.43765   0.45372
 Alpha virt. eigenvalues --    0.47564   0.47765   0.48869   0.50160   0.51108
 Alpha virt. eigenvalues --    0.53349   0.54841   0.56487   0.56626   0.57075
 Alpha virt. eigenvalues --    0.58303   0.59022   0.59254   0.59953   0.60861
 Alpha virt. eigenvalues --    0.62222   0.62531   0.63016   0.63602   0.64066
 Alpha virt. eigenvalues --    0.65429   0.66172   0.67460   0.68052   0.69332
 Alpha virt. eigenvalues --    0.69558   0.71103   0.73233   0.73823   0.75380
 Alpha virt. eigenvalues --    0.75878   0.76506   0.76916   0.77453   0.78187
 Alpha virt. eigenvalues --    0.78805   0.79972   0.83125   0.84465   0.85286
 Alpha virt. eigenvalues --    0.88215   0.89099   0.92457   0.94723   0.96919
 Alpha virt. eigenvalues --    0.97444   0.98324   0.99885   1.03827   1.03961
 Alpha virt. eigenvalues --    1.05515   1.06890   1.07380   1.08492   1.11726
 Alpha virt. eigenvalues --    1.14399   1.15200   1.15840   1.17359   1.18423
 Alpha virt. eigenvalues --    1.19400   1.20147   1.20503   1.22055   1.23570
 Alpha virt. eigenvalues --    1.23799   1.24731   1.26419   1.27168   1.28889
 Alpha virt. eigenvalues --    1.28951   1.31153   1.32915   1.33777   1.35305
 Alpha virt. eigenvalues --    1.35617   1.35953   1.37495   1.39041   1.39611
 Alpha virt. eigenvalues --    1.41718   1.42339   1.43396   1.44261   1.45998
 Alpha virt. eigenvalues --    1.46481   1.48039   1.48771   1.49552   1.51353
 Alpha virt. eigenvalues --    1.51536   1.52224   1.52440   1.53172   1.53844
 Alpha virt. eigenvalues --    1.56326   1.56895   1.58664   1.59884   1.62440
 Alpha virt. eigenvalues --    1.62979   1.63765   1.65579   1.65990   1.68256
 Alpha virt. eigenvalues --    1.68571   1.69202   1.71027   1.73137   1.73697
 Alpha virt. eigenvalues --    1.75802   1.77599   1.79011   1.80230   1.84074
 Alpha virt. eigenvalues --    1.87006   1.90742   1.92618   1.97593   2.05753
 Alpha virt. eigenvalues --    2.10136   2.10865   2.71576   2.75421   2.80944
 Alpha virt. eigenvalues --    2.82074   2.87640   2.88910   2.92877   2.94387
 Alpha virt. eigenvalues --    2.97051   3.00263   3.05331   3.11053   3.13764
 Alpha virt. eigenvalues --    3.17969   3.19146   3.22716   3.26282   3.27271
 Alpha virt. eigenvalues --    3.28395   3.28468   3.29997   3.33928   3.34589
 Alpha virt. eigenvalues --    3.38214   3.40665   3.41889   3.43229   3.44542
 Alpha virt. eigenvalues --    3.47673   3.49143   3.50552   3.52017   3.53060
 Alpha virt. eigenvalues --    3.55384   3.55801   3.57224   3.60003   3.62127
 Alpha virt. eigenvalues --    3.63932   3.64301   3.65857   3.66303   3.67694
 Alpha virt. eigenvalues --    3.69073   3.71014   3.71858   3.73073   3.74810
 Alpha virt. eigenvalues --    3.77267   3.78980   3.79636   3.81724   3.82537
 Alpha virt. eigenvalues --    3.83280   3.84248   3.88613   3.89134   3.91063
 Alpha virt. eigenvalues --    3.91935   3.93296   3.97206   3.98838   4.01822
 Alpha virt. eigenvalues --    4.03009   4.04619   4.06912   4.09840   4.10465
 Alpha virt. eigenvalues --    4.11230   4.14112   4.15726   4.17043   4.17737
 Alpha virt. eigenvalues --    4.18818   4.20624   4.22155   4.24329   4.25870
 Alpha virt. eigenvalues --    4.26707   4.28426   4.29541   4.30168   4.31511
 Alpha virt. eigenvalues --    4.33926   4.34605   4.36853   4.37963   4.40210
 Alpha virt. eigenvalues --    4.40566   4.41938   4.42796   4.45512   4.49632
 Alpha virt. eigenvalues --    4.52179   4.54280   4.55584   4.67701   4.84458
 Alpha virt. eigenvalues --    4.96872   5.02128   5.04965   5.06361   5.12528
 Alpha virt. eigenvalues --    5.13816   5.14412   5.16106   5.18054   5.20021
 Alpha virt. eigenvalues --    5.22028   5.24417   5.27662   5.44758   5.51878
 Alpha virt. eigenvalues --    5.67726   5.70412   5.85790  24.01083  24.05314
 Alpha virt. eigenvalues --   24.14563  24.16206  24.19337  24.22108  35.59296
          Condensed to atoms (all electrons):
               1          2          3          4          5          6
     1  C    5.247922   0.453825   0.457722   0.118923  -0.024953  -0.044024
     2  H    0.453825   0.532761  -0.028509  -0.035702   0.003340   0.001514
     3  H    0.457722  -0.028509   0.531117  -0.042816   0.001557  -0.010378
     4  C    0.118923  -0.035702  -0.042816   5.354446   0.462894   0.424242
     5  H   -0.024953   0.003340   0.001557   0.462894   0.528175  -0.027746
     6  H   -0.044024   0.001514  -0.010378   0.424242  -0.027746   0.519752
     7  N   -0.068559   0.005037   0.002266  -0.011045  -0.064077  -0.006170
     8  C   -0.060909  -0.007354  -0.000094  -0.044357  -0.010559  -0.000576
     9  H    0.002752  -0.000059  -0.000037   0.010468  -0.000201  -0.000199
    10  H    0.003599   0.000080   0.000317  -0.010597   0.001218   0.002478
    11  H   -0.014396   0.004926   0.000148   0.007055  -0.000640  -0.000625
    12  C   -0.045072   0.002621   0.000534  -0.135221   0.010040  -0.003941
    13  H    0.000840   0.000060  -0.000040   0.011646  -0.000609   0.001801
    14  H    0.003583  -0.000041   0.000009   0.007910  -0.000088  -0.000140
    15  H   -0.004069  -0.000019   0.000005  -0.015984   0.002750  -0.000635
    16  C    0.019897  -0.003134  -0.000386   0.082076  -0.006940  -0.003662
    17  H   -0.036884   0.000456  -0.000164   0.022049  -0.005330  -0.000190
    18  H    0.031661  -0.004307   0.000469  -0.058334  -0.000509  -0.000136
    19  C    0.184018  -0.035509  -0.018988  -0.038893  -0.005109   0.014821
    20  H   -0.006018  -0.005786   0.004594  -0.012291  -0.001744  -0.000157
    21  H   -0.049128  -0.005036  -0.003846   0.039827  -0.000232  -0.000204
    22  H   -0.021885   0.005212  -0.007295  -0.035759   0.003780   0.000241
               7          8          9         10         11         12
     1  C   -0.068559  -0.060909   0.002752   0.003599  -0.014396  -0.045072
     2  H    0.005037  -0.007354  -0.000059   0.000080   0.004926   0.002621
     3  H    0.002266  -0.000094  -0.000037   0.000317   0.000148   0.000534
     4  C   -0.011045  -0.044357   0.010468  -0.010597   0.007055  -0.135221
     5  H   -0.064077  -0.010559  -0.000201   0.001218  -0.000640   0.010040
     6  H   -0.006170  -0.000576  -0.000199   0.002478  -0.000625  -0.003941
     7  N    6.985168   0.257447  -0.037680  -0.024184  -0.032886   0.303896
     8  C    0.257447   4.954896   0.428772   0.416541   0.431612  -0.011931
     9  H   -0.037680   0.428772   0.485754  -0.023576  -0.016913  -0.013974
    10  H   -0.024184   0.416541  -0.023576   0.540077  -0.028648  -0.013184
    11  H   -0.032886   0.431612  -0.016913  -0.028648   0.523904   0.009880
    12  C    0.303896  -0.011931  -0.013974  -0.013184   0.009880   4.963970
    13  H   -0.026102  -0.019683  -0.000651   0.005968  -0.000299   0.396743
    14  H   -0.035925  -0.002293   0.003660  -0.000951  -0.000041   0.426628
    15  H   -0.025910   0.005720  -0.000001   0.000011  -0.000330   0.441260
    16  C   -0.019366  -0.189953   0.003184   0.011759  -0.021084  -0.227914
    17  H    0.015993   0.020461   0.000548  -0.000571   0.000474  -0.016972
    18  H    0.010669  -0.009592  -0.001953  -0.000090   0.003793   0.024784
    19  C    0.017266   0.010515  -0.000788   0.000023   0.000604   0.004607
    20  H    0.002817   0.000526  -0.000005  -0.000006   0.000094  -0.001372
    21  H   -0.001864  -0.000144  -0.000002  -0.000001   0.000033   0.000168
    22  H    0.000643  -0.000486   0.000002   0.000008  -0.000024  -0.000281
              13         14         15         16         17         18
     1  C    0.000840   0.003583  -0.004069   0.019897  -0.036884   0.031661
     2  H    0.000060  -0.000041  -0.000019  -0.003134   0.000456  -0.004307
     3  H   -0.000040   0.000009   0.000005  -0.000386  -0.000164   0.000469
     4  C    0.011646   0.007910  -0.015984   0.082076   0.022049  -0.058334
     5  H   -0.000609  -0.000088   0.002750  -0.006940  -0.005330  -0.000509
     6  H    0.001801  -0.000140  -0.000635  -0.003662  -0.000190  -0.000136
     7  N   -0.026102  -0.035925  -0.025910  -0.019366   0.015993   0.010669
     8  C   -0.019683  -0.002293   0.005720  -0.189953   0.020461  -0.009592
     9  H   -0.000651   0.003660  -0.000001   0.003184   0.000548  -0.001953
    10  H    0.005968  -0.000951   0.000011   0.011759  -0.000571  -0.000090
    11  H   -0.000299  -0.000041  -0.000330  -0.021084   0.000474   0.003793
    12  C    0.396743   0.426628   0.441260  -0.227914  -0.016972   0.024784
    13  H    0.554779  -0.024861  -0.030507   0.019678  -0.000468  -0.000543
    14  H   -0.024861   0.490375  -0.014684  -0.009440  -0.000733   0.000539
    15  H   -0.030507  -0.014684   0.513890  -0.015914   0.001226   0.000508
    16  C    0.019678  -0.009440  -0.015914   6.241189   0.386050   0.371293
    17  H   -0.000468  -0.000733   0.001226   0.386050   0.579299  -0.046157
    18  H   -0.000543   0.000539   0.000508   0.371293  -0.046157   0.602461
    19  C   -0.000547  -0.000405   0.000428  -0.007348   0.000230   0.002518
    20  H   -0.000008  -0.000002  -0.000023  -0.002795  -0.000040  -0.000332
    21  H    0.000002  -0.000001  -0.000003   0.000372   0.000063  -0.000128
    22  H    0.000007   0.000001   0.000024   0.000299   0.000104  -0.000047
              19         20         21         22
     1  C    0.184018  -0.006018  -0.049128  -0.021885
     2  H   -0.035509  -0.005786  -0.005036   0.005212
     3  H   -0.018988   0.004594  -0.003846  -0.007295
     4  C   -0.038893  -0.012291   0.039827  -0.035759
     5  H   -0.005109  -0.001744  -0.000232   0.003780
     6  H    0.014821  -0.000157  -0.000204   0.000241
     7  N    0.017266   0.002817  -0.001864   0.000643
     8  C    0.010515   0.000526  -0.000144  -0.000486
     9  H   -0.000788  -0.000005  -0.000002   0.000002
    10  H    0.000023  -0.000006  -0.000001   0.000008
    11  H    0.000604   0.000094   0.000033  -0.000024
    12  C    0.004607  -0.001372   0.000168  -0.000281
    13  H   -0.000547  -0.000008   0.000002   0.000007
    14  H   -0.000405  -0.000002  -0.000001   0.000001
    15  H    0.000428  -0.000023  -0.000003   0.000024
    16  C   -0.007348  -0.002795   0.000372   0.000299
    17  H    0.000230  -0.000040   0.000063   0.000104
    18  H    0.002518  -0.000332  -0.000128  -0.000047
    19  C    5.008420   0.419088   0.409531   0.445299
    20  H    0.419088   0.525765  -0.018648  -0.030461
    21  H    0.409531  -0.018648   0.544421  -0.023257
    22  H    0.445299  -0.030461  -0.023257   0.558766
 Mulliken charges:
               1
     1  C   -0.148845
     2  H    0.115625
     3  H    0.113815
     4  C   -0.100537
     5  H    0.134984
     6  H    0.133933
     7  N   -0.247435
     8  C   -0.168557
     9  H    0.160901
    10  H    0.119729
    11  H    0.133361
    12  C   -0.115267
    13  H    0.112794
    14  H    0.156900
    15  H    0.142257
    16  C   -0.627859
    17  H    0.080556
    18  H    0.073434
    19  C   -0.409780
    20  H    0.126803
    21  H    0.108079
    22  H    0.105109
 Sum of Mulliken charges =  -0.00000
 Mulliken charges with hydrogens summed into heavy atoms:
               1
     1  C    0.080595
     4  C    0.168380
     7  N   -0.247435
     8  C    0.245434
    12  C    0.296684
    16  C   -0.473869
    19  C   -0.069789
 Electronic spatial extent (au):  <R**2>=            947.3694
 Charge=              0.0000 electrons
 Dipole moment (field-independent basis, Debye):
    X=             -0.6530    Y=              3.2119    Z=             -3.8829  Tot=              5.0812
 Quadrupole moment (field-independent basis, Debye-Ang):
   XX=            -46.8462   YY=            -49.7876   ZZ=            -52.4378
   XY=              3.5528   XZ=             -5.1739   YZ=              5.9549
 Traceless Quadrupole moment (field-independent basis, Debye-Ang):
   XX=              2.8443   YY=             -0.0971   ZZ=             -2.7473
   XY=              3.5528   XZ=             -5.1739   YZ=              5.9549
 Octapole moment (field-independent basis, Debye-Ang**2):
  XXX=              3.4257  YYY=             11.1750  ZZZ=            -18.2447  XYY=             -3.3358
  XXY=              8.1439  XXZ=             -8.6146  XZZ=             -8.2414  YZZ=             11.0946
  YYZ=             -9.3327  XYZ=              7.9031
 Hexadecapole moment (field-independent basis, Debye-Ang**3):
 XXXX=           -794.2176 YYYY=           -280.0557 ZZZZ=           -275.8804 XXXY=              5.0648
 XXXZ=            -17.7178 YYYX=             13.9451 YYYZ=             19.2454 ZZZX=            -25.0072
 ZZZY=             24.3622 XXYY=           -187.0255 XXZZ=           -184.9667 YYZZ=            -92.8897
 XXYZ=             16.1586 YYXZ=            -13.0680 ZZXY=             15.2139
 N-N= 3.462549427764D+02 E-N=-1.369020238368D+03  KE= 2.909450949825D+02
 1\1\GINC-CCLEARNI\FOpt\RwB97XD\6-311+G(2d,2p)\C6H15N1\TROUPPER\01-Oct-
 2026\0\\# opt freq wb97xd/6-311+g(2d,2p) scf=xqc\\opt freq\\0,1\C,0.60
 60551591,-0.7249607494,0.3137178314\H,0.2309512238,-0.3802811247,1.277
 3219409\H,1.3255212582,-1.5151768745,0.5345244498\C,-0.5314571838,-1.3
 365764418,-0.5039019127\H,-0.4159544679,-1.075266945,-1.5549927241\H,-
 0.5193151447,-2.4265256873,-0.4292392784\N,-1.9225451463,-0.8728338031
 ,-0.1274439475\C,-2.2905488905,-1.425104744,1.1968628059\H,-3.30517393
 29,-1.1055920087,1.4100909558\H,-2.2077623703,-2.5124240786,1.18570456
 74\H,-1.6310728005,-1.0111567536,1.9531495097\C,-2.8548328136,-1.44104
 23182,-1.1299743829\H,-2.7379393742,-2.5246775331,-1.1828137117\H,-3.8
 622066966,-1.162703259,-0.8394823343\H,-2.6320428883,-0.9942263363,-2.
 095135861\C,-2.1693242294,0.6294027943,-0.0901642176\H,-1.8015314381,0
 .9904929132,-1.0596138145\H,-1.4858215793,1.0124461224,0.6763247339\C,
 1.3175144451,0.425911592,-0.3906138309\H,0.6199029222,1.2344367545,-0.
 6018358731\H,2.1253589794,0.8191597954,0.2267468064\H,1.7518758185,0.0
 936820556,-1.3354995623\\Version=EM64M-G16RevA.03\State=1-A\HF=-292.31
 33771\RMSD=2.831e-09\RMSF=7.850e-06\Dipole=0.8510052,-1.8063821,-0.096
 0641\Quadrupole=-1.2973161,-2.1410428,3.438359,5.9914901,0.7917007,-0.
 3602919\PG=C01 [X(C6H15N1)]\\@


 IT TAKES GREATER CHARACTER TO CARRY OFF GOOD FORTUNE THAN BAD.
                     FRENCH PROVERB.
 Job cpu time:       0 days  7 hours  6 minutes 15.3 seconds.
 Elapsed time:       0 days  0 hours 19 minutes 36.6 seconds.
 File lengths (MBytes):  RWF=     68 Int=      0 D2E=      0 Chk=      9 Scr=      1
 Normal termination of Gaussian 16 at Thu Oct  1 08:53:26 2026.
 Link1:  Proceeding to internal job step number  2.
 ----------------------------------------------------------------------
 #N Geom=AllCheck Guess=TCheck SCRF=Check GenChk RwB97XD/6-311+G(2d,2p)
  Freq
 ----------------------------------------------------------------------
 1/10=4,29=7,30=1,38=1,40=1/1,3;
 2/12=2,40=1/2;
 3/5=4,6=6,7=212,11=2,14=-4,25=1,30=1,70=2,71=2,74=-58,116=1,140=1/1,2,3;
 4/5=101/1;
 5/5=2,8=3,13=1,38=6,98=1/2,8;
 8/6=4,10=90,11=11/1;
 11/6=1,8=1,9=11,15=111,16=1/1,2,10;
 10/6=1/2;
 6/7=2,8=2,9=2,10=2,28=1/1;
 7/8=1,10=1,25=1/1,2,3,16;
 1/10=4,30=1/3;
 99//99;
 Structure from the checkpoint file:  "aminopropyl_ylide.chk"
 --------
 opt freq
 --------
 Charge =  0 Multiplicity = 1
 Redundant internal coordinates found in file.  (old form).
 C,0,0.6060551591,-0.7249607494,0.3137178314
 H,0,0.2309512238,-0.3802811247,1.2773219409
 H,0,1.3255212582,-1.5151768745,0.5345244498
 C,0,-0.5314571838,-1.3365764418,-0.5039019127
 H,0,-0.4159544679,-1.075266945,-1.5549927241
 H,0,-0.5193151447,-2.4265256873,-0.4292392784
 N,0,-1.9225451463,-0.8728338031,-0.1274439475
 C,0,-2.2905488905,-1.425104744,1.1968628059
 H,0,-3.3051739329,-1.1055920087,1.4100909558
 H,0,-2.2077623703,-2.5124240786,1.1857045674
 H,0,-1.6310728005,-1.0111567536,1.9531495097
 C,0,-2.8548328136,-1.4410423182,-1.1299743829
 H,0,-2.7379393742,-2.5246775331,-1.1828137117
 H,0,-3.8622066966,-1.162703259,-0.8394823343
 H,0,-2.6320428883,-0.9942263363,-2.095135861
 C,0,-2.1693242294,0.6294027943,-0.0901642176
 H,0,-1.8015314381,0.9904929132,-1.0596138145
 H,0,-1.4858215793,1.0124461224,0.6763247339
 C,0,1.3175144451,0.425911592,-0.3906138309
 H,0,0.6199029222,1.2344367545,-0.6018358731
 H,0,2.1253589794,0.8191597954,0.2267468064
 H,0,1.7518758185,0.0936820556,-1.3354995623
 Recover connectivity data from disk.

 GradGradGradGradGradGradGradGradGradGradGradGradGradGradGradGradGradGrad
 Berny optimization.
 Initialization pass.
                           ----------------------------
                           !    Initial Parameters    !
                           ! (Angstroms and Degrees)  !
 --------------------------                            --------------------------
 ! Name  Definition              Value          Derivative Info.                !
 --------------------------------------------------------------------------------
 ! R1    R(1,2)                  1.09           calculate D2E/DX2 analytically  !
 ! R2    R(1,3)                  1.0913         calculate D2E/DX2 analytically  !
 ! R3    R(1,4)                  1.5286         calculate D2E/DX2 analytically  !
 ! R4    R(1,19)                 1.5254         calculate D2E/DX2 analytically  !
 ! R5    R(4,5)                  1.0892         calculate D2E/DX2 analytically  !
 ! R6    R(4,6)                  1.0926         calculate D2E/DX2 analytically  !
 ! R7    R(4,7)                  1.5139         calculate D2E/DX2 analytically  !
 ! R8    R(7,8)                  1.4813         calculate D2E/DX2 analytically  !
 ! R9    R(7,12)                 1.4823         calculate D2E/DX2 analytically  !
 ! R10   R(7,16)                 1.5228         calculate D2E/DX2 analytically  !
 ! R11   R(8,9)                  1.0849         calculate D2E/DX2 analytically  !
 ! R12   R(8,10)                 1.0905         calculate D2E/DX2 analytically  !
 ! R13   R(8,11)                 1.0855         calculate D2E/DX2 analytically  !
 ! R14   R(12,13)                1.0912         calculate D2E/DX2 analytically  !
 ! R15   R(12,14)                1.0847         calculate D2E/DX2 analytically  !
 ! R16   R(12,15)                1.0867         calculate D2E/DX2 analytically  !
 ! R17   R(16,17)                1.0979         calculate D2E/DX2 analytically  !
 ! R18   R(16,18)                1.0961         calculate D2E/DX2 analytically  !
 ! R19   R(19,20)                1.0886         calculate D2E/DX2 analytically  !
 ! R20   R(19,21)                1.0901         calculate D2E/DX2 analytically  !
 ! R21   R(19,22)                1.0917         calculate D2E/DX2 analytically  !
 ! A1    A(2,1,3)              106.0814         calculate D2E/DX2 analytically  !
 ! A2    A(2,1,4)              110.0787         calculate D2E/DX2 analytically  !
 ! A3    A(2,1,19)             109.2769         calculate D2E/DX2 analytically  !
 ! A4    A(3,1,4)              108.0063         calculate D2E/DX2 analytically  !
 ! A5    A(3,1,19)             109.4067         calculate D2E/DX2 analytically  !
 ! A6    A(4,1,19)             113.7031         calculate D2E/DX2 analytically  !
 ! A7    A(1,4,5)              109.9538         calculate D2E/DX2 analytically  !
 ! A8    A(1,4,6)              110.7531         calculate D2E/DX2 analytically  !
 ! A9    A(1,4,7)              115.3548         calculate D2E/DX2 analytically  !
 ! A10   A(5,4,6)              107.7036         calculate D2E/DX2 analytically  !
 ! A11   A(5,4,7)              105.3023         calculate D2E/DX2 analytically  !
 ! A12   A(6,4,7)              107.3859         calculate D2E/DX2 analytically  !
 ! A13   A(4,7,8)              109.657          calculate D2E/DX2 analytically  !
 ! A14   A(4,7,12)             106.9973         calculate D2E/DX2 analytically  !
 ! A15   A(4,7,16)             117.2049         calculate D2E/DX2 analytically  !
 ! A16   A(8,7,12)             107.7881         calculate D2E/DX2 analytically  !
 ! A17   A(8,7,16)             107.7969         calculate D2E/DX2 analytically  !
 ! A18   A(12,7,16)            107.025          calculate D2E/DX2 analytically  !
 ! A19   A(7,8,9)              107.3526         calculate D2E/DX2 analytically  !
 ! A20   A(7,8,10)             110.1042         calculate D2E/DX2 analytically  !
 ! A21   A(7,8,11)             109.2556         calculate D2E/DX2 analytically  !
 ! A22   A(9,8,10)             111.5092         calculate D2E/DX2 analytically  !
 ! A23   A(9,8,11)             108.5991         calculate D2E/DX2 analytically  !
 ! A24   A(10,8,11)            109.9526         calculate D2E/DX2 analytically  !
 ! A25   A(7,12,13)            110.2463         calculate D2E/DX2 analytically  !
 ! A26   A(7,12,14)            107.735          calculate D2E/DX2 analytically  !
 ! A27   A(7,12,15)            108.31           calculate D2E/DX2 analytically  !
 ! A28   A(13,12,14)           111.5472         calculate D2E/DX2 analytically  !
 ! A29   A(13,12,15)           110.0818         calculate D2E/DX2 analytically  !
 ! A30   A(14,12,15)           108.8294         calculate D2E/DX2 analytically  !
 ! A31   A(7,16,17)            104.3905         calculate D2E/DX2 analytically  !
 ! A32   A(7,16,18)            105.1178         calculate D2E/DX2 analytically  !
 ! A33   A(17,16,18)           107.0756         calculate D2E/DX2 analytically  !
 ! A34   A(1,19,20)            110.5533         calculate D2E/DX2 analytically  !
 ! A35   A(1,19,21)            110.874          calculate D2E/DX2 analytically  !
 ! A36   A(1,19,22)            110.8308         calculate D2E/DX2 analytically  !
 ! A37   A(20,19,21)           108.473          calculate D2E/DX2 analytically  !
 ! A38   A(20,19,22)           108.244          calculate D2E/DX2 analytically  !
 ! A39   A(21,19,22)           107.7632         calculate D2E/DX2 analytically  !
 ! D1    D(2,1,4,5)            142.0943         calculate D2E/DX2 analytically  !
 ! D2    D(2,1,4,6)            -98.9892         calculate D2E/DX2 analytically  !
 ! D3    D(2,1,4,7)             23.2301         calculate D2E/DX2 analytically  !
 ! D4    D(3,1,4,5)           -102.5062         calculate D2E/DX2 analytically  !
 ! D5    D(3,1,4,6)             16.4103         calculate D2E/DX2 analytically  !
 ! D6    D(3,1,4,7)            138.6296         calculate D2E/DX2 analytically  !
 ! D7    D(19,1,4,5)            19.1133         calculate D2E/DX2 analytically  !
 ! D8    D(19,1,4,6)           138.0298         calculate D2E/DX2 analytically  !
 ! D9    D(19,1,4,7)           -99.7509         calculate D2E/DX2 analytically  !
 ! D10   D(2,1,19,20)          -63.1075         calculate D2E/DX2 analytically  !
 ! D11   D(2,1,19,21)           57.2338         calculate D2E/DX2 analytically  !
 ! D12   D(2,1,19,22)          176.8668         calculate D2E/DX2 analytically  !
 ! D13   D(3,1,19,20)         -178.851          calculate D2E/DX2 analytically  !
 ! D14   D(3,1,19,21)          -58.5097         calculate D2E/DX2 analytically  !
 ! D15   D(3,1,19,22)           61.1233         calculate D2E/DX2 analytically  !
 ! D16   D(4,1,19,20)           60.3116         calculate D2E/DX2 analytically  !
 ! D17   D(4,1,19,21)         -179.3471         calculate D2E/DX2 analytically  !
 ! D18   D(4,1,19,22)          -59.7141         calculate D2E/DX2 analytically  !
 ! D19   D(1,4,7,8)            -70.205          calculate D2E/DX2 analytically  !
 ! D20   D(1,4,7,12)           173.1532         calculate D2E/DX2 analytically  !
 ! D21   D(1,4,7,16)            53.0622         calculate D2E/DX2 analytically  !
 ! D22   D(5,4,7,8)            168.3839         calculate D2E/DX2 analytically  !
 ! D23   D(5,4,7,12)            51.7421         calculate D2E/DX2 analytically  !
 ! D24   D(5,4,7,16)           -68.3489         calculate D2E/DX2 analytically  !
 ! D25   D(6,4,7,8)             53.7994         calculate D2E/DX2 analytically  !
 ! D26   D(6,4,7,12)           -62.8424         calculate D2E/DX2 analytically  !
 ! D27   D(6,4,7,16)           177.0666         calculate D2E/DX2 analytically  !
 ! D28   D(4,7,8,9)           -177.6541         calculate D2E/DX2 analytically  !
 ! D29   D(4,7,8,10)           -56.0914         calculate D2E/DX2 analytically  !
 ! D30   D(4,7,8,11)            64.7579         calculate D2E/DX2 analytically  !
 ! D31   D(12,7,8,9)           -61.5115         calculate D2E/DX2 analytically  !
 ! D32   D(12,7,8,10)           60.0512         calculate D2E/DX2 analytically  !
 ! D33   D(12,7,8,11)         -179.0995         calculate D2E/DX2 analytically  !
 ! D34   D(16,7,8,9)            53.6982         calculate D2E/DX2 analytically  !
 ! D35   D(16,7,8,10)          175.261          calculate D2E/DX2 analytically  !
 ! D36   D(16,7,8,11)          -63.8898         calculate D2E/DX2 analytically  !
 ! D37   D(4,7,12,13)           54.9061         calculate D2E/DX2 analytically  !
 ! D38   D(4,7,12,14)          176.8405         calculate D2E/DX2 analytically  !
 ! D39   D(4,7,12,15)          -65.5944         calculate D2E/DX2 analytically  !
 ! D40   D(8,7,12,13)          -62.9652         calculate D2E/DX2 analytically  !
 ! D41   D(8,7,12,14)           58.9692         calculate D2E/DX2 analytically  !
 ! D42   D(8,7,12,15)          176.5343         calculate D2E/DX2 analytically  !
 ! D43   D(16,7,12,13)        -178.6833         calculate D2E/DX2 analytically  !
 ! D44   D(16,7,12,14)         -56.7489         calculate D2E/DX2 analytically  !
 ! D45   D(16,7,12,15)          60.8162         calculate D2E/DX2 analytically  !
 ! D46   D(4,7,16,17)           51.1617         calculate D2E/DX2 analytically  !
 ! D47   D(4,7,16,18)          -61.3783         calculate D2E/DX2 analytically  !
 ! D48   D(8,7,16,17)          175.3731         calculate D2E/DX2 analytically  !
 ! D49   D(8,7,16,18)           62.8331         calculate D2E/DX2 analytically  !
 ! D50   D(12,7,16,17)         -68.9147         calculate D2E/DX2 analytically  !
 ! D51   D(12,7,16,18)         178.5453         calculate D2E/DX2 analytically  !
 --------------------------------------------------------------------------------
 Trust Radius=3.00D-01 FncErr=1.00D-07 GrdErr=1.00D-07 EigMax=2.50D+02 EigMin=1.00D-04
 Number of steps in this run=      2 maximum allowed number of steps=      2.
 GradGradGradGradGradGradGradGradGradGradGradGradGradGradGradGradGradGrad

                          Input orientation:                          
 ---------------------------------------------------------------------
 Center     Atomic      Atomic             Coordinates (Angstroms)
 Number     Number       Type             X           Y           Z
 ---------------------------------------------------------------------
      1          6           0        0.606055   -0.724961    0.313718
      2          1           0        0.230951   -0.380281    1.277322
      3          1           0        1.325521   -1.515177    0.534524
      4          6           0       -0.531457   -1.336576   -0.503902
      5          1           0       -0.415954   -1.075267   -1.554993
      6          1           0       -0.519315   -2.426526   -0.429239
      7          7           0       -1.922545   -0.872834   -0.127444
      8          6           0       -2.290549   -1.425105    1.196863
      9          1           0       -3.305174   -1.105592    1.410091
     10          1           0       -2.207762   -2.512424    1.185705
     11          1           0       -1.631073   -1.011157    1.953150
     12          6           0       -2.854833   -1.441042   -1.129974
     13          1           0       -2.737939   -2.524678   -1.182814
     14          1           0       -3.862207   -1.162703   -0.839482
     15          1           0       -2.632043   -0.994226   -2.095136
     16          6           0       -2.169324    0.629403   -0.090164
     17          1           0       -1.801531    0.990493   -1.059614
     18          1           0       -1.485822    1.012446    0.676325
     19          6           0        1.317514    0.425912   -0.390614
     20          1           0        0.619903    1.234437   -0.601836
     21          1           0        2.125359    0.819160    0.226747
     22          1           0        1.751876    0.093682   -1.335500
 ---------------------------------------------------------------------
                    Distance matrix (angstroms):
                    1          2          3          4          5
     1  C    0.000000
     2  H    1.089972   0.000000
     3  H    1.091251   1.742934   0.000000
     4  C    1.528565   2.160677   2.135087   0.000000
     5  H    2.158541   2.987223   2.755420   1.089227   0.000000
     6  H    2.171121   2.768098   2.272184   1.092571   1.761790
     7  N    2.571052   2.617923   3.376499   1.513903   2.085351
     8  C    3.108128   2.730585   3.677332   2.448437   3.348014
     9  H    4.079783   3.612186   4.730509   3.377903   4.140076
    10  H    3.445715   3.240641   3.728623   2.654691   3.575950
    11  H    2.788259   2.078913   3.317828   2.711486   3.713177
    12  C    3.817691   4.054917   4.500157   2.408517   2.502511
    13  H    4.081775   4.411917   4.525489   2.596357   2.762412
    14  H    4.635391   4.674076   5.378165   3.352124   3.520832
    15  H    4.044794   4.466222   4.780044   2.657384   2.282404
    16  C    3.114507   2.941225   4.147699   2.592077   2.850601
    17  H    3.259646   3.386927   4.312553   2.708719   2.536255
    18  H    2.743358   2.290894   3.783204   2.796722   3.237582
    19  C    1.525374   2.147691   2.150295   2.556931   2.571814
    20  H    2.162792   2.507954   3.057709   2.818746   2.704855
    21  H    2.167984   2.476115   2.486684   3.498531   3.636169
    22  H    2.168640   3.060178   2.503437   2.819717   2.472672
                    6          7          8          9         10
     6  H    0.000000
     7  N    2.115205   0.000000
     8  C    2.604673   1.481289   0.000000
     9  H    3.590127   2.080830   1.084905   0.000000
    10  H    2.338007   2.119897   1.090523   1.798287   0.000000
    11  H    2.985808   2.105459   1.085464   1.762511   1.781950
    12  C    2.629990   1.482258   2.394335   2.601397   2.632286
    13  H    2.345166   2.123031   2.659338   3.009770   2.427162
    14  H    3.597287   2.086459   2.585665   2.318216   2.942841
    15  H    3.048001   2.095217   3.337593   3.571011   3.639897
    16  C    3.489441   1.522828   2.427372   2.559517   3.391223
    17  H    3.703710   2.087001   3.341547   3.571268   4.180539
    18  H    3.739376   2.095484   2.619198   2.886961   3.633920
    19  C    3.392909   3.500569   4.354821   5.192041   4.852440
    20  H    3.838001   3.336117   4.333498   4.992976   5.022943
    21  H    4.237817   4.401570   5.047583   5.881808   5.549324
    22  H    3.511561   3.986843   5.006073   5.877948   5.369078
                   11         12         13         14         15
    11  H    0.000000
    12  C    3.344853   0.000000
    13  H    3.653788   1.091202   0.000000
    14  H    3.577669   1.084740   1.799118   0.000000
    15  H    4.170233   1.086654   1.784888   1.765886   0.000000
    16  C    2.675123   2.416168   3.386064   2.576620   2.621105
    17  H    3.621105   2.650803   3.639844   2.988494   2.387711
    18  H    2.397154   3.340137   4.187534   3.560358   3.608539
    19  C    4.031446   4.630405   5.077427   5.436423   4.530032
    20  H    4.078913   4.417115   5.073813   5.088424   4.215689
    21  H    4.521206   5.634848   6.067930   6.396528   5.595747
    22  H    4.845640   4.859978   5.199765   5.774293   4.580320
                   16         17         18         19         20
    16  C    0.000000
    17  H    1.097948   0.000000
    18  H    1.096085   1.764550   0.000000
    19  C    3.505670   3.239562   3.056317   0.000000
    20  H    2.899597   2.476371   2.473267   1.088572   0.000000
    21  H    4.310539   4.135764   3.644188   1.090134   1.767881
    22  H    4.148936   3.675199   3.921001   1.091721   1.766620
                   21         22
    21  H    0.000000
    22  H    1.762504   0.000000
 Stoichiometry    C6H15N
 Framework group  C1[X(C6H15N)]
 Deg. of freedom    60
 Full point group                 C1      NOp   1
 Largest Abelian subgroup         C1      NOp   1
 Largest concise Abelian subgroup C1      NOp   1
                         Standard orientation:                         
 ---------------------------------------------------------------------
 Center     Atomic      Atomic             Coordinates (Angstroms)
 Number     Number       Type             X           Y           Z
 ---------------------------------------------------------------------
      1          6           0       -1.607193    0.691032   -0.123124
      2          1           0       -1.353035    1.104141    0.852983
      3          1           0       -2.049332    1.510399   -0.692315
      4          6           0       -0.339290    0.241625   -0.849049
      5          1           0       -0.532240   -0.678473   -1.399145
      6          1           0       -0.016701    0.997631   -1.568841
      7          7           0        0.843866   -0.067156    0.043532
      8          6           0        1.367082    1.188643    0.629563
      9          1           0        2.235613    0.930087    1.226071
     10          1           0        1.621378    1.894264   -0.162064
     11          1           0        0.614614    1.619752    1.282379
     12          6           0        1.902597   -0.638257   -0.822506
     13          1           0        2.123182    0.041309   -1.647281
     14          1           0        2.777057   -0.811825   -0.204562
     15          1           0        1.550925   -1.591346   -1.208206
     16          6           0        0.618625   -1.053473    1.181710
     17          1           0        0.155177   -1.924593    0.700196
     18          1           0       -0.147216   -0.590017    1.814245
     19          6           0       -2.639010   -0.418546    0.052815
     20          1           0       -2.223257   -1.238007    0.636444
     21          1           0       -3.526757   -0.045924    0.564136
     22          1           0       -2.953337   -0.813451   -0.915226
 ---------------------------------------------------------------------
 Rotational constants (GHZ):           4.1303620           1.6376400           1.5911047
 Standard basis: 6-311+G(2d,2p) (5D, 7F)
 There are   338 symmetry adapted cartesian basis functions of A   symmetry.
 There are   324 symmetry adapted basis functions of A   symmetry.
   324 basis functions,   459 primitive gaussians,   338 cartesian basis functions
    29 alpha electrons       29 beta electrons
       nuclear repulsion energy       346.2709675181 Hartrees.
 NAtoms=   22 NActive=   22 NUniq=   22 SFac= 1.00D+00 NAtFMM=   60 NAOKFM=F Big=F
 Integral buffers will be    131072 words long.
 Raffenetti 2 integral format.
 Two-electron integral symmetry is turned on.
 Nuclear repulsion after empirical dispersion term =      346.2549427764 Hartrees.
 One-electron integrals computed using PRISM.
 NBasis=   324 RedAO= T EigKep=  2.63D-05  NBF=   324
 NBsUse=   324 1.00D-06 EigRej= -1.00D+00 NBFU=   324
 Initial guess from the checkpoint file:  "aminopropyl_ylide.chk"
 B after Tr=     0.000000   -0.000000   -0.000000
         Rot=    1.000000    0.000000    0.000000    0.000000 Ang=   0.00 deg.
 Requested convergence on RMS density matrix=1.00D-08 within  32 cycles.
 Requested convergence on MAX density matrix=1.00D-06.
 Requested convergence on             energy=1.00D-06.
 No special actions if energy rises.
 SCF Done:  E(RwB97XD) =  -292.313377130     A.U. after    1 cycles
            NFock=  1  Conv=0.94D-09     -V/T= 2.0047
 QCSCF skips out because SCF is already converged.
 DoSCS=F DFT=T ScalE2(SS,OS)=  1.000000  1.000000
 Range of M.O.s used for correlation:     1   324
 NBasis=   324 NAE=    29 NBE=    29 NFC=     0 NFV=     0
 NROrb=    324 NOA=    29 NOB=    29 NVA=   295 NVB=   295

 **** Warning!!: The largest alpha MO coefficient is  0.46356016D+02

 Symmetrizing basis deriv contribution to polar:
 IMax=3 JMax=2 DiffMx= 0.00D+00
 G2DrvN: will do    23 centers at a time, making    1 passes.
 Calling FoFCou, ICntrl=  3107 FMM=F I1Cent=   0 AccDes= 0.00D+00.
 End of G2Drv F.D. properties file   721 does not exist.
 End of G2Drv F.D. properties file   722 does not exist.
 End of G2Drv F.D. properties file   788 does not exist.
          IDoAtm=1111111111111111111111
          Differentiating once with respect to electric field.
                with respect to dipole field.
          Differentiating once with respect to nuclear coordinates.
 Keep R1 ints in memory in canonical form, NReq=2797429429.
          There are    69 degrees of freedom in the 1st order CPHF.  IDoFFX=6 NUNeed=     3.
     66 vectors produced by pass  0 Test12= 1.24D-14 1.45D-09 XBig12= 3.56D+01 1.22D+00.
 AX will form    66 AO Fock derivatives at one time.
     66 vectors produced by pass  1 Test12= 1.24D-14 1.45D-09 XBig12= 2.58D+00 3.18D-01.
     66 vectors produced by pass  2 Test12= 1.24D-14 1.45D-09 XBig12= 5.81D-02 5.43D-02.
     66 vectors produced by pass  3 Test12= 1.24D-14 1.45D-09 XBig12= 7.19D-04 6.19D-03.
     66 vectors produced by pass  4 Test12= 1.24D-14 1.45D-09 XBig12= 4.36D-06 2.87D-04.
     66 vectors produced by pass  5 Test12= 1.24D-14 1.45D-09 XBig12= 2.46D-08 1.54D-05.
     57 vectors produced by pass  6 Test12= 1.24D-14 1.45D-09 XBig12= 1.23D-10 9.49D-07.
      9 vectors produced by pass  7 Test12= 1.24D-14 1.45D-09 XBig12= 5.68D-13 6.88D-08.
      3 vectors produced by pass  8 Test12= 1.24D-14 1.45D-09 XBig12= 3.00D-15 5.23D-09.
 InvSVY:  IOpt=1 It=  1 EMax= 5.33D-15
 Solved reduced A of dimension   465 with    69 vectors.
 Isotropic polarizability for W=    0.000000       89.23 Bohr**3.
 End of Minotr F.D. properties file   721 does not exist.
 End of Minotr F.D. properties file   722 does not exist.
 End of Minotr F.D. properties file   788 does not exist.

 **********************************************************************

            Population analysis using the SCF density.

 **********************************************************************

 Orbital symmetries:
       Occupied  (A) (A) (A) (A) (A) (A) (A) (A) (A) (A) (A) (A)
                 (A) (A) (A) (A) (A) (A) (A) (A) (A) (A) (A) (A)
                 (A) (A) (A) (A) (A)
       Virtual   (A) (A) (A) (A) (A) (A) (A) (A) (A) (A) (A) (A)
                 (A) (A) (A) (A) (A) (A) (A) (A) (A) (A) (A) (A)
                 (A) (A) (A) (A) (A) (A) (A) (A) (A) (A) (A) (A)
                 (A) (A) (A) (A) (A) (A) (A) (A) (A) (A) (A) (A)
                 (A) (A) (A) (A) (A) (A) (A) (A) (A) (A) (A) (A)
                 (A) (A) (A) (A) (A) (A) (A) (A) (A) (A) (A) (A)
                 (A) (A) (A) (A) (A) (A) (A) (A) (A) (A) (A) (A)
                 (A) (A) (A) (A) (A) (A) (A) (A) (A) (A) (A) (A)
                 (A) (A) (A) (A) (A) (A) (A) (A) (A) (A) (A) (A)
                 (A) (A) (A) (A) (A) (A) (A) (A) (A) (A) (A) (A)
                 (A) (A) (A) (A) (A) (A) (A) (A) (A) (A) (A) (A)
                 (A) (A) (A) (A) (A) (A) (A) (A) (A) (A) (A) (A)
                 (A) (A) (A) (A) (A) (A) (A) (A) (A) (A) (A) (A)
                 (A) (A) (A) (A) (A) (A) (A) (A) (A) (A) (A) (A)
                 (A) (A) (A) (A) (A) (A) (A) (A) (A) (A) (A) (A)
                 (A) (A) (A) (A) (A) (A) (A) (A) (A) (A) (A) (A)
                 (A) (A) (A) (A) (A) (A) (A) (A) (A) (A) (A) (A)
                 (A) (A) (A) (A) (A) (A) (A) (A) (A) (A) (A) (A)
                 (A) (A) (A) (A) (A) (A) (A) (A) (A) (A) (A) (A)
                 (A) (A) (A) (A) (A) (A) (A) (A) (A) (A) (A) (A)
                 (A) (A) (A) (A) (A) (A) (A) (A) (A) (A) (A) (A)
                 (A) (A) (A) (A) (A) (A) (A) (A) (A) (A) (A) (A)
                 (A) (A) (A) (A) (A) (A) (A) (A) (A) (A) (A) (A)
                 (A) (A) (A) (A) (A) (A) (A) (A) (A) (A) (A) (A)
                 (A) (A) (A) (A) (A) (A) (A)
 The electronic state is 1-A.
 Alpha  occ. eigenvalues --  -14.53134 -10.32931 -10.31965 -10.31877 -10.29198
 Alpha  occ. eigenvalues --  -10.27033 -10.21237  -1.09287  -0.89897  -0.83649
 Alpha  occ. eigenvalues --   -0.80872  -0.77988  -0.71513  -0.67076  -0.60599
 Alpha  occ. eigenvalues --   -0.58130  -0.56658  -0.54246  -0.52171  -0.51639
 Alpha  occ. eigenvalues --   -0.48760  -0.47925  -0.47563  -0.44832  -0.43642
 Alpha  occ. eigenvalues --   -0.42910  -0.42580  -0.40208  -0.21771
 Alpha virt. eigenvalues --    0.05176   0.06899   0.07279   0.07908   0.09435
 Alpha virt. eigenvalues --    0.09702   0.10340   0.10793   0.10943   0.12094
 Alpha virt. eigenvalues --    0.13383   0.13645   0.14223   0.14598   0.15713
 Alpha virt. eigenvalues --    0.16136   0.16483   0.17006   0.18181   0.19528
 Alpha virt. eigenvalues --    0.19835   0.20000   0.21333   0.22219   0.22462
 Alpha virt. eigenvalues --    0.23554   0.23958   0.24401   0.25094   0.26170
 Alpha virt. eigenvalues --    0.26515   0.27409   0.27961   0.28903   0.29840
 Alpha virt. eigenvalues --    0.30232   0.30878   0.31865   0.32022   0.33327
 Alpha virt. eigenvalues --    0.33502   0.34725   0.34931   0.35505   0.38251
 Alpha virt. eigenvalues --    0.39165   0.40228   0.43152   0.43765   0.45372
 Alpha virt. eigenvalues --    0.47564   0.47765   0.48869   0.50160   0.51108
 Alpha virt. eigenvalues --    0.53349   0.54841   0.56487   0.56626   0.57075
 Alpha virt. eigenvalues --    0.58303   0.59022   0.59254   0.59953   0.60861
 Alpha virt. eigenvalues --    0.62222   0.62531   0.63016   0.63602   0.64066
 Alpha virt. eigenvalues --    0.65429   0.66172   0.67460   0.68052   0.69332
 Alpha virt. eigenvalues --    0.69558   0.71103   0.73233   0.73823   0.75380
 Alpha virt. eigenvalues --    0.75878   0.76506   0.76916   0.77453   0.78187
 Alpha virt. eigenvalues --    0.78805   0.79972   0.83125   0.84465   0.85286
 Alpha virt. eigenvalues --    0.88215   0.89099   0.92457   0.94723   0.96919
 Alpha virt. eigenvalues --    0.97444   0.98324   0.99885   1.03827   1.03961
 Alpha virt. eigenvalues --    1.05515   1.06890   1.07380   1.08492   1.11726
 Alpha virt. eigenvalues --    1.14399   1.15200   1.15840   1.17359   1.18423
 Alpha virt. eigenvalues --    1.19400   1.20147   1.20503   1.22055   1.23570
 Alpha virt. eigenvalues --    1.23799   1.24731   1.26419   1.27168   1.28889
 Alpha virt. eigenvalues --    1.28951   1.31153   1.32915   1.33777   1.35305
 Alpha virt. eigenvalues --    1.35617   1.35953   1.37495   1.39041   1.39611
 Alpha virt. eigenvalues --    1.41718   1.42339   1.43396   1.44261   1.45998
 Alpha virt. eigenvalues --    1.46481   1.48039   1.48771   1.49552   1.51353
 Alpha virt. eigenvalues --    1.51536   1.52224   1.52440   1.53172   1.53844
 Alpha virt. eigenvalues --    1.56326   1.56895   1.58664   1.59884   1.62440
 Alpha virt. eigenvalues --    1.62979   1.63765   1.65579   1.65990   1.68256
 Alpha virt. eigenvalues --    1.68571   1.69202   1.71027   1.73137   1.73697
 Alpha virt. eigenvalues --    1.75802   1.77599   1.79011   1.80230   1.84074
 Alpha virt. eigenvalues --    1.87006   1.90742   1.92618   1.97593   2.05753
 Alpha virt. eigenvalues --    2.10136   2.10865   2.71576   2.75421   2.80944
 Alpha virt. eigenvalues --    2.82074   2.87640   2.88910   2.92877   2.94387
 Alpha virt. eigenvalues --    2.97051   3.00263   3.05331   3.11053   3.13764
 Alpha virt. eigenvalues --    3.17969   3.19146   3.22716   3.26282   3.27271
 Alpha virt. eigenvalues --    3.28395   3.28468   3.29997   3.33928   3.34589
 Alpha virt. eigenvalues --    3.38214   3.40665   3.41889   3.43229   3.44542
 Alpha virt. eigenvalues --    3.47673   3.49143   3.50552   3.52017   3.53060
 Alpha virt. eigenvalues --    3.55384   3.55801   3.57224   3.60003   3.62127
 Alpha virt. eigenvalues --    3.63932   3.64301   3.65857   3.66303   3.67694
 Alpha virt. eigenvalues --    3.69073   3.71014   3.71858   3.73073   3.74810
 Alpha virt. eigenvalues --    3.77267   3.78980   3.79636   3.81724   3.82537
 Alpha virt. eigenvalues --    3.83280   3.84248   3.88613   3.89134   3.91063
 Alpha virt. eigenvalues --    3.91935   3.93296   3.97206   3.98838   4.01822
 Alpha virt. eigenvalues --    4.03009   4.04619   4.06912   4.09840   4.10465
 Alpha virt. eigenvalues --    4.11230   4.14112   4.15726   4.17043   4.17737
 Alpha virt. eigenvalues --    4.18818   4.20624   4.22155   4.24329   4.25870
 Alpha virt. eigenvalues --    4.26707   4.28426   4.29541   4.30168   4.31511
 Alpha virt. eigenvalues --    4.33926   4.34605   4.36853   4.37963   4.40210
 Alpha virt. eigenvalues --    4.40566   4.41938   4.42796   4.45512   4.49632
 Alpha virt. eigenvalues --    4.52179   4.54280   4.55584   4.67701   4.84458
 Alpha virt. eigenvalues --    4.96872   5.02128   5.04965   5.06361   5.12528
 Alpha virt. eigenvalues --    5.13816   5.14412   5.16106   5.18054   5.20021
 Alpha virt. eigenvalues --    5.22028   5.24417   5.27662   5.44758   5.51878
 Alpha virt. eigenvalues --    5.67726   5.70412   5.85790  24.01083  24.05314
 Alpha virt. eigenvalues --   24.14563  24.16206  24.19337  24.22108  35.59296
          Condensed to atoms (all electrons):
               1          2          3          4          5          6
     1  C    5.247921   0.453825   0.457722   0.118923  -0.024953  -0.044024
     2  H    0.453825   0.532761  -0.028509  -0.035702   0.003340   0.001514
     3  H    0.457722  -0.028509   0.531117  -0.042816   0.001557  -0.010378
     4  C    0.118923  -0.035702  -0.042816   5.354447   0.462894   0.424242
     5  H   -0.024953   0.003340   0.001557   0.462894   0.528175  -0.027746
     6  H   -0.044024   0.001514  -0.010378   0.424242  -0.027746   0.519752
     7  N   -0.068559   0.005037   0.002266  -0.011045  -0.064077  -0.006170
     8  C   -0.060909  -0.007354  -0.000094  -0.044357  -0.010559  -0.000576
     9  H    0.002752  -0.000059  -0.000037   0.010468  -0.000201  -0.000199
    10  H    0.003599   0.000080   0.000317  -0.010597   0.001218   0.002478
    11  H   -0.014396   0.004926   0.000148   0.007055  -0.000640  -0.000625
    12  C   -0.045072   0.002621   0.000534  -0.135221   0.010040  -0.003941
    13  H    0.000840   0.000060  -0.000040   0.011646  -0.000609   0.001801
    14  H    0.003583  -0.000041   0.000009   0.007910  -0.000088  -0.000140
    15  H   -0.004069  -0.000019   0.000005  -0.015984   0.002750  -0.000635
    16  C    0.019897  -0.003134  -0.000386   0.082076  -0.006940  -0.003662
    17  H   -0.036884   0.000456  -0.000164   0.022049  -0.005330  -0.000190
    18  H    0.031661  -0.004307   0.000469  -0.058334  -0.000509  -0.000136
    19  C    0.184018  -0.035509  -0.018988  -0.038893  -0.005109   0.014821
    20  H   -0.006018  -0.005786   0.004594  -0.012291  -0.001744  -0.000157
    21  H   -0.049128  -0.005036  -0.003846   0.039827  -0.000232  -0.000204
    22  H   -0.021885   0.005212  -0.007295  -0.035759   0.003780   0.000241
               7          8          9         10         11         12
     1  C   -0.068559  -0.060909   0.002752   0.003599  -0.014396  -0.045072
     2  H    0.005037  -0.007354  -0.000059   0.000080   0.004926   0.002621
     3  H    0.002266  -0.000094  -0.000037   0.000317   0.000148   0.000534
     4  C   -0.011045  -0.044357   0.010468  -0.010597   0.007055  -0.135221
     5  H   -0.064077  -0.010559  -0.000201   0.001218  -0.000640   0.010040
     6  H   -0.006170  -0.000576  -0.000199   0.002478  -0.000625  -0.003941
     7  N    6.985168   0.257447  -0.037680  -0.024184  -0.032886   0.303896
     8  C    0.257447   4.954896   0.428772   0.416541   0.431612  -0.011931
     9  H   -0.037680   0.428772   0.485754  -0.023576  -0.016913  -0.013974
    10  H   -0.024184   0.416541  -0.023576   0.540077  -0.028648  -0.013184
    11  H   -0.032886   0.431612  -0.016913  -0.028648   0.523904   0.009880
    12  C    0.303896  -0.011931  -0.013974  -0.013184   0.009880   4.963970
    13  H   -0.026102  -0.019683  -0.000651   0.005968  -0.000299   0.396743
    14  H   -0.035925  -0.002293   0.003660  -0.000951  -0.000041   0.426628
    15  H   -0.025910   0.005720  -0.000001   0.000011  -0.000330   0.441260
    16  C   -0.019366  -0.189953   0.003184   0.011759  -0.021084  -0.227914
    17  H    0.015993   0.020461   0.000548  -0.000571   0.000474  -0.016972
    18  H    0.010669  -0.009592  -0.001953  -0.000090   0.003793   0.024784
    19  C    0.017266   0.010515  -0.000788   0.000023   0.000604   0.004607
    20  H    0.002817   0.000526  -0.000005  -0.000006   0.000094  -0.001372
    21  H   -0.001864  -0.000144  -0.000002  -0.000001   0.000033   0.000168
    22  H    0.000643  -0.000486   0.000002   0.000008  -0.000024  -0.000281
              13         14         15         16         17         18
     1  C    0.000840   0.003583  -0.004069   0.019897  -0.036884   0.031661
     2  H    0.000060  -0.000041  -0.000019  -0.003134   0.000456  -0.004307
     3  H   -0.000040   0.000009   0.000005  -0.000386  -0.000164   0.000469
     4  C    0.011646   0.007910  -0.015984   0.082076   0.022049  -0.058334
     5  H   -0.000609  -0.000088   0.002750  -0.006940  -0.005330  -0.000509
     6  H    0.001801  -0.000140  -0.000635  -0.003662  -0.000190  -0.000136
     7  N   -0.026102  -0.035925  -0.025910  -0.019366   0.015993   0.010669
     8  C   -0.019683  -0.002293   0.005720  -0.189953   0.020461  -0.009592
     9  H   -0.000651   0.003660  -0.000001   0.003184   0.000548  -0.001953
    10  H    0.005968  -0.000951   0.000011   0.011759  -0.000571  -0.000090
    11  H   -0.000299  -0.000041  -0.000330  -0.021084   0.000474   0.003793
    12  C    0.396743   0.426628   0.441260  -0.227914  -0.016972   0.024784
    13  H    0.554779  -0.024861  -0.030507   0.019678  -0.000468  -0.000543
    14  H   -0.024861   0.490375  -0.014684  -0.009440  -0.000733   0.000539
    15  H   -0.030507  -0.014684   0.513890  -0.015914   0.001226   0.000508
    16  C    0.019678  -0.009440  -0.015914   6.241189   0.386050   0.371293
    17  H   -0.000468  -0.000733   0.001226   0.386050   0.579299  -0.046157
    18  H   -0.000543   0.000539   0.000508   0.371293  -0.046157   0.602461
    19  C   -0.000547  -0.000405   0.000428  -0.007348   0.000230   0.002518
    20  H   -0.000008  -0.000002  -0.000023  -0.002795  -0.000040  -0.000332
    21  H    0.000002  -0.000001  -0.000003   0.000372   0.000063  -0.000128
    22  H    0.000007   0.000001   0.000024   0.000299   0.000104  -0.000047
              19         20         21         22
     1  C    0.184018  -0.006018  -0.049128  -0.021885
     2  H   -0.035509  -0.005786  -0.005036   0.005212
     3  H   -0.018988   0.004594  -0.003846  -0.007295
     4  C   -0.038893  -0.012291   0.039827  -0.035759
     5  H   -0.005109  -0.001744  -0.000232   0.003780
     6  H    0.014821  -0.000157  -0.000204   0.000241
     7  N    0.017266   0.002817  -0.001864   0.000643
     8  C    0.010515   0.000526  -0.000144  -0.000486
     9  H   -0.000788  -0.000005  -0.000002   0.000002
    10  H    0.000023  -0.000006  -0.000001   0.000008
    11  H    0.000604   0.000094   0.000033  -0.000024
    12  C    0.004607  -0.001372   0.000168  -0.000281
    13  H   -0.000547  -0.000008   0.000002   0.000007
    14  H   -0.000405  -0.000002  -0.000001   0.000001
    15  H    0.000428  -0.000023  -0.000003   0.000024
    16  C   -0.007348  -0.002795   0.000372   0.000299
    17  H    0.000230  -0.000040   0.000063   0.000104
    18  H    0.002518  -0.000332  -0.000128  -0.000047
    19  C    5.008420   0.419088   0.409531   0.445299
    20  H    0.419088   0.525765  -0.018648  -0.030461
    21  H    0.409531  -0.018648   0.544421  -0.023257
    22  H    0.445299  -0.030461  -0.023257   0.558766
 Mulliken charges:
               1
     1  C   -0.148845
     2  H    0.115625
     3  H    0.113815
     4  C   -0.100537
     5  H    0.134984
     6  H    0.133933
     7  N   -0.247435
     8  C   -0.168557
     9  H    0.160901
    10  H    0.119729
    11  H    0.133361
    12  C   -0.115267
    13  H    0.112794
    14  H    0.156900
    15  H    0.142257
    16  C   -0.627859
    17  H    0.080556
    18  H    0.073434
    19  C   -0.409780
    20  H    0.126803
    21  H    0.108079
    22  H    0.105109
 Sum of Mulliken charges =   0.00000
 Mulliken charges with hydrogens summed into heavy atoms:
               1
     1  C    0.080595
     4  C    0.168380
     7  N   -0.247435
     8  C    0.245434
    12  C    0.296684
    16  C   -0.473869
    19  C   -0.069789
 APT charges:
               1
     1  C    0.074994
     2  H    0.003363
     3  H   -0.034795
     4  C    0.152662
     5  H    0.001554
     6  H   -0.067543
     7  N   -0.335004
     8  C    0.189882
     9  H    0.046714
    10  H   -0.008039
    11  H    0.021475
    12  C    0.208156
    13  H   -0.013073
    14  H    0.042729
    15  H    0.018893
    16  C   -0.223224
    17  H   -0.045746
    18  H   -0.048330
    19  C    0.041555
    20  H    0.019567
    21  H   -0.021743
    22  H   -0.024048
 Sum of APT charges =  -0.00000
 APT charges with hydrogens summed into heavy atoms:
               1
     1  C    0.043562
     4  C    0.086673
     7  N   -0.335004
     8  C    0.250032
    12  C    0.256706
    16  C   -0.317300
    19  C    0.015331
 Electronic spatial extent (au):  <R**2>=            947.3694
 Charge=             -0.0000 electrons
 Dipole moment (field-independent basis, Debye):
    X=             -0.6530    Y=              3.2119    Z=             -3.8829  Tot=              5.0812
 Quadrupole moment (field-independent basis, Debye-Ang):
   XX=            -46.8462   YY=            -49.7876   ZZ=            -52.4378
   XY=              3.5528   XZ=             -5.1739   YZ=              5.9549
 Traceless Quadrupole moment (field-independent basis, Debye-Ang):
   XX=              2.8443   YY=             -0.0971   ZZ=             -2.7473
   XY=              3.5528   XZ=             -5.1739   YZ=              5.9549
 Octapole moment (field-independent basis, Debye-Ang**2):
  XXX=              3.4257  YYY=             11.1750  ZZZ=            -18.2447  XYY=             -3.3358
  XXY=              8.1439  XXZ=             -8.6146  XZZ=             -8.2414  YZZ=             11.0946
  YYZ=             -9.3327  XYZ=              7.9031
 Hexadecapole moment (field-independent basis, Debye-Ang**3):
 XXXX=           -794.2176 YYYY=           -280.0557 ZZZZ=           -275.8804 XXXY=              5.0648
 XXXZ=            -17.7178 YYYX=             13.9451 YYYZ=             19.2454 ZZZX=            -25.0072
 ZZZY=             24.3622 XXYY=           -187.0255 XXZZ=           -184.9667 YYZZ=            -92.8897
 XXYZ=             16.1586 YYXZ=            -13.0680 ZZXY=             15.2139
 N-N= 3.462549427764D+02 E-N=-1.369020238383D+03  KE= 2.909450949984D+02
  Exact polarizability:  98.680  -2.488  83.784   3.904  -4.126  85.226
 Approx polarizability:  93.634  -1.187  91.618   1.903  -2.058  93.120
 Calling FoFJK, ICntrl=    100127 FMM=F ISym2X=0 I1Cent= 0 IOpClX= 0 NMat=1 NMatS=1 NMatT=0.
 Full mass-weighted force constant matrix:
 Low frequencies ---   -8.1599   -0.0007   -0.0006   -0.0002    7.6588   11.2660
 Low frequencies ---  101.0713  120.7043  221.8471
 Diagonal vibrational polarizability:
        8.0715674      11.0566776       7.0944666
 Harmonic frequencies (cm**-1), IR intensities (KM/Mole), Raman scattering
 activities (A**4/AMU), depolarization ratios for plane and unpolarized
 incident light, reduced masses (AMU), force constants (mDyne/A),
 and normal coordinates:
                      1                      2                      3
                      A                      A                      A
 Frequencies --    100.9716               120.6829               221.8443
 Red. masses --      1.9257                 2.1881                 1.1617
 Frc consts  --      0.0116                 0.0188                 0.0337
 IR Inten    --      1.0990                 1.1634                 3.0210
  Atom  AN      X      Y      Z        X      Y      Z        X      Y      Z
     1   6    -0.01   0.04  -0.14    -0.04  -0.01   0.01     0.02   0.01  -0.01
     2   1    -0.04   0.35  -0.26    -0.08   0.03   0.01     0.06   0.01  -0.03
     3   1    -0.10  -0.16  -0.36    -0.15  -0.07   0.01    -0.02   0.01   0.01
     4   6     0.02   0.01  -0.06     0.01   0.17  -0.00     0.00   0.01  -0.04
     5   1     0.03   0.02  -0.08     0.06   0.28  -0.20    -0.01   0.02  -0.04
     6   1     0.07   0.02  -0.03     0.04   0.32   0.16     0.02   0.01  -0.03
     7   7    -0.02  -0.01  -0.01    -0.02   0.03   0.00    -0.02   0.00  -0.01
     8   6    -0.05  -0.04   0.07     0.11  -0.02  -0.01    -0.03   0.01  -0.01
     9   1    -0.04  -0.05   0.04    -0.03  -0.13   0.14     0.07   0.04  -0.13
    10   1    -0.08   0.03   0.12     0.35  -0.11  -0.02    -0.18   0.07  -0.00
    11   1    -0.05  -0.11   0.11     0.07   0.16  -0.16     0.03  -0.08   0.12
    12   6     0.03   0.04   0.01    -0.09  -0.09  -0.00     0.00  -0.02   0.04
    13   1     0.08   0.09   0.07    -0.09  -0.16  -0.07     0.13   0.02   0.11
    14   1    -0.01  -0.01   0.05    -0.06  -0.08  -0.03    -0.07  -0.15   0.10
    15   1     0.05   0.06  -0.07    -0.15  -0.10   0.10    -0.05   0.04  -0.07
    16   6    -0.06  -0.06  -0.06    -0.10   0.06   0.01    -0.05   0.02   0.00
    17   1    -0.05  -0.03  -0.11    -0.23   0.12   0.03     0.08  -0.04  -0.01
    18   1    -0.07  -0.07  -0.07    -0.00   0.16   0.05    -0.14  -0.02  -0.07
    19   6     0.08   0.00   0.18     0.11  -0.15  -0.01     0.06  -0.02   0.03
    20   1     0.11   0.20   0.42     0.18  -0.09   0.02     0.27  -0.21  -0.38
    21   1     0.04   0.10   0.05     0.04  -0.26  -0.05     0.27  -0.17   0.49
    22   1     0.12  -0.30   0.29     0.20  -0.20  -0.01    -0.32   0.30   0.02
                      4                      5                      6
                      A                      A                      A
 Frequencies --    228.8358               284.0184               309.0673
 Red. masses --      1.1674                 1.3499                 1.6550
 Frc consts  --      0.0360                 0.0642                 0.0931
 IR Inten    --      3.8342                 1.8385                 3.8802
  Atom  AN      X      Y      Z        X      Y      Z        X      Y      Z
     1   6     0.02  -0.02   0.01     0.02  -0.05   0.07    -0.08   0.01  -0.10
     2   1     0.05  -0.04   0.01     0.06  -0.13   0.09    -0.16   0.17  -0.14
     3   1     0.02   0.01   0.04     0.02   0.01   0.15    -0.08  -0.09  -0.25
     4   6     0.00  -0.02  -0.03    -0.00  -0.01  -0.01    -0.01  -0.02   0.04
     5   1     0.01  -0.02  -0.02    -0.00  -0.02   0.00     0.01  -0.04   0.06
     6   1    -0.01  -0.01  -0.03    -0.05  -0.00  -0.03     0.02  -0.05   0.02
     7   7     0.00  -0.00  -0.02     0.01   0.02  -0.03     0.01   0.00   0.04
     8   6    -0.03   0.00  -0.00     0.02   0.02  -0.05     0.08  -0.03   0.04
     9   1    -0.30  -0.06   0.35    -0.06  -0.00   0.06    -0.09  -0.14   0.24
    10   1     0.37  -0.16  -0.01     0.16  -0.06  -0.08     0.36  -0.13   0.03
    11   1    -0.20   0.23  -0.35    -0.02   0.13  -0.17     0.00   0.15  -0.16
    12   6     0.05   0.03   0.02     0.07   0.01   0.04    -0.04   0.04  -0.06
    13   1    -0.10  -0.07  -0.10     0.44   0.20   0.30     0.11   0.21   0.13
    14   1     0.12   0.27   0.00    -0.14  -0.39   0.23    -0.11  -0.26  -0.05
    15   1     0.19  -0.09   0.20    -0.06   0.21  -0.34    -0.18   0.20  -0.33
    16   6    -0.03  -0.03  -0.05    -0.08   0.02  -0.05     0.12   0.00   0.08
    17   1    -0.16   0.05  -0.06    -0.06   0.03  -0.09     0.16  -0.04   0.11
    18   1     0.07   0.02   0.03    -0.13   0.02  -0.11     0.09  -0.02   0.06
    19   6    -0.02   0.02   0.05    -0.03  -0.01   0.03    -0.06  -0.00  -0.02
    20   1     0.03  -0.06  -0.10    -0.13   0.02   0.14     0.03  -0.05  -0.14
    21   1     0.10   0.03   0.24    -0.08   0.07  -0.10     0.03  -0.04   0.16
    22   1    -0.21   0.15   0.06     0.06  -0.07   0.03    -0.23   0.07   0.01
                      7                      8                      9
                      A                      A                      A
 Frequencies --    337.1048               352.5169               407.6197
 Red. masses --      2.1079                 1.3076                 1.7495
 Frc consts  --      0.1411                 0.0957                 0.1713
 IR Inten    --      2.6068                 7.6489                11.7247
  Atom  AN      X      Y      Z        X      Y      Z        X      Y      Z
     1   6     0.06   0.11   0.04    -0.05  -0.01  -0.00    -0.03  -0.02  -0.01
     2   1     0.06   0.05   0.07    -0.09   0.05  -0.02    -0.04  -0.05  -0.00
     3   1     0.05   0.13   0.08    -0.07  -0.04  -0.04    -0.05  -0.01   0.02
     4   6    -0.02   0.01   0.01     0.00   0.07   0.01     0.02   0.11  -0.04
     5   1    -0.12   0.01   0.05     0.03   0.13  -0.10     0.06   0.26  -0.30
     6   1     0.04  -0.05  -0.01     0.00   0.16   0.11     0.06   0.30   0.18
     7   7    -0.05  -0.04   0.01     0.01   0.01   0.00     0.01  -0.03  -0.03
     8   6    -0.16   0.03  -0.05     0.03   0.03  -0.04    -0.11   0.00  -0.02
     9   1    -0.30   0.10   0.19     0.02   0.05  -0.02    -0.07   0.12  -0.03
    10   1     0.03  -0.10  -0.10     0.05  -0.01  -0.08    -0.20   0.05  -0.00
    11   1    -0.30   0.16  -0.30     0.03   0.07  -0.07    -0.16  -0.10  -0.01
    12   6    -0.07  -0.03  -0.00     0.03  -0.05   0.06     0.06  -0.08   0.04
    13   1     0.01   0.03   0.07     0.00  -0.14  -0.02     0.21  -0.09   0.07
    14   1    -0.11  -0.17   0.02     0.03   0.07   0.09    -0.04  -0.19   0.14
    15   1    -0.15   0.04  -0.12     0.06  -0.11   0.18     0.00  -0.04  -0.02
    16   6     0.08  -0.07   0.04     0.04  -0.03  -0.03     0.14  -0.03   0.00
    17   1     0.29  -0.17   0.03     0.58  -0.24  -0.16    -0.23   0.09   0.14
    18   1    -0.04  -0.21   0.00    -0.37  -0.34  -0.29     0.46   0.13   0.28
    19   6     0.16   0.02  -0.04    -0.07   0.00   0.02    -0.07   0.01   0.01
    20   1     0.23   0.09   0.01    -0.10  -0.00   0.04    -0.11   0.00   0.03
    21   1     0.04  -0.11  -0.15    -0.06   0.04   0.01    -0.02   0.09   0.04
    22   1     0.35  -0.04  -0.07    -0.08  -0.01   0.03    -0.14   0.01   0.04
                     10                     11                     12
                      A                      A                      A
 Frequencies --    433.1532               465.5246               479.4005
 Red. masses --      2.1650                 2.2933                 2.3808
 Frc consts  --      0.2393                 0.2928                 0.3224
 IR Inten    --     17.1625                11.6798                12.7909
  Atom  AN      X      Y      Z        X      Y      Z        X      Y      Z
     1   6     0.10  -0.10  -0.00     0.01   0.00   0.01     0.10  -0.11  -0.04
     2   1     0.19  -0.23   0.03     0.05  -0.04   0.02     0.05  -0.05  -0.06
     3   1     0.10   0.00   0.15    -0.01   0.03   0.07     0.12  -0.13  -0.09
     4   6     0.05  -0.00  -0.10    -0.01   0.05  -0.05     0.14   0.01   0.05
     5   1     0.11   0.03  -0.17    -0.03   0.19  -0.28     0.25   0.11  -0.14
     6   1     0.03   0.07  -0.03     0.07   0.21   0.16     0.19   0.15   0.22
     7   7     0.02   0.02  -0.05    -0.06  -0.13  -0.01     0.03  -0.01   0.11
     8   6    -0.07  -0.02   0.13    -0.00  -0.14  -0.10    -0.02   0.11  -0.07
     9   1    -0.20  -0.11   0.28     0.02  -0.14  -0.14     0.06   0.32  -0.09
    10   1     0.06   0.09   0.27    -0.02  -0.20  -0.16    -0.14  -0.02  -0.22
    11   1    -0.19  -0.12   0.06     0.07  -0.06  -0.07    -0.02   0.18  -0.12
    12   6    -0.06  -0.05  -0.09     0.07   0.13  -0.02    -0.11   0.04  -0.06
    13   1    -0.08  -0.08  -0.11    -0.07   0.30   0.08    -0.23   0.13  -0.02
    14   1    -0.02  -0.12  -0.17     0.12   0.32  -0.03     0.01  -0.06  -0.25
    15   1    -0.18  -0.02  -0.06     0.34   0.09  -0.17    -0.22   0.11  -0.13
    16   6     0.01   0.17   0.05    -0.05   0.04   0.17    -0.09  -0.13   0.04
    17   1     0.37  -0.07   0.14     0.14  -0.15   0.34    -0.18   0.01  -0.12
    18   1    -0.24   0.07  -0.19    -0.17   0.09  -0.01    -0.10  -0.12   0.03
    19   6    -0.02   0.02   0.03     0.00   0.01   0.00    -0.02   0.01   0.01
    20   1    -0.17   0.00   0.12    -0.02   0.01   0.03    -0.17  -0.05   0.03
    21   1     0.02   0.21  -0.02    -0.01   0.03  -0.03     0.08   0.22   0.05
    22   1    -0.07  -0.02   0.06     0.03   0.00   0.00    -0.16   0.05   0.04
                     13                     14                     15
                      A                      A                      A
 Frequencies --    526.6615               702.8542               756.4064
 Red. masses --      2.4702                 2.5820                 2.1069
 Frc consts  --      0.4037                 0.7515                 0.7102
 IR Inten    --     11.4178                 2.1549                 8.3837
  Atom  AN      X      Y      Z        X      Y      Z        X      Y      Z
     1   6    -0.06   0.06   0.06    -0.09   0.07  -0.05     0.06  -0.05   0.07
     2   1    -0.30   0.34   0.00     0.11  -0.36   0.09    -0.01   0.38  -0.10
     3   1    -0.03  -0.13  -0.24    -0.07   0.35   0.34    -0.08  -0.33  -0.24
     4   6     0.05   0.01   0.17    -0.06   0.03  -0.14    -0.01  -0.00  -0.01
     5   1    -0.05   0.04   0.16    -0.05  -0.06   0.01    -0.07   0.02  -0.03
     6   1     0.01   0.00   0.14    -0.04  -0.07  -0.24    -0.12   0.03  -0.03
     7   7     0.14  -0.06  -0.03     0.08   0.02   0.00    -0.04   0.10  -0.15
     8   6    -0.09   0.00  -0.00     0.05   0.11   0.05     0.00   0.03  -0.01
     9   1    -0.11   0.20   0.12     0.06   0.20   0.08    -0.05  -0.18  -0.02
    10   1    -0.15   0.06   0.03     0.02   0.14   0.07     0.11   0.17   0.15
    11   1    -0.27  -0.16  -0.11    -0.01   0.07   0.03     0.05  -0.03   0.09
    12   6     0.13  -0.07  -0.14     0.09  -0.05  -0.09    -0.00   0.01  -0.02
    13   1     0.08  -0.05  -0.13     0.07  -0.06  -0.11     0.17  -0.12  -0.08
    14   1     0.17  -0.08  -0.20     0.15  -0.08  -0.17    -0.10   0.04   0.13
    15   1     0.09  -0.06  -0.14     0.03  -0.03  -0.07     0.02  -0.04   0.08
    16   6    -0.10   0.06   0.02    -0.05  -0.16   0.19     0.03  -0.13   0.17
    17   1    -0.07   0.05   0.01    -0.14  -0.04   0.03    -0.20   0.06  -0.00
    18   1    -0.23   0.21  -0.25    -0.19  -0.08  -0.01    -0.17  -0.03  -0.10
    19   6    -0.02  -0.01  -0.01    -0.03  -0.02   0.01     0.03   0.00   0.01
    20   1     0.02  -0.06  -0.10     0.20   0.15   0.08    -0.27  -0.21  -0.09
    21   1    -0.05  -0.13   0.01    -0.03  -0.14   0.09    -0.02   0.09  -0.14
    22   1     0.03   0.08  -0.06    -0.05  -0.24   0.11     0.12   0.29  -0.14
                     16                     17                     18
                      A                      A                      A
 Frequencies --    842.0488               898.1358               945.1319
 Red. masses --      1.8705                 2.2776                 1.4617
 Frc consts  --      0.7814                 1.0825                 0.7693
 IR Inten    --      2.3693                 7.1922                 2.0744
  Atom  AN      X      Y      Z        X      Y      Z        X      Y      Z
     1   6    -0.01   0.01  -0.06    -0.03  -0.10  -0.05     0.01  -0.06  -0.03
     2   1    -0.15  -0.33   0.12    -0.02  -0.18  -0.01    -0.18  -0.10   0.04
     3   1     0.21   0.24   0.11     0.16  -0.01  -0.05    -0.17  -0.12   0.04
     4   6     0.10   0.01   0.14    -0.13  -0.11   0.12    -0.05   0.13   0.04
     5   1     0.10   0.00   0.15     0.01   0.14  -0.35    -0.17  -0.06   0.40
     6   1     0.08  -0.04   0.08    -0.17   0.27   0.50    -0.11  -0.14  -0.27
     7   7    -0.02   0.09  -0.10    -0.08  -0.02  -0.02    -0.02   0.02   0.02
     8   6    -0.04  -0.09  -0.07     0.03   0.12   0.05    -0.00  -0.03  -0.00
     9   1    -0.08  -0.21  -0.06     0.02  -0.06  -0.01     0.02   0.05  -0.00
    10   1     0.01   0.03   0.05     0.10   0.12   0.07    -0.05  -0.07  -0.05
    11   1    -0.04  -0.17  -0.01     0.11   0.16   0.12    -0.02   0.01  -0.04
    12   6    -0.04   0.04   0.01     0.06  -0.05  -0.07     0.04  -0.02  -0.03
    13   1     0.11  -0.07  -0.04     0.14  -0.05  -0.05     0.05  -0.02  -0.03
    14   1    -0.14   0.06   0.16    -0.03   0.01   0.08     0.03   0.01  -0.00
    15   1    -0.02  -0.01   0.11     0.17  -0.09  -0.07     0.07  -0.03  -0.03
    16   6     0.03  -0.03   0.05    -0.02   0.01  -0.02    -0.03  -0.00   0.00
    17   1    -0.12   0.12  -0.11     0.04  -0.07   0.06     0.11  -0.11   0.08
    18   1    -0.15   0.04  -0.18     0.03  -0.02   0.07     0.08  -0.08   0.17
    19   6    -0.02  -0.00  -0.04     0.10   0.10  -0.05     0.09  -0.01  -0.05
    20   1     0.23   0.23   0.12     0.23   0.22   0.02    -0.21  -0.03   0.13
    21   1     0.11   0.02   0.17     0.17   0.13   0.06     0.31   0.50  -0.02
    22   1    -0.23  -0.34   0.17     0.01  -0.06   0.05    -0.25  -0.01   0.06
                     19                     20                     21
                      A                      A                      A
 Frequencies --    962.4669              1027.0969              1057.7082
 Red. masses --      2.1080                 1.9671                 1.5385
 Frc consts  --      1.1505                 1.2226                 1.0141
 IR Inten    --     25.1251                 8.7707                19.0286
  Atom  AN      X      Y      Z        X      Y      Z        X      Y      Z
     1   6    -0.07  -0.07  -0.01    -0.02  -0.02  -0.02    -0.05  -0.07   0.03
     2   1    -0.01  -0.09  -0.02     0.18  -0.02  -0.07    -0.11   0.01   0.01
     3   1    -0.14  -0.06   0.06    -0.04   0.01   0.04     0.03  -0.09  -0.07
     4   6    -0.14  -0.02  -0.03    -0.01  -0.01   0.00     0.03  -0.01  -0.02
     5   1     0.00   0.01  -0.13     0.21  -0.04  -0.01     0.18  -0.05   0.00
     6   1    -0.24   0.13   0.09    -0.05   0.06   0.06    -0.23   0.07  -0.05
     7   7     0.15   0.00   0.03    -0.04   0.13   0.11     0.08   0.05  -0.05
     8   6     0.01  -0.09  -0.03    -0.11  -0.11  -0.03     0.03  -0.04  -0.04
     9   1     0.01   0.17   0.08    -0.04  -0.29  -0.21    -0.03   0.07   0.08
    10   1    -0.09  -0.04  -0.02     0.02  -0.27  -0.13    -0.05   0.10   0.06
    11   1    -0.15  -0.22  -0.13     0.18   0.20   0.10    -0.15  -0.24  -0.11
    12   6    -0.05   0.04   0.09     0.14  -0.01  -0.06    -0.02   0.05   0.03
    13   1    -0.14   0.05   0.07     0.11  -0.17  -0.21    -0.01  -0.05  -0.05
    14   1     0.07  -0.06  -0.10     0.19  -0.24  -0.21    -0.01  -0.05  -0.01
    15   1    -0.18   0.09   0.09    -0.27   0.07   0.13    -0.16   0.07   0.11
    16   6     0.07  -0.00   0.03    -0.00   0.03   0.02    -0.11  -0.03   0.00
    17   1    -0.25   0.30  -0.28     0.03   0.14  -0.22     0.31  -0.34   0.25
    18   1    -0.23   0.14  -0.40    -0.03  -0.20   0.17     0.27  -0.08   0.43
    19   6     0.10   0.08  -0.02     0.00   0.03   0.03     0.00   0.08   0.00
    20   1     0.01   0.05   0.00     0.03  -0.02  -0.07     0.22   0.15  -0.06
    21   1     0.14   0.19  -0.03    -0.09  -0.11  -0.04    -0.06  -0.13   0.03
    22   1     0.06   0.11  -0.01     0.15   0.11  -0.06     0.14   0.03  -0.02
                     22                     23                     24
                      A                      A                      A
 Frequencies --   1096.7617              1104.0432              1113.2259
 Red. masses --      1.8552                 1.2943                 1.3992
 Frc consts  --      1.3148                 0.9295                 1.0217
 IR Inten    --      0.5791                 0.0615                 0.2261
  Atom  AN      X      Y      Z        X      Y      Z        X      Y      Z
     1   6     0.19   0.02   0.01     0.04  -0.02  -0.05     0.04  -0.02  -0.09
     2   1     0.07   0.22  -0.05     0.22  -0.03  -0.10     0.31  -0.07  -0.14
     3   1     0.49  -0.01  -0.27     0.07   0.05   0.02     0.07   0.07   0.04
     4   6    -0.14   0.04   0.01    -0.04   0.03   0.04    -0.05   0.05   0.06
     5   1    -0.32   0.10  -0.01     0.06  -0.02   0.09     0.10  -0.03   0.14
     6   1    -0.28   0.10   0.01    -0.08   0.01  -0.00    -0.09   0.01   0.01
     7   7     0.04   0.01   0.00     0.01  -0.00  -0.01    -0.01   0.04   0.03
     8   6    -0.01  -0.01  -0.01     0.02  -0.05   0.07     0.03  -0.02  -0.05
     9   1    -0.01  -0.01  -0.00     0.16   0.38   0.04    -0.08   0.06   0.16
    10   1     0.01  -0.01   0.00    -0.19  -0.29  -0.21    -0.03   0.21   0.14
    11   1     0.01  -0.01   0.01    -0.04   0.16  -0.13    -0.16  -0.31  -0.09
    12   6     0.03   0.01   0.04    -0.03   0.05  -0.06    -0.02  -0.07  -0.02
    13   1    -0.09  -0.02  -0.02     0.32  -0.19  -0.17    -0.04   0.17   0.17
    14   1     0.15  -0.12  -0.16    -0.28   0.03   0.29    -0.03   0.19   0.07
    15   1    -0.18   0.09   0.05     0.01  -0.07   0.20     0.33  -0.11  -0.24
    16   6    -0.01  -0.01   0.01     0.00  -0.01  -0.01    -0.00   0.02   0.02
    17   1     0.03  -0.01  -0.01    -0.01  -0.10   0.16     0.01   0.16  -0.24
    18   1     0.02  -0.02   0.05    -0.02   0.16  -0.17    -0.00  -0.22   0.20
    19   6    -0.09  -0.06  -0.05    -0.02   0.00   0.03    -0.02  -0.00   0.05
    20   1     0.12   0.11   0.05     0.01  -0.05  -0.06    -0.02  -0.10  -0.09
    21   1    -0.01  -0.13   0.14    -0.10  -0.12  -0.03    -0.15  -0.15  -0.06
    22   1    -0.19  -0.34   0.10     0.11   0.06  -0.04     0.17   0.12  -0.07
                     25                     26                     27
                      A                      A                      A
 Frequencies --   1141.9440              1180.4699              1229.5603
 Red. masses --      1.6507                 1.6049                 1.6569
 Frc consts  --      1.2683                 1.3177                 1.4758
 IR Inten    --      1.6799                 1.0087                 0.9635
  Atom  AN      X      Y      Z        X      Y      Z        X      Y      Z
     1   6     0.00   0.12  -0.08     0.01   0.07   0.09     0.02  -0.08   0.01
     2   1     0.26  -0.08  -0.06    -0.18   0.17   0.10    -0.06   0.00  -0.00
     3   1    -0.12   0.21   0.16    -0.00  -0.05  -0.08    -0.04  -0.13  -0.01
     4   6    -0.05  -0.06   0.06    -0.00  -0.09  -0.08    -0.02   0.06  -0.03
     5   1    -0.06   0.06  -0.14     0.09  -0.00  -0.25    -0.28   0.03   0.09
     6   1     0.13   0.04   0.25     0.09   0.05   0.11     0.33  -0.14  -0.08
     7   7     0.06  -0.01  -0.01    -0.01   0.05   0.05     0.01  -0.09   0.11
     8   6     0.01   0.01  -0.05     0.05  -0.06   0.01     0.00   0.05  -0.08
     9   1    -0.10  -0.12   0.05     0.06   0.27   0.13    -0.16  -0.25   0.04
    10   1     0.07   0.19   0.13    -0.14  -0.03  -0.03     0.16   0.27   0.18
    11   1    -0.04  -0.18   0.01    -0.15  -0.14  -0.17     0.01  -0.22   0.11
    12   6     0.01   0.07   0.01    -0.02   0.01  -0.08    -0.00   0.08  -0.06
    13   1     0.08  -0.14  -0.14     0.21  -0.05  -0.06     0.29  -0.19  -0.19
    14   1    -0.03  -0.13   0.01    -0.19   0.07   0.20    -0.22  -0.07   0.20
    15   1    -0.23   0.08   0.21     0.13  -0.10   0.06    -0.06  -0.04   0.27
    16   6    -0.05  -0.01  -0.01    -0.01   0.04   0.03     0.00   0.01  -0.00
    17   1     0.12  -0.15   0.11     0.04   0.20  -0.30    -0.03   0.09  -0.11
    18   1     0.11   0.04   0.11    -0.01  -0.28   0.27    -0.04  -0.01  -0.04
    19   6     0.03  -0.10   0.03     0.01  -0.04  -0.06    -0.02   0.05  -0.00
    20   1    -0.35  -0.27   0.05    -0.05   0.05   0.12     0.14   0.10  -0.05
    21   1     0.07   0.23  -0.14     0.14   0.14   0.06    -0.05  -0.12   0.06
    22   1    -0.12   0.14  -0.03    -0.22  -0.16   0.07     0.10  -0.05   0.00
                     28                     29                     30
                      A                      A                      A
 Frequencies --   1268.8830              1299.7451              1331.2136
 Red. masses --      1.6155                 1.3957                 1.2094
 Frc consts  --      1.5325                 1.3892                 1.2627
 IR Inten    --      1.1750                 4.6426                 1.8840
  Atom  AN      X      Y      Z        X      Y      Z        X      Y      Z
     1   6    -0.00   0.03   0.03     0.01   0.01   0.05    -0.00  -0.03   0.02
     2   1     0.18   0.15  -0.07     0.27   0.21  -0.10     0.53   0.17  -0.21
     3   1    -0.08  -0.02   0.02    -0.15  -0.06   0.07    -0.49  -0.18   0.18
     4   6    -0.02  -0.00  -0.02    -0.01   0.01  -0.00     0.00  -0.00   0.05
     5   1     0.31  -0.09   0.03     0.48  -0.15   0.09    -0.17   0.04   0.03
     6   1    -0.26   0.12  -0.01    -0.06   0.04   0.01     0.29  -0.09   0.09
     7   7     0.14   0.01   0.05    -0.10   0.02   0.06     0.02  -0.01  -0.07
     8   6    -0.10   0.02  -0.02     0.05  -0.00  -0.05    -0.01  -0.01   0.03
     9   1    -0.08  -0.31  -0.18    -0.11   0.05   0.20     0.05   0.10  -0.01
    10   1     0.21  -0.08  -0.00    -0.09   0.19   0.09    -0.01  -0.05  -0.02
    11   1     0.21   0.15   0.24    -0.07  -0.21  -0.05     0.03   0.11  -0.01
    12   6    -0.09  -0.03  -0.04     0.05  -0.01  -0.00    -0.00   0.00   0.02
    13   1     0.14   0.11   0.14    -0.02  -0.03  -0.05    -0.07   0.00   0.01
    14   1    -0.20   0.20   0.20     0.08  -0.07  -0.08     0.03   0.01  -0.03
    15   1     0.30  -0.16  -0.06    -0.06   0.03  -0.01    -0.05   0.04  -0.03
    16   6    -0.02  -0.02  -0.01     0.03  -0.03  -0.04    -0.02   0.02   0.02
    17   1     0.08  -0.10   0.06    -0.12  -0.16   0.32     0.06   0.06  -0.13
    18   1     0.07   0.15  -0.04    -0.06   0.22  -0.32     0.03  -0.10   0.15
    19   6    -0.00  -0.02  -0.04    -0.01  -0.00  -0.05    -0.03   0.02  -0.06
    20   1    -0.00   0.05   0.06     0.03   0.10   0.06     0.13   0.17   0.03
    21   1     0.07   0.05   0.04     0.08   0.02   0.09     0.05  -0.02   0.11
    22   1    -0.11  -0.09   0.03    -0.09  -0.15   0.04    -0.05  -0.17   0.02
                     31                     32                     33
                      A                      A                      A
 Frequencies --   1363.9460              1379.7717              1424.5044
 Red. masses --      1.4927                 1.3485                 1.3560
 Frc consts  --      1.6361                 1.5126                 1.6212
 IR Inten    --      9.1562                 1.7841                 6.1016
  Atom  AN      X      Y      Z        X      Y      Z        X      Y      Z
     1   6     0.01  -0.02   0.01    -0.13  -0.04   0.06     0.09   0.03  -0.02
     2   1    -0.12  -0.07   0.06     0.33   0.13  -0.13    -0.28  -0.09   0.13
     3   1     0.05  -0.05  -0.05     0.63   0.18  -0.22    -0.22  -0.10   0.03
     4   6    -0.07  -0.02  -0.02    -0.03   0.05  -0.01    -0.07   0.01   0.01
     5   1    -0.27   0.08  -0.10     0.22  -0.05   0.07     0.42  -0.11   0.03
     6   1     0.65  -0.16   0.16     0.32  -0.14  -0.05     0.15  -0.04   0.05
     7   7     0.03   0.15   0.04     0.00  -0.03  -0.03    -0.00  -0.03  -0.03
     8   6    -0.01  -0.05  -0.01    -0.01  -0.00   0.00    -0.01   0.01   0.01
     9   1     0.01   0.04   0.00     0.02   0.08  -0.00     0.06  -0.01  -0.09
    10   1    -0.05  -0.01   0.00     0.05   0.03   0.04     0.07  -0.02   0.01
    11   1    -0.01   0.01  -0.05     0.05   0.07   0.03    -0.04   0.00  -0.02
    12   6    -0.02  -0.06  -0.00    -0.01   0.01   0.01    -0.02   0.02   0.03
    13   1     0.14   0.07   0.13     0.02  -0.04  -0.03     0.06  -0.11  -0.06
    14   1     0.11   0.21  -0.11     0.02  -0.03  -0.04     0.06  -0.11  -0.12
    15   1     0.11  -0.04  -0.14     0.00   0.01  -0.01     0.11  -0.00  -0.04
    16   6    -0.01  -0.05  -0.03    -0.00   0.01   0.01    -0.00   0.01   0.01
    17   1     0.08  -0.20   0.20     0.01   0.05  -0.08     0.02   0.04  -0.09
    18   1     0.09   0.29  -0.16    -0.00  -0.05   0.06     0.00  -0.01   0.03
    19   6    -0.01   0.01   0.01     0.02  -0.05  -0.01    -0.09  -0.06   0.02
    20   1     0.05   0.01  -0.02     0.07   0.06   0.10     0.39   0.16  -0.02
    21   1    -0.01   0.00  -0.00     0.13   0.23  -0.03     0.12   0.35   0.05
    22   1     0.05   0.03  -0.02     0.01   0.17  -0.08     0.31   0.20  -0.20
                     34                     35                     36
                      A                      A                      A
 Frequencies --   1427.7329              1438.4937              1465.9751
 Red. masses --      1.2631                 1.1601                 1.1632
 Frc consts  --      1.5170                 1.4143                 1.4729
 IR Inten    --      1.8413                 1.7676                12.1514
  Atom  AN      X      Y      Z        X      Y      Z        X      Y      Z
     1   6     0.03   0.01   0.00     0.01   0.01  -0.00    -0.01  -0.01  -0.01
     2   1    -0.15  -0.09   0.09    -0.08  -0.06   0.05     0.01   0.07  -0.04
     3   1    -0.01  -0.07  -0.07    -0.02  -0.03  -0.03    -0.00   0.06   0.08
     4   6    -0.08   0.03  -0.00    -0.01  -0.00  -0.01     0.05  -0.01  -0.01
     5   1     0.43  -0.15   0.12     0.00  -0.04   0.05    -0.18  -0.03   0.10
     6   1     0.30  -0.05   0.09     0.03   0.04   0.06    -0.21   0.15   0.05
     7   7     0.01  -0.03  -0.04    -0.00   0.00   0.00    -0.04  -0.01   0.02
     8   6    -0.02  -0.00   0.01    -0.05  -0.07  -0.03    -0.02  -0.04  -0.02
     9   1     0.08   0.11  -0.10     0.12   0.45  -0.05     0.07   0.28  -0.01
    10   1     0.16   0.02   0.08     0.35   0.21   0.32     0.17   0.17   0.23
    11   1     0.02   0.05   0.02     0.18   0.16   0.08     0.09   0.12   0.01
    12   6    -0.02   0.02   0.03     0.06  -0.02  -0.04    -0.04   0.02   0.04
    13   1     0.05  -0.10  -0.06    -0.39   0.19   0.03     0.27  -0.29  -0.14
    14   1     0.07  -0.09  -0.12    -0.19   0.03   0.34     0.14  -0.04  -0.24
    15   1     0.09   0.01  -0.05    -0.23   0.04   0.08     0.21   0.03  -0.21
    16   6    -0.01   0.01   0.01     0.00  -0.00  -0.00    -0.01  -0.02   0.02
    17   1     0.01   0.02  -0.03     0.00  -0.02   0.03     0.24   0.04  -0.29
    18   1     0.00  -0.07   0.07    -0.00   0.03  -0.03     0.17   0.34  -0.05
    19   6     0.06   0.07  -0.00    -0.01  -0.01   0.01     0.01  -0.01   0.00
    20   1    -0.38  -0.20  -0.06     0.05   0.02  -0.01     0.03   0.02   0.01
    21   1    -0.13  -0.37   0.01     0.01   0.04  -0.00    -0.03   0.01  -0.06
    22   1    -0.17  -0.25   0.19     0.04   0.04  -0.03    -0.06   0.04   0.00
                     37                     38                     39
                      A                      A                      A
 Frequencies --   1477.5025              1479.5708              1490.1633
 Red. masses --      1.0727                 1.0744                 1.0724
 Frc consts  --      1.3797                 1.3858                 1.4030
 IR Inten    --     10.8435                 3.6417                 4.6788
  Atom  AN      X      Y      Z        X      Y      Z        X      Y      Z
     1   6    -0.01   0.00  -0.00     0.00   0.03   0.01     0.02  -0.06  -0.02
     2   1     0.04   0.01  -0.02     0.06  -0.21   0.09    -0.27   0.48  -0.16
     3   1    -0.02   0.01   0.02    -0.05  -0.15  -0.19     0.06   0.33   0.47
     4   6     0.02  -0.01  -0.00    -0.00   0.01   0.02    -0.02  -0.00   0.03
     5   1    -0.12  -0.02   0.06     0.10   0.05  -0.09     0.13   0.10  -0.21
     6   1    -0.07   0.08   0.06    -0.08  -0.08  -0.12     0.01  -0.19  -0.16
     7   7    -0.00   0.00   0.00    -0.00  -0.03  -0.01    -0.01  -0.01  -0.01
     8   6    -0.03  -0.00  -0.01     0.01  -0.04  -0.02    -0.00  -0.00   0.00
     9   1     0.11   0.26  -0.09    -0.10  -0.04   0.14     0.04   0.03  -0.05
    10   1     0.35  -0.07   0.06    -0.31   0.30   0.17     0.03   0.04   0.05
    11   1    -0.01  -0.17   0.10     0.18   0.40  -0.10    -0.01   0.04  -0.04
    12   6    -0.04  -0.00  -0.00    -0.02  -0.01  -0.02     0.00  -0.01  -0.02
    13   1     0.39   0.06   0.16     0.29   0.21   0.25     0.08   0.14   0.13
    14   1     0.18   0.11  -0.28     0.12   0.13  -0.18     0.04   0.06  -0.05
    15   1    -0.03  -0.06   0.16    -0.16  -0.08   0.30    -0.11  -0.04   0.17
    16   6     0.02   0.03  -0.03    -0.00   0.00   0.01    -0.01  -0.00   0.01
    17   1    -0.26  -0.04   0.34     0.03   0.03  -0.07     0.06   0.01  -0.08
    18   1    -0.18  -0.38   0.04     0.02   0.02   0.01     0.05   0.06   0.02
    19   6    -0.01  -0.01  -0.00    -0.00   0.00   0.00    -0.00   0.01   0.00
    20   1     0.03   0.02   0.01    -0.00   0.00   0.01    -0.05  -0.11  -0.13
    21   1     0.02   0.03   0.01    -0.01  -0.01   0.01     0.04   0.05   0.04
    22   1     0.03   0.02  -0.02    -0.00   0.01  -0.00     0.10  -0.15   0.03
                     40                     41                     42
                      A                      A                      A
 Frequencies --   1502.1945              1507.8071              1510.6359
 Red. masses --      1.0528                 1.0696                 1.0560
 Frc consts  --      1.3998                 1.4327                 1.4198
 IR Inten    --      4.2165                15.6915                12.9891
  Atom  AN      X      Y      Z        X      Y      Z        X      Y      Z
     1   6     0.00   0.02   0.01    -0.02   0.02  -0.00    -0.01  -0.00  -0.01
     2   1     0.04  -0.13   0.05     0.10  -0.12   0.02    -0.08   0.05  -0.01
     3   1    -0.03  -0.09  -0.11     0.02  -0.04  -0.12     0.07   0.10   0.06
     4   6    -0.00   0.01   0.04     0.02  -0.00   0.03     0.00  -0.01  -0.05
     5   1     0.11   0.17  -0.29    -0.07   0.16  -0.22    -0.07  -0.20   0.31
     6   1    -0.08  -0.23  -0.26    -0.08  -0.15  -0.19     0.03   0.26   0.27
     7   7    -0.01  -0.01   0.00    -0.00   0.02   0.02     0.01  -0.02  -0.01
     8   6    -0.01   0.01  -0.02    -0.01  -0.02  -0.00     0.01   0.00  -0.00
     9   1    -0.11   0.18   0.21     0.06   0.05  -0.09    -0.07  -0.08   0.08
    10   1     0.14  -0.18  -0.13     0.08   0.05   0.08    -0.15   0.04  -0.02
    11   1     0.15  -0.20   0.31    -0.04   0.01  -0.06     0.06   0.10  -0.00
    12   6     0.01  -0.02   0.02    -0.01   0.03   0.00     0.00  -0.02   0.01
    13   1     0.12  -0.17  -0.10    -0.11  -0.00  -0.04     0.09  -0.07  -0.02
    14   1     0.04   0.37   0.06    -0.04  -0.35  -0.06     0.02   0.29   0.06
    15   1    -0.25   0.19  -0.25     0.32  -0.12   0.05    -0.23   0.13  -0.13
    16   6    -0.00  -0.00   0.01     0.00  -0.00  -0.01    -0.00   0.00   0.00
    17   1     0.05   0.02  -0.08    -0.01  -0.03   0.06    -0.01   0.02  -0.02
    18   1     0.03   0.06   0.01    -0.01   0.01  -0.03     0.00  -0.04   0.04
    19   6    -0.01   0.01  -0.00    -0.02   0.01  -0.02    -0.02   0.01  -0.02
    20   1    -0.04  -0.04  -0.04    -0.27  -0.09   0.02    -0.26  -0.07   0.06
    21   1     0.04   0.02   0.07     0.24   0.01   0.42     0.22  -0.01   0.39
    22   1     0.08  -0.07   0.00     0.40  -0.16  -0.08     0.38  -0.09  -0.10
                     43                     44                     45
                      A                      A                      A
 Frequencies --   1515.9970              1522.1194              1535.2627
 Red. masses --      1.0729                 1.0870                 1.0559
 Frc consts  --      1.4527                 1.4838                 1.4664
 IR Inten    --      2.3417                10.9321                28.2724
  Atom  AN      X      Y      Z        X      Y      Z        X      Y      Z
     1   6     0.01  -0.00  -0.01     0.02  -0.03  -0.02     0.00  -0.00  -0.00
     2   1     0.02  -0.05   0.00    -0.18   0.12  -0.03    -0.04  -0.02   0.01
     3   1    -0.02  -0.03  -0.02    -0.03   0.09   0.18     0.01   0.01  -0.00
     4   6    -0.00   0.01   0.01    -0.01  -0.00   0.01     0.00  -0.00  -0.02
     5   1     0.06   0.01  -0.02     0.01   0.06  -0.10    -0.03  -0.09   0.15
     6   1    -0.02  -0.03  -0.04     0.02  -0.08  -0.05     0.07   0.11   0.13
     7   7    -0.03  -0.01   0.00     0.03   0.01  -0.01    -0.02   0.01  -0.03
     8   6    -0.00   0.03   0.03    -0.00  -0.03  -0.03     0.00   0.02  -0.02
     9   1     0.16  -0.04  -0.24    -0.16   0.08   0.26    -0.19   0.17   0.35
    10   1     0.19  -0.08  -0.02    -0.16   0.07   0.02     0.02  -0.24  -0.23
    11   1    -0.24  -0.19  -0.12     0.26   0.18   0.15     0.21  -0.20   0.37
    12   6     0.02  -0.02  -0.02    -0.01   0.02   0.02     0.00   0.01  -0.02
    13   1     0.07   0.14   0.12    -0.06  -0.13  -0.11    -0.04   0.24   0.17
    14   1     0.04   0.11  -0.01    -0.03  -0.11   0.00     0.02  -0.26  -0.11
    15   1    -0.18  -0.01   0.15     0.17   0.01  -0.13     0.11  -0.17   0.32
    16   6    -0.01  -0.02   0.02     0.01   0.02  -0.02    -0.01  -0.01   0.02
    17   1     0.14   0.02  -0.17    -0.13  -0.02   0.17     0.14   0.02  -0.17
    18   1     0.09   0.21  -0.03    -0.09  -0.20   0.03     0.10   0.17   0.00
    19   6     0.01  -0.02  -0.03     0.01  -0.02  -0.02    -0.00   0.00   0.00
    20   1    -0.17   0.24   0.45    -0.08   0.23   0.39    -0.03  -0.01   0.00
    21   1     0.01  -0.30   0.19    -0.04  -0.26   0.09     0.02  -0.00   0.04
    22   1    -0.06   0.33  -0.14    -0.10   0.35  -0.12     0.05  -0.01  -0.01
                     46                     47                     48
                      A                      A                      A
 Frequencies --   2997.4717              3045.9244              3052.6076
 Red. masses --      1.0535                 1.0641                 1.0384
 Frc consts  --      5.5769                 5.8166                 5.7008
 IR Inten    --     70.9256                11.5699                31.4024
  Atom  AN      X      Y      Z        X      Y      Z        X      Y      Z
     1   6    -0.00   0.00  -0.00    -0.01   0.02  -0.01     0.00  -0.00   0.00
     2   1     0.00   0.00   0.00    -0.02  -0.02  -0.06    -0.00  -0.01  -0.01
     3   1     0.00  -0.00   0.00     0.11  -0.20   0.14    -0.03   0.06  -0.04
     4   6    -0.00   0.00   0.00    -0.02  -0.03   0.06     0.00   0.00   0.00
     5   1    -0.00  -0.01  -0.01    -0.07  -0.29  -0.15    -0.01  -0.01  -0.01
     6   1    -0.00  -0.00   0.00     0.26   0.60  -0.55     0.00   0.01  -0.00
     7   7    -0.00   0.00  -0.00    -0.00  -0.00   0.00    -0.00   0.00   0.00
     8   6    -0.00  -0.00   0.00     0.00   0.01  -0.00     0.00   0.00  -0.00
     9   1     0.01  -0.00   0.00    -0.03   0.01  -0.02    -0.00   0.00  -0.00
    10   1     0.01   0.03  -0.03    -0.02  -0.07   0.08    -0.00  -0.00   0.00
    11   1    -0.01   0.01   0.01     0.02  -0.01  -0.02     0.00  -0.00  -0.00
    12   6    -0.00  -0.00   0.00     0.01   0.00  -0.01    -0.00  -0.00   0.00
    13   1     0.01   0.03  -0.03    -0.04  -0.14   0.16     0.00   0.00  -0.01
    14   1     0.01  -0.00   0.01    -0.07   0.01  -0.05     0.00  -0.00   0.00
    15   1    -0.01  -0.02  -0.01     0.03   0.09   0.03    -0.00  -0.00  -0.00
    16   6    -0.05  -0.03   0.00    -0.00  -0.00  -0.00    -0.00   0.00   0.00
    17   1     0.30   0.66   0.35     0.01   0.02   0.01    -0.00  -0.01  -0.00
    18   1     0.37  -0.26  -0.36    -0.00   0.00   0.00     0.02  -0.01  -0.02
    19   6    -0.00   0.00  -0.00     0.00  -0.00   0.00    -0.04  -0.03  -0.01
    20   1     0.01  -0.02   0.01    -0.01   0.02  -0.02    -0.17   0.31  -0.23
    21   1    -0.00   0.00  -0.00    -0.01   0.00   0.01     0.43  -0.19  -0.26
    22   1    -0.00   0.00  -0.00     0.00   0.00   0.01     0.20   0.25   0.64
                     49                     50                     51
                      A                      A                      A
 Frequencies --   3062.2134              3066.4811              3068.9963
 Red. masses --      1.0404                 1.1032                 1.0521
 Frc consts  --      5.7480                 6.1122                 5.8386
 IR Inten    --     32.2192                56.0245                 7.1941
  Atom  AN      X      Y      Z        X      Y      Z        X      Y      Z
     1   6     0.00  -0.01   0.00    -0.00  -0.00  -0.00     0.01  -0.05  -0.00
     2   1     0.00   0.00   0.01     0.02   0.03   0.07     0.09   0.13   0.33
     3   1    -0.04   0.07  -0.05    -0.02   0.03  -0.02    -0.24   0.45  -0.32
     4   6     0.00   0.01  -0.01    -0.00  -0.00   0.00    -0.00   0.00   0.01
     5   1     0.01   0.05   0.02     0.00   0.01   0.01    -0.02  -0.08  -0.04
     6   1    -0.05  -0.11   0.10     0.01   0.01  -0.02     0.01   0.02  -0.02
     7   7    -0.00   0.00  -0.00    -0.00   0.00   0.00    -0.00   0.00  -0.00
     8   6    -0.01  -0.02   0.01     0.00  -0.00  -0.00     0.01   0.03  -0.01
     9   1     0.12  -0.04   0.08     0.01  -0.00   0.00    -0.21   0.07  -0.15
    10   1     0.07   0.19  -0.23     0.00  -0.00  -0.00    -0.13  -0.34   0.39
    11   1    -0.10   0.05   0.08    -0.01   0.00   0.01     0.19  -0.10  -0.17
    12   6     0.03   0.01  -0.04     0.00  -0.00  -0.00     0.01   0.00  -0.01
    13   1    -0.15  -0.47   0.56    -0.01  -0.03   0.03    -0.03  -0.10   0.13
    14   1    -0.28   0.06  -0.20    -0.02   0.00  -0.02    -0.06   0.01  -0.04
    15   1     0.13   0.34   0.13     0.02   0.04   0.01     0.03   0.08   0.03
    16   6     0.00  -0.01  -0.00    -0.03   0.07   0.06    -0.00  -0.01  -0.00
    17   1     0.02   0.05   0.03    -0.25  -0.45  -0.24     0.03   0.05   0.03
    18   1    -0.02   0.02   0.02     0.56  -0.34  -0.47    -0.02   0.01   0.01
    19   6    -0.00   0.00  -0.00     0.00   0.00  -0.00    -0.00   0.01   0.00
    20   1     0.00  -0.00   0.00     0.01  -0.01   0.01     0.02  -0.05   0.04
    21   1     0.01  -0.00  -0.00    -0.01   0.00   0.01     0.02  -0.01  -0.01
    22   1     0.00   0.00   0.01    -0.01  -0.01  -0.02    -0.01  -0.01  -0.04
                     52                     53                     54
                      A                      A                      A
 Frequencies --   3075.1572              3107.9976              3118.3512
 Red. masses --      1.0526                 1.0977                 1.1013
 Frc consts  --      5.8647                 6.2472                 6.3095
 IR Inten    --     66.0832                 8.1394                11.7784
  Atom  AN      X      Y      Z        X      Y      Z        X      Y      Z
     1   6    -0.01   0.04  -0.00    -0.03   0.00  -0.07     0.01  -0.01   0.01
     2   1    -0.08  -0.10  -0.27     0.17   0.27   0.63    -0.03  -0.04  -0.09
     3   1     0.22  -0.40   0.29     0.17  -0.31   0.21    -0.06   0.11  -0.08
     4   6     0.00   0.00  -0.02     0.00   0.01  -0.00    -0.02  -0.08  -0.01
     5   1     0.04   0.19   0.11    -0.01  -0.05  -0.03     0.14   0.68   0.40
     6   1    -0.08  -0.19   0.18    -0.03  -0.07   0.06     0.11   0.24  -0.23
     7   7    -0.00   0.00  -0.00     0.00   0.00  -0.00    -0.00  -0.00  -0.00
     8   6     0.01   0.03  -0.01    -0.00  -0.00   0.01    -0.00   0.00  -0.00
     9   1    -0.21   0.06  -0.14     0.00  -0.00   0.00     0.03  -0.01   0.02
    10   1    -0.13  -0.35   0.40     0.01   0.04  -0.04    -0.00  -0.00   0.01
    11   1     0.17  -0.09  -0.15     0.03  -0.02  -0.03    -0.02   0.01   0.02
    12   6     0.01   0.00  -0.01     0.00  -0.00   0.00     0.00   0.01  -0.00
    13   1    -0.04  -0.13   0.16    -0.00  -0.00   0.00    -0.01  -0.02   0.02
    14   1    -0.08   0.02  -0.06    -0.01   0.00  -0.00     0.01   0.00   0.00
    15   1     0.04   0.10   0.04     0.00   0.01   0.00    -0.03  -0.06  -0.03
    16   6    -0.00   0.00   0.00     0.00  -0.00  -0.00     0.00  -0.00  -0.00
    17   1     0.01   0.01   0.01     0.01   0.01   0.01     0.01   0.02   0.01
    18   1     0.04  -0.02  -0.03    -0.02   0.01   0.02    -0.00   0.00   0.00
    19   6     0.00  -0.01  -0.00    -0.01   0.01   0.05    -0.02   0.02   0.03
    20   1    -0.02   0.05  -0.03    -0.10   0.18  -0.12    -0.01   0.02  -0.00
    21   1    -0.02   0.01   0.01     0.30  -0.13  -0.16     0.27  -0.12  -0.15
    22   1     0.01   0.01   0.04    -0.10  -0.12  -0.31    -0.08  -0.09  -0.23
                     55                     56                     57
                      A                      A                      A
 Frequencies --   3126.0836              3149.3102              3157.2184
 Red. masses --      1.0991                 1.1013                 1.0981
 Frc consts  --      6.3281                 6.4354                 6.4491
 IR Inten    --     35.3421                16.9004                12.6298
  Atom  AN      X      Y      Z        X      Y      Z        X      Y      Z
     1   6     0.01   0.01   0.04     0.01  -0.01   0.01     0.00  -0.00  -0.00
     2   1    -0.12  -0.19  -0.44    -0.02  -0.04  -0.08     0.00   0.00   0.01
     3   1    -0.06   0.12  -0.08    -0.06   0.12  -0.08    -0.00   0.01  -0.00
     4   6     0.01   0.04   0.01    -0.00  -0.00   0.00    -0.00  -0.01  -0.00
     5   1    -0.07  -0.35  -0.21     0.00   0.02   0.01     0.01   0.06   0.04
     6   1    -0.04  -0.09   0.09     0.01   0.01  -0.01     0.01   0.03  -0.03
     7   7     0.00   0.00   0.00    -0.00   0.00  -0.00     0.00  -0.00   0.00
     8   6     0.00   0.00  -0.00     0.00   0.00  -0.00    -0.00   0.00  -0.01
     9   1    -0.01   0.00  -0.01     0.01  -0.00   0.01     0.04  -0.01   0.03
    10   1    -0.01  -0.03   0.04    -0.00  -0.01   0.01    -0.01  -0.02   0.03
    11   1    -0.03   0.02   0.02    -0.01   0.01   0.01    -0.03   0.02   0.03
    12   6    -0.00  -0.00  -0.00     0.00   0.00  -0.00    -0.01  -0.09   0.03
    13   1     0.00   0.01  -0.02    -0.00  -0.01   0.01     0.10   0.33  -0.40
    14   1     0.00  -0.00   0.00     0.01  -0.00   0.00    -0.28   0.03  -0.19
    15   1     0.02   0.04   0.02    -0.01  -0.02  -0.01     0.26   0.66   0.28
    16   6    -0.00   0.00   0.00    -0.00  -0.00   0.00     0.00  -0.00  -0.00
    17   1    -0.01  -0.02  -0.01     0.01   0.01   0.01     0.01   0.01   0.00
    18   1     0.02  -0.01  -0.02     0.01  -0.01  -0.01    -0.02   0.01   0.01
    19   6    -0.02   0.02   0.06     0.06  -0.06   0.04     0.00  -0.00   0.00
    20   1    -0.03   0.06  -0.02    -0.33   0.65  -0.47    -0.01   0.01  -0.01
    21   1     0.44  -0.19  -0.25    -0.32   0.13   0.20    -0.01   0.00   0.01
    22   1    -0.14  -0.17  -0.42    -0.05  -0.09  -0.19     0.00  -0.00   0.00
                     58                     59                     60
                      A                      A                      A
 Frequencies --   3169.1968              3191.3510              3196.1301
 Red. masses --      1.0962                 1.1049                 1.1047
 Frc consts  --      6.4872                 6.6303                 6.6489
 IR Inten    --     11.4323                 3.3543                 5.7420
  Atom  AN      X      Y      Z        X      Y      Z        X      Y      Z
     1   6     0.00   0.00   0.01    -0.00  -0.00  -0.00     0.00   0.00   0.00
     2   1    -0.02  -0.03  -0.07     0.01   0.01   0.03    -0.01  -0.01  -0.03
     3   1    -0.01   0.02  -0.01     0.00  -0.00   0.00    -0.00   0.00  -0.00
     4   6    -0.00  -0.00   0.00    -0.00  -0.00  -0.00     0.00   0.00   0.00
     5   1     0.00   0.02   0.01     0.01   0.03   0.02     0.00  -0.00   0.00
     6   1     0.01   0.02  -0.02     0.00   0.00  -0.00     0.00   0.00   0.00
     7   7     0.00  -0.00   0.00    -0.00  -0.00  -0.00    -0.00   0.00  -0.00
     8   6    -0.01  -0.02   0.09     0.04  -0.02   0.00    -0.08   0.03  -0.01
     9   1    -0.43   0.12  -0.27    -0.26   0.08  -0.18     0.54  -0.16   0.38
    10   1     0.12   0.34  -0.39     0.01   0.01  -0.01    -0.02  -0.03   0.04
    11   1     0.46  -0.26  -0.38    -0.22   0.12   0.19     0.39  -0.22  -0.34
    12   6    -0.00  -0.01  -0.00    -0.06  -0.01  -0.06    -0.03  -0.01  -0.03
    13   1     0.01   0.02  -0.03    -0.03  -0.08   0.09    -0.02  -0.05   0.05
    14   1     0.00  -0.00   0.00     0.62  -0.12   0.44     0.32  -0.06   0.22
    15   1     0.02   0.06   0.02     0.13   0.38   0.14     0.07   0.18   0.07
    16   6    -0.00   0.00   0.00     0.00  -0.00  -0.00    -0.00   0.00   0.00
    17   1    -0.01  -0.01  -0.01     0.00   0.01   0.00     0.00   0.00   0.00
    18   1     0.01  -0.00  -0.01    -0.00   0.00   0.00     0.01  -0.00  -0.01
    19   6     0.00  -0.00   0.00     0.00  -0.00  -0.00     0.00   0.00   0.00
    20   1    -0.01   0.01  -0.01    -0.00   0.00  -0.00    -0.00  -0.00  -0.00
    21   1     0.00  -0.00  -0.00    -0.00   0.00   0.00     0.00  -0.00  -0.00
    22   1    -0.00  -0.01  -0.01     0.00   0.00   0.00    -0.00  -0.00  -0.00

 -------------------
 - Thermochemistry -
 -------------------
 Temperature   298.150 Kelvin.  Pressure   1.00000 Atm.
 Atom     1 has atomic number  6 and mass  12.00000
 Atom     2 has atomic number  1 and mass   1.00783
 Atom     3 has atomic number  1 and mass   1.00783
 Atom     4 has atomic number  6 and mass  12.00000
 Atom     5 has atomic number  1 and mass   1.00783
 Atom     6 has atomic number  1 and mass   1.00783
 Atom     7 has atomic number  7 and mass  14.00307
 Atom     8 has atomic number  6 and mass  12.00000
 Atom     9 has atomic number  1 and mass   1.00783
 Atom    10 has atomic number  1 and mass   1.00783
 Atom    11 has atomic number  1 and mass   1.00783
 Atom    12 has atomic number  6 and mass  12.00000
 Atom    13 has atomic number  1 and mass   1.00783
 Atom    14 has atomic number  1 and mass   1.00783
 Atom    15 has atomic number  1 and mass   1.00783
 Atom    16 has atomic number  6 and mass  12.00000
 Atom    17 has atomic number  1 and mass   1.00783
 Atom    18 has atomic number  1 and mass   1.00783
 Atom    19 has atomic number  6 and mass  12.00000
 Atom    20 has atomic number  1 and mass   1.00783
 Atom    21 has atomic number  1 and mass   1.00783
 Atom    22 has atomic number  1 and mass   1.00783
 Molecular mass:   101.12045 amu.
 Principal axes and moments of inertia in atomic units:
                           1         2         3
     Eigenvalues --   436.945041102.037831134.26928
           X            0.99984   0.01488  -0.01013
           Y           -0.01269   0.98184   0.18931
           Z            0.01276  -0.18915   0.98187
 This molecule is an asymmetric top.
 Rotational symmetry number  1.
 Warning -- assumption of classical behavior for rotation
           may cause significant error
 Rotational temperatures (Kelvin)      0.19823     0.07859     0.07636
 Rotational constants (GHZ):           4.13036     1.63764     1.59110
 Zero-point vibrational energy     543411.2 (Joules/Mol)
                                  129.87840 (Kcal/Mol)
 Warning -- explicit consideration of  13 degrees of freedom as
           vibrations may cause significant error
 Vibrational temperatures:    145.28   173.64   319.18   329.24   408.64
          (Kelvin)            444.68   485.02   507.19   586.47   623.21
                              669.79   689.75   757.75  1011.25  1088.30
                             1211.52  1292.22  1359.83  1384.78  1477.76
                             1521.81  1578.00  1588.47  1601.68  1643.00
                             1698.43  1769.06  1825.64  1870.04  1915.32
                             1962.41  1985.18  2049.54  2054.19  2069.67
                             2109.21  2125.80  2128.77  2144.01  2161.32
                             2169.40  2173.47  2181.18  2189.99  2208.90
                             4312.69  4382.41  4392.02  4405.84  4411.98
                             4415.60  4424.47  4471.72  4486.61  4497.74
                             4531.15  4542.53  4559.77  4591.64  4598.52
 
 Zero-point correction=                           0.206974 (Hartree/Particle)
 Thermal correction to Energy=                    0.215862
 Thermal correction to Enthalpy=                  0.216807
 Thermal correction to Gibbs Free Energy=         0.174590
 Sum of electronic and zero-point Energies=           -292.106403
 Sum of electronic and thermal Energies=              -292.097515
 Sum of electronic and thermal Enthalpies=            -292.096571
 Sum of electronic and thermal Free Energies=         -292.138787
 
                     E (Thermal)             CV                S
                      KCal/Mol        Cal/Mol-Kelvin    Cal/Mol-Kelvin
 Total                  135.456             34.001             88.852
 Electronic               0.000              0.000              0.000
 Translational            0.889              2.981             39.751
 Rotational               0.889              2.981             27.793
 Vibrational            133.678             28.039             21.308
 Vibration     1          0.604              1.948              3.435
 Vibration     2          0.609              1.932              3.089
 Vibration     3          0.648              1.808              1.944
 Vibration     4          0.652              1.797              1.888
 Vibration     5          0.682              1.703              1.509
 Vibration     6          0.698              1.656              1.367
 Vibration     7          0.718              1.601              1.226
 Vibration     8          0.729              1.570              1.155
 Vibration     9          0.772              1.454              0.935
 Vibration    10          0.794              1.398              0.848
 Vibration    11          0.823              1.327              0.750
 Vibration    12          0.836              1.296              0.712
 Vibration    13          0.882              1.191              0.595
                       Q            Log10(Q)             Ln(Q)
 Total Bot       0.494605D-80        -80.305741       -184.910802
 Total V=0       0.786674D+15         14.895795         34.298835
 Vib (Bot)       0.467769D-93        -93.329969       -214.900195
 Vib (Bot)    1  0.203214D+01          0.307954          0.709091
 Vib (Bot)    2  0.169307D+01          0.228675          0.526544
 Vib (Bot)    3  0.890940D+00         -0.050151         -0.115478
 Vib (Bot)    4  0.861134D+00         -0.064929         -0.149506
 Vib (Bot)    5  0.675490D+00         -0.170381         -0.392316
 Vib (Bot)    6  0.612148D+00         -0.213144         -0.490782
 Vib (Bot)    7  0.551827D+00         -0.258197         -0.594521
 Vib (Bot)    8  0.522520D+00         -0.281897         -0.649092
 Vib (Bot)    9  0.434808D+00         -0.361702         -0.832850
 Vib (Bot)   10  0.401265D+00         -0.396569         -0.913134
 Vib (Bot)   11  0.363694D+00         -0.439264         -1.011443
 Vib (Bot)   12  0.349045D+00         -0.457119         -1.052555
 Vib (Bot)   13  0.304608D+00         -0.516258         -1.188729
 Vib (V=0)       0.743990D+02          1.871567          4.309442
 Vib (V=0)    1  0.259275D+01          0.413761          0.952719
 Vib (V=0)    2  0.226536D+01          0.355137          0.817733
 Vib (V=0)    3  0.152165D+01          0.182316          0.419797
 Vib (V=0)    4  0.149577D+01          0.174864          0.402639
 Vib (V=0)    5  0.134041D+01          0.127237          0.292975
 Vib (V=0)    6  0.129040D+01          0.110723          0.254949
 Vib (V=0)    7  0.124466D+01          0.095049          0.218859
 Vib (V=0)    8  0.122321D+01          0.087500          0.201476
 Vib (V=0)    9  0.116261D+01          0.065436          0.150672
 Vib (V=0)   10  0.114110D+01          0.057325          0.131996
 Vib (V=0)   11  0.111828D+01          0.048552          0.111794
 Vib (V=0)   12  0.110978D+01          0.045237          0.104162
 Vib (V=0)   13  0.108548D+01          0.035622          0.082022
 Electronic      0.100000D+01          0.000000          0.000000
 Translational   0.399680D+08          7.601712         17.503590
 Rotational      0.264555D+06          5.422515         12.485803
 ***** Axes restored to original set *****
 -------------------------------------------------------------------
 Center     Atomic                   Forces (Hartrees/Bohr)
 Number     Number              X              Y              Z
 -------------------------------------------------------------------
      1        6          -0.000014447   -0.000004105    0.000001637
      2        1          -0.000006131   -0.000006379    0.000005560
      3        1          -0.000004114   -0.000005778    0.000002099
      4        6           0.000012221    0.000006035   -0.000002152
      5        1          -0.000002495    0.000000662    0.000003361
      6        1          -0.000003211   -0.000005407    0.000003388
      7        7          -0.000012335   -0.000035668    0.000007843
      8        6           0.000013844    0.000009524   -0.000008501
      9        1          -0.000001179   -0.000001081   -0.000002283
     10        1          -0.000000952   -0.000001178   -0.000001714
     11        1           0.000004642   -0.000000987   -0.000001189
     12        6          -0.000000033   -0.000001426   -0.000012091
     13        1          -0.000001831    0.000001272    0.000000084
     14        1          -0.000000644   -0.000000548    0.000000982
     15        1          -0.000001860   -0.000000297    0.000002555
     16        6          -0.000002702    0.000025751    0.000005660
     17        1           0.000003047   -0.000000824   -0.000000349
     18        1           0.000006957   -0.000000207    0.000004227
     19        6           0.000013673    0.000013769   -0.000013268
     20        1           0.000000040    0.000001917    0.000001094
     21        1          -0.000000675    0.000002569   -0.000001309
     22        1          -0.000001817    0.000002387    0.000004366
 -------------------------------------------------------------------
 Cartesian Forces:  Max     0.000035668 RMS     0.000007850
 FormGI is forming the generalized inverse of G from B-inverse, IUseBI=4.

 GradGradGradGradGradGradGradGradGradGradGradGradGradGradGradGradGradGrad
 Berny optimization.
 Internal  Forces:  Max     0.000025893 RMS     0.000005852
 Search for a local minimum.
 Step number   1 out of a maximum of    2
 All quantities printed in internal units (Hartrees-Bohrs-Radians)
 Second derivative matrix not updated -- analytic derivatives used.
 ITU=  0
     Eigenvalues ---    0.00174   0.00208   0.00252   0.00421   0.00602
     Eigenvalues ---    0.00944   0.03460   0.03621   0.03828   0.03932
     Eigenvalues ---    0.04480   0.04596   0.04695   0.04721   0.04779
     Eigenvalues ---    0.04816   0.04844   0.05766   0.05860   0.06707
     Eigenvalues ---    0.07475   0.07772   0.11355   0.12205   0.12398
     Eigenvalues ---    0.12956   0.13016   0.14257   0.14603   0.15803
     Eigenvalues ---    0.16312   0.16925   0.16998   0.17757   0.18620
     Eigenvalues ---    0.18810   0.22091   0.22718   0.25199   0.27964
     Eigenvalues ---    0.28802   0.30512   0.32512   0.32719   0.32985
     Eigenvalues ---    0.33147   0.33384   0.33750   0.33983   0.34119
     Eigenvalues ---    0.34204   0.34439   0.34656   0.34889   0.35104
     Eigenvalues ---    0.35336   0.35502   0.35799   0.36035   0.41637
 Angle between quadratic step and forces=  69.07 degrees.
 Linear search not attempted -- first point.
 Iteration  1 RMS(Cart)=  0.00013550 RMS(Int)=  0.00000001
 Iteration  2 RMS(Cart)=  0.00000001 RMS(Int)=  0.00000000
 Variable       Old X    -DE/DX   Delta X   Delta X   Delta X     New X
                                 (Linear)    (Quad)   (Total)
    R1        2.05975   0.00001   0.00000   0.00001   0.00001   2.05976
    R2        2.06217   0.00000   0.00000   0.00001   0.00001   2.06217
    R3        2.88857  -0.00001   0.00000  -0.00002  -0.00002   2.88855
    R4        2.88254   0.00003   0.00000   0.00008   0.00008   2.88262
    R5        2.05834  -0.00000   0.00000  -0.00001  -0.00001   2.05833
    R6        2.06466   0.00001   0.00000   0.00002   0.00002   2.06468
    R7        2.86086  -0.00001   0.00000  -0.00001  -0.00001   2.86085
    R8        2.79923  -0.00002   0.00000  -0.00007  -0.00007   2.79916
    R9        2.80106   0.00001   0.00000  -0.00000  -0.00000   2.80106
   R10        2.87773   0.00002   0.00000   0.00018   0.00018   2.87790
   R11        2.05017   0.00000   0.00000   0.00001   0.00001   2.05018
   R12        2.06079   0.00000   0.00000   0.00000   0.00000   2.06079
   R13        2.05123   0.00000   0.00000   0.00000   0.00000   2.05123
   R14        2.06207  -0.00000   0.00000  -0.00000  -0.00000   2.06207
   R15        2.04986   0.00000   0.00000   0.00000   0.00000   2.04986
   R16        2.05348  -0.00000   0.00000  -0.00001  -0.00001   2.05347
   R17        2.07482   0.00000   0.00000   0.00001   0.00001   2.07484
   R18        2.07130   0.00001   0.00000   0.00002   0.00002   2.07132
   R19        2.05710   0.00000   0.00000  -0.00000  -0.00000   2.05710
   R20        2.06005  -0.00000   0.00000  -0.00000  -0.00000   2.06005
   R21        2.06305  -0.00000   0.00000  -0.00002  -0.00002   2.06304
    A1        1.85147  -0.00000   0.00000  -0.00004  -0.00004   1.85143
    A2        1.92124  -0.00001   0.00000  -0.00003  -0.00003   1.92120
    A3        1.90724   0.00000   0.00000   0.00005   0.00005   1.90730
    A4        1.88507  -0.00000   0.00000  -0.00005  -0.00005   1.88502
    A5        1.90951   0.00000   0.00000   0.00002   0.00002   1.90953
    A6        1.98449   0.00000   0.00000   0.00004   0.00004   1.98453
    A7        1.91906   0.00001   0.00000   0.00004   0.00004   1.91909
    A8        1.93301   0.00001   0.00000   0.00000   0.00000   1.93301
    A9        2.01332  -0.00003   0.00000  -0.00004  -0.00004   2.01328
   A10        1.87978  -0.00000   0.00000   0.00003   0.00003   1.87981
   A11        1.83787   0.00001   0.00000   0.00002   0.00002   1.83789
   A12        1.87424   0.00001   0.00000  -0.00004  -0.00004   1.87420
   A13        1.91388  -0.00000   0.00000  -0.00003  -0.00003   1.91384
   A14        1.86746   0.00001   0.00000   0.00005   0.00005   1.86751
   A15        2.04561  -0.00001   0.00000  -0.00007  -0.00007   2.04554
   A16        1.88126   0.00000   0.00000   0.00006   0.00006   1.88132
   A17        1.88141   0.00000   0.00000  -0.00002  -0.00002   1.88139
   A18        1.86794   0.00000   0.00000   0.00002   0.00002   1.86796
   A19        1.87366  -0.00000   0.00000  -0.00001  -0.00001   1.87365
   A20        1.92168  -0.00000   0.00000   0.00000   0.00000   1.92168
   A21        1.90687  -0.00000   0.00000   0.00001   0.00001   1.90688
   A22        1.94620   0.00000   0.00000  -0.00002  -0.00002   1.94618
   A23        1.89541   0.00000   0.00000   0.00003   0.00003   1.89544
   A24        1.91903   0.00000   0.00000  -0.00001  -0.00001   1.91903
   A25        1.92416   0.00000   0.00000  -0.00001  -0.00001   1.92415
   A26        1.88033  -0.00000   0.00000  -0.00000  -0.00000   1.88033
   A27        1.89037   0.00000   0.00000   0.00001   0.00001   1.89038
   A28        1.94687  -0.00000   0.00000  -0.00003  -0.00003   1.94684
   A29        1.92129  -0.00000   0.00000   0.00002   0.00002   1.92131
   A30        1.89943  -0.00000   0.00000   0.00001   0.00001   1.89944
   A31        1.82196  -0.00000   0.00000  -0.00008  -0.00008   1.82188
   A32        1.83465  -0.00001   0.00000  -0.00008  -0.00008   1.83458
   A33        1.86882   0.00000   0.00000  -0.00005  -0.00005   1.86877
   A34        1.92952   0.00000   0.00000   0.00000   0.00000   1.92952
   A35        1.93512   0.00000   0.00000   0.00001   0.00001   1.93513
   A36        1.93436  -0.00000   0.00000  -0.00001  -0.00001   1.93435
   A37        1.89321  -0.00000   0.00000  -0.00002  -0.00002   1.89319
   A38        1.88921  -0.00000   0.00000   0.00001   0.00001   1.88922
   A39        1.88082  -0.00000   0.00000   0.00001   0.00001   1.88083
    D1        2.48001   0.00000   0.00000   0.00013   0.00013   2.48014
    D2       -1.72769   0.00001   0.00000   0.00019   0.00019  -1.72750
    D3        0.40544   0.00000   0.00000   0.00011   0.00011   0.40555
    D4       -1.78907  -0.00001   0.00000   0.00003   0.00003  -1.78904
    D5        0.28641   0.00000   0.00000   0.00009   0.00009   0.28651
    D6        2.41954  -0.00000   0.00000   0.00001   0.00001   2.41956
    D7        0.33359  -0.00000   0.00000   0.00006   0.00006   0.33365
    D8        2.40907   0.00000   0.00000   0.00011   0.00011   2.40919
    D9       -1.74098   0.00000   0.00000   0.00003   0.00003  -1.74095
   D10       -1.10143   0.00000   0.00000  -0.00005  -0.00005  -1.10148
   D11        0.99892   0.00000   0.00000  -0.00006  -0.00006   0.99886
   D12        3.08691   0.00000   0.00000  -0.00005  -0.00005   3.08686
   D13       -3.12154  -0.00000   0.00000  -0.00004  -0.00004  -3.12158
   D14       -1.02119  -0.00000   0.00000  -0.00006  -0.00006  -1.02124
   D15        1.06680  -0.00000   0.00000  -0.00005  -0.00005   1.06676
   D16        1.05264  -0.00000   0.00000  -0.00002  -0.00002   1.05261
   D17       -3.13020  -0.00000   0.00000  -0.00004  -0.00004  -3.13024
   D18       -1.04221  -0.00000   0.00000  -0.00003  -0.00003  -1.04224
   D19       -1.22531   0.00000   0.00000  -0.00002  -0.00002  -1.22533
   D20        3.02209   0.00000   0.00000  -0.00011  -0.00011   3.02199
   D21        0.92611  -0.00000   0.00000  -0.00013  -0.00013   0.92598
   D22        2.93885   0.00000   0.00000  -0.00006  -0.00006   2.93880
   D23        0.90307   0.00000   0.00000  -0.00014  -0.00014   0.90293
   D24       -1.19291  -0.00000   0.00000  -0.00017  -0.00017  -1.19308
   D25        0.93898   0.00000   0.00000  -0.00008  -0.00008   0.93890
   D26       -1.09681  -0.00000   0.00000  -0.00016  -0.00016  -1.09697
   D27        3.09040  -0.00001   0.00000  -0.00019  -0.00019   3.09021
   D28       -3.10065  -0.00001   0.00000  -0.00027  -0.00027  -3.10091
   D29       -0.97898  -0.00001   0.00000  -0.00030  -0.00030  -0.97928
   D30        1.13024  -0.00001   0.00000  -0.00030  -0.00030   1.12994
   D31       -1.07358   0.00000   0.00000  -0.00018  -0.00018  -1.07376
   D32        1.04809  -0.00000   0.00000  -0.00022  -0.00022   1.04788
   D33       -3.12588  -0.00000   0.00000  -0.00022  -0.00022  -3.12609
   D34        0.93721   0.00001   0.00000  -0.00014  -0.00014   0.93707
   D35        3.05888   0.00001   0.00000  -0.00017  -0.00017   3.05871
   D36       -1.11509   0.00000   0.00000  -0.00018  -0.00018  -1.11526
   D37        0.95829   0.00000   0.00000  -0.00003  -0.00003   0.95827
   D38        3.08645  -0.00000   0.00000  -0.00006  -0.00006   3.08638
   D39       -1.14484   0.00000   0.00000  -0.00005  -0.00005  -1.14489
   D40       -1.09895   0.00000   0.00000  -0.00005  -0.00005  -1.09900
   D41        1.02921   0.00000   0.00000  -0.00009  -0.00009   1.02912
   D42        3.08110   0.00000   0.00000  -0.00008  -0.00008   3.08103
   D43       -3.11861  -0.00000   0.00000  -0.00006  -0.00006  -3.11867
   D44       -0.99046  -0.00000   0.00000  -0.00010  -0.00010  -0.99056
   D45        1.06144  -0.00000   0.00000  -0.00009  -0.00009   1.06135
   D46        0.89294   0.00000   0.00000  -0.00007  -0.00007   0.89287
   D47       -1.07125   0.00001   0.00000   0.00005   0.00005  -1.07120
   D48        3.06084  -0.00001   0.00000  -0.00018  -0.00018   3.06066
   D49        1.09664  -0.00000   0.00000  -0.00006  -0.00006   1.09659
   D50       -1.20279  -0.00000   0.00000  -0.00011  -0.00011  -1.20290
   D51        3.11620   0.00000   0.00000   0.00001   0.00001   3.11621
         Item               Value     Threshold  Converged?
 Maximum Force            0.000026     0.000450     YES
 RMS     Force            0.000006     0.000300     YES
 Maximum Displacement     0.000506     0.001800     YES
 RMS     Displacement     0.000136     0.001200     YES
 Predicted change in Energy=-1.048110D-08
 Optimization completed.
    -- Stationary point found.
                           ----------------------------
                           !   Optimized Parameters   !
                           ! (Angstroms and Degrees)  !
 --------------------------                            --------------------------
 ! Name  Definition              Value          Derivative Info.                !
 --------------------------------------------------------------------------------
 ! R1    R(1,2)                  1.09           -DE/DX =    0.0                 !
 ! R2    R(1,3)                  1.0913         -DE/DX =    0.0                 !
 ! R3    R(1,4)                  1.5286         -DE/DX =    0.0                 !
 ! R4    R(1,19)                 1.5254         -DE/DX =    0.0                 !
 ! R5    R(4,5)                  1.0892         -DE/DX =    0.0                 !
 ! R6    R(4,6)                  1.0926         -DE/DX =    0.0                 !
 ! R7    R(4,7)                  1.5139         -DE/DX =    0.0                 !
 ! R8    R(7,8)                  1.4813         -DE/DX =    0.0                 !
 ! R9    R(7,12)                 1.4823         -DE/DX =    0.0                 !
 ! R10   R(7,16)                 1.5228         -DE/DX =    0.0                 !
 ! R11   R(8,9)                  1.0849         -DE/DX =    0.0                 !
 ! R12   R(8,10)                 1.0905         -DE/DX =    0.0                 !
 ! R13   R(8,11)                 1.0855         -DE/DX =    0.0                 !
 ! R14   R(12,13)                1.0912         -DE/DX =    0.0                 !
 ! R15   R(12,14)                1.0847         -DE/DX =    0.0                 !
 ! R16   R(12,15)                1.0867         -DE/DX =    0.0                 !
 ! R17   R(16,17)                1.0979         -DE/DX =    0.0                 !
 ! R18   R(16,18)                1.0961         -DE/DX =    0.0                 !
 ! R19   R(19,20)                1.0886         -DE/DX =    0.0                 !
 ! R20   R(19,21)                1.0901         -DE/DX =    0.0                 !
 ! R21   R(19,22)                1.0917         -DE/DX =    0.0                 !
 ! A1    A(2,1,3)              106.0814         -DE/DX =    0.0                 !
 ! A2    A(2,1,4)              110.0787         -DE/DX =    0.0                 !
 ! A3    A(2,1,19)             109.2769         -DE/DX =    0.0                 !
 ! A4    A(3,1,4)              108.0063         -DE/DX =    0.0                 !
 ! A5    A(3,1,19)             109.4067         -DE/DX =    0.0                 !
 ! A6    A(4,1,19)             113.7031         -DE/DX =    0.0                 !
 ! A7    A(1,4,5)              109.9538         -DE/DX =    0.0                 !
 ! A8    A(1,4,6)              110.7531         -DE/DX =    0.0                 !
 ! A9    A(1,4,7)              115.3548         -DE/DX =    0.0                 !
 ! A10   A(5,4,6)              107.7036         -DE/DX =    0.0                 !
 ! A11   A(5,4,7)              105.3023         -DE/DX =    0.0                 !
 ! A12   A(6,4,7)              107.3859         -DE/DX =    0.0                 !
 ! A13   A(4,7,8)              109.657          -DE/DX =    0.0                 !
 ! A14   A(4,7,12)             106.9973         -DE/DX =    0.0                 !
 ! A15   A(4,7,16)             117.2049         -DE/DX =    0.0                 !
 ! A16   A(8,7,12)             107.7881         -DE/DX =    0.0                 !
 ! A17   A(8,7,16)             107.7969         -DE/DX =    0.0                 !
 ! A18   A(12,7,16)            107.025          -DE/DX =    0.0                 !
 ! A19   A(7,8,9)              107.3526         -DE/DX =    0.0                 !
 ! A20   A(7,8,10)             110.1042         -DE/DX =    0.0                 !
 ! A21   A(7,8,11)             109.2556         -DE/DX =    0.0                 !
 ! A22   A(9,8,10)             111.5092         -DE/DX =    0.0                 !
 ! A23   A(9,8,11)             108.5991         -DE/DX =    0.0                 !
 ! A24   A(10,8,11)            109.9526         -DE/DX =    0.0                 !
 ! A25   A(7,12,13)            110.2463         -DE/DX =    0.0                 !
 ! A26   A(7,12,14)            107.735          -DE/DX =    0.0                 !
 ! A27   A(7,12,15)            108.31           -DE/DX =    0.0                 !
 ! A28   A(13,12,14)           111.5472         -DE/DX =    0.0                 !
 ! A29   A(13,12,15)           110.0818         -DE/DX =    0.0                 !
 ! A30   A(14,12,15)           108.8294         -DE/DX =    0.0                 !
 ! A31   A(7,16,17)            104.3905         -DE/DX =    0.0                 !
 ! A32   A(7,16,18)            105.1178         -DE/DX =    0.0                 !
 ! A33   A(17,16,18)           107.0756         -DE/DX =    0.0                 !
 ! A34   A(1,19,20)            110.5533         -DE/DX =    0.0                 !
 ! A35   A(1,19,21)            110.874          -DE/DX =    0.0                 !
 ! A36   A(1,19,22)            110.8308         -DE/DX =    0.0                 !
 ! A37   A(20,19,21)           108.473          -DE/DX =    0.0                 !
 ! A38   A(20,19,22)           108.244          -DE/DX =    0.0                 !
 ! A39   A(21,19,22)           107.7632         -DE/DX =    0.0                 !
 ! D1    D(2,1,4,5)            142.0943         -DE/DX =    0.0                 !
 ! D2    D(2,1,4,6)            -98.9892         -DE/DX =    0.0                 !
 ! D3    D(2,1,4,7)             23.2301         -DE/DX =    0.0                 !
 ! D4    D(3,1,4,5)           -102.5062         -DE/DX =    0.0                 !
 ! D5    D(3,1,4,6)             16.4103         -DE/DX =    0.0                 !
 ! D6    D(3,1,4,7)            138.6296         -DE/DX =    0.0                 !
 ! D7    D(19,1,4,5)            19.1133         -DE/DX =    0.0                 !
 ! D8    D(19,1,4,6)           138.0298         -DE/DX =    0.0                 !
 ! D9    D(19,1,4,7)           -99.7509         -DE/DX =    0.0                 !
 ! D10   D(2,1,19,20)          -63.1075         -DE/DX =    0.0                 !
 ! D11   D(2,1,19,21)           57.2338         -DE/DX =    0.0                 !
 ! D12   D(2,1,19,22)          176.8668         -DE/DX =    0.0                 !
 ! D13   D(3,1,19,20)         -178.851          -DE/DX =    0.0                 !
 ! D14   D(3,1,19,21)          -58.5097         -DE/DX =    0.0                 !
 ! D15   D(3,1,19,22)           61.1233         -DE/DX =    0.0                 !
 ! D16   D(4,1,19,20)           60.3116         -DE/DX =    0.0                 !
 ! D17   D(4,1,19,21)         -179.3471         -DE/DX =    0.0                 !
 ! D18   D(4,1,19,22)          -59.7141         -DE/DX =    0.0                 !
 ! D19   D(1,4,7,8)            -70.205          -DE/DX =    0.0                 !
 ! D20   D(1,4,7,12)           173.1532         -DE/DX =    0.0                 !
 ! D21   D(1,4,7,16)            53.0622         -DE/DX =    0.0                 !
 ! D22   D(5,4,7,8)            168.3839         -DE/DX =    0.0                 !
 ! D23   D(5,4,7,12)            51.7421         -DE/DX =    0.0                 !
 ! D24   D(5,4,7,16)           -68.3489         -DE/DX =    0.0                 !
 ! D25   D(6,4,7,8)             53.7994         -DE/DX =    0.0                 !
 ! D26   D(6,4,7,12)           -62.8424         -DE/DX =    0.0                 !
 ! D27   D(6,4,7,16)           177.0666         -DE/DX =    0.0                 !
 ! D28   D(4,7,8,9)           -177.6541         -DE/DX =    0.0                 !
 ! D29   D(4,7,8,10)           -56.0914         -DE/DX =    0.0                 !
 ! D30   D(4,7,8,11)            64.7579         -DE/DX =    0.0                 !
 ! D31   D(12,7,8,9)           -61.5115         -DE/DX =    0.0                 !
 ! D32   D(12,7,8,10)           60.0512         -DE/DX =    0.0                 !
 ! D33   D(12,7,8,11)         -179.0995         -DE/DX =    0.0                 !
 ! D34   D(16,7,8,9)            53.6982         -DE/DX =    0.0                 !
 ! D35   D(16,7,8,10)          175.261          -DE/DX =    0.0                 !
 ! D36   D(16,7,8,11)          -63.8898         -DE/DX =    0.0                 !
 ! D37   D(4,7,12,13)           54.9061         -DE/DX =    0.0                 !
 ! D38   D(4,7,12,14)          176.8405         -DE/DX =    0.0                 !
 ! D39   D(4,7,12,15)          -65.5944         -DE/DX =    0.0                 !
 ! D40   D(8,7,12,13)          -62.9652         -DE/DX =    0.0                 !
 ! D41   D(8,7,12,14)           58.9692         -DE/DX =    0.0                 !
 ! D42   D(8,7,12,15)          176.5343         -DE/DX =    0.0                 !
 ! D43   D(16,7,12,13)        -178.6833         -DE/DX =    0.0                 !
 ! D44   D(16,7,12,14)         -56.7489         -DE/DX =    0.0                 !
 ! D45   D(16,7,12,15)          60.8162         -DE/DX =    0.0                 !
 ! D46   D(4,7,16,17)           51.1617         -DE/DX =    0.0                 !
 ! D47   D(4,7,16,18)          -61.3783         -DE/DX =    0.0                 !
 ! D48   D(8,7,16,17)          175.3731         -DE/DX =    0.0                 !
 ! D49   D(8,7,16,18)           62.8331         -DE/DX =    0.0                 !
 ! D50   D(12,7,16,17)         -68.9147         -DE/DX =    0.0                 !
 ! D51   D(12,7,16,18)         178.5453         -DE/DX =    0.0                 !
 --------------------------------------------------------------------------------
 GradGradGradGradGradGradGradGradGradGradGradGradGradGradGradGradGradGrad


 ----------------------------------------------------------------------

 Electric dipole moment (input orientation):
 (Debye = 10**-18 statcoulomb cm , SI units = C m)
                  (au)            (Debye)         (10**-30 SI)
   Tot        0.199911D+01      0.508124D+01      0.169492D+02
   x          0.851005D+00      0.216304D+01      0.721512D+01
   y         -0.180638D+01     -0.459137D+01     -0.153151D+02
   z         -0.960641D-01     -0.244171D+00     -0.814465D+00

 Dipole polarizability, Alpha (input orientation).
 (esu units = cm**3 , SI units = C**2 m**2 J**-1)
 Alpha(0;0):
               (au)            (10**-24 esu)      (10**-40 SI)
   iso        0.892300D+02      0.132225D+02      0.147120D+02
   aniso      0.178286D+02      0.264193D+01      0.293955D+01
   xx         0.100397D+03      0.148773D+02      0.165532D+02
   yx        -0.788674D+00     -0.116869D+00     -0.130035D+00
   yy         0.869589D+02      0.128860D+02      0.143376D+02
   zx        -0.909808D+00     -0.134820D+00     -0.150007D+00
   zy         0.750793D-01      0.111256D-01      0.123789D-01
   zz         0.803341D+02      0.119043D+02      0.132453D+02

 ----------------------------------------------------------------------

 Dipole orientation:
     6          0.12133146          0.80349851          1.69694697
     1         -0.96454837          2.25516253          0.71914126
     1          0.44109524          1.51739683          3.60498950
     6         -1.42834889         -1.62567617          1.90049137
     1         -0.20656053         -3.26198940          1.64265689
     1         -2.30209413         -1.78202623          3.76461163
     7         -3.50544337         -1.92035217         -0.04460008
     6         -5.55551498         -0.08856159          0.48213088
     1         -7.03544453         -0.41328700         -0.89901781
     1         -6.25012851         -0.33680449          2.40638289
     1         -4.83882448          1.81770950          0.23713016
     6         -4.55923631         -4.49689127          0.26670704
     1         -5.16532331         -4.78927231          2.21589020
     1         -6.12166508         -4.69522110         -1.04531895
     1         -3.10077524         -5.85466784         -0.22938424
     6         -2.76592955         -1.64114659         -2.81163440
     1         -1.14762338         -2.91857789         -3.04430978
     1         -2.04428369          0.29258046         -2.98546267
     6          2.65523488          0.45357246          0.36807066
     1          2.37517869         -0.22234844         -1.55452495
     1          3.69488042          2.23034585          0.29038473
     1          3.82622720         -0.91753341          1.37058663

 Electric dipole moment (dipole orientation):
 (Debye = 10**-18 statcoulomb cm , SI units = C m)
                  (au)            (Debye)         (10**-30 SI)
   Tot        0.199911D+01      0.508124D+01      0.169492D+02
   x          0.000000D+00      0.000000D+00      0.000000D+00
   y          0.000000D+00      0.000000D+00      0.000000D+00
   z          0.199911D+01      0.508124D+01      0.169492D+02

 Dipole polarizability, Alpha (dipole orientation).
 (esu units = cm**3 , SI units = C**2 m**2 J**-1)
 Alpha(0;0):
               (au)            (10**-24 esu)      (10**-40 SI)
   iso        0.892300D+02      0.132225D+02      0.147120D+02
   aniso      0.178286D+02      0.264193D+01      0.293955D+01
   xx         0.946526D+02      0.140261D+02      0.156061D+02
   yx         0.623861D+01      0.924467D+00      0.102861D+01
   yy         0.830082D+02      0.123005D+02      0.136862D+02
   zx         0.516502D+01      0.765376D+00      0.851596D+00
   zy         0.244518D+01      0.362339D+00      0.403156D+00
   zz         0.900292D+02      0.133410D+02      0.148438D+02

 ----------------------------------------------------------------------
 1\1\GINC-CCLEARNI\Freq\RwB97XD\6-311+G(2d,2p)\C6H15N1\TROUPPER\01-Oct-
 2026\0\\#N Geom=AllCheck Guess=TCheck SCRF=Check GenChk RwB97XD/6-311+
 G(2d,2p) Freq\\opt freq\\0,1\C,0.6060551591,-0.7249607494,0.3137178314
 \H,0.2309512238,-0.3802811247,1.2773219409\H,1.3255212582,-1.515176874
 5,0.5345244498\C,-0.5314571838,-1.3365764418,-0.5039019127\H,-0.415954
 4679,-1.075266945,-1.5549927241\H,-0.5193151447,-2.4265256873,-0.42923
 92784\N,-1.9225451463,-0.8728338031,-0.1274439475\C,-2.2905488905,-1.4
 25104744,1.1968628059\H,-3.3051739329,-1.1055920087,1.4100909558\H,-2.
 2077623703,-2.5124240786,1.1857045674\H,-1.6310728005,-1.0111567536,1.
 9531495097\C,-2.8548328136,-1.4410423182,-1.1299743829\H,-2.7379393742
 ,-2.5246775331,-1.1828137117\H,-3.8622066966,-1.162703259,-0.839482334
 3\H,-2.6320428883,-0.9942263363,-2.095135861\C,-2.1693242294,0.6294027
 943,-0.0901642176\H,-1.8015314381,0.9904929132,-1.0596138145\H,-1.4858
 215793,1.0124461224,0.6763247339\C,1.3175144451,0.425911592,-0.3906138
 309\H,0.6199029222,1.2344367545,-0.6018358731\H,2.1253589794,0.8191597
 954,0.2267468064\H,1.7518758185,0.0936820556,-1.3354995623\\Version=EM
 64M-G16RevA.03\State=1-A\HF=-292.3133771\RMSD=9.402e-10\RMSF=7.850e-06
 \ZeroPoint=0.2069744\Thermal=0.2158623\Dipole=0.8510053,-1.8063822,-0.
 0960641\DipoleDeriv=0.1047176,-0.0354998,-0.0102749,-0.01905,0.0974661
 ,-0.0334915,-0.0151449,-0.0364926,0.0227979,0.0448925,-0.0150333,0.080
 6199,-0.0411134,0.0419314,-0.0459051,0.0648956,-0.009423,-0.0767348,-0
 .0779317,0.0632326,-0.0421763,0.0796786,-0.0861086,0.0596328,-0.017294
 8,0.0299348,0.0596552,0.3199753,0.0208929,-0.0289,0.0276619,0.0239848,
 0.0068534,-0.0222278,0.0045237,0.1140263,0.0350888,-0.0041659,-0.00149
 6,0.0090807,0.0539537,0.0619524,0.0075252,0.009001,-0.0843814,-0.07489
 84,0.0381013,0.0108757,0.0432446,-0.2019083,-0.0270298,0.003368,-0.000
 0921,0.0741785,-0.3241483,0.1444464,-0.0262742,-0.1474035,-0.3019993,0
 .0128956,-0.0152003,-0.0471031,-0.3788633,0.0683453,0.0314672,-0.05932
 2,-0.0077246,0.2253057,-0.0566158,-0.0335711,-0.1134086,0.2759961,-0.0
 299238,-0.0024753,0.0438047,0.0496252,0.0959099,-0.0125108,-0.0184284,
 0.007924,0.0741572,0.0858826,0.0429126,0.0026641,-0.0017989,-0.1440919
 ,0.0474249,0.0102513,-0.0330021,0.0340915,0.0252876,-0.032965,-0.08805
 2,-0.0589662,0.0434949,-0.0462847,-0.0514691,-0.0054804,-0.0043586,0.1
 480565,0.0666625,0.1078552,0.0137234,0.250848,0.0637494,0.1225714,0.10
 10267,0.2255648,0.0705203,0.0601146,-0.0167656,-0.0168479,-0.1541601,-
 0.0479347,-0.0324247,0.0052914,0.044421,-0.0218605,-0.0125965,0.000746
 ,0.0456695,0.0948958,-0.0174194,0.0535533,-0.0115629,0.0551503,0.05149
 91,-0.0339929,0.0554861,-0.0301445,0.0482466,0.0700835,0.0036911,0.019
 6945,-0.0430654,-0.4055882,-0.0538858,0.0278016,0.1406082,-0.0801722,-
 0.0318281,0.0274642,0.0175276,-0.1839123,0.0720083,-0.1206588,0.205557
 9,-0.0470683,-0.0207848,-0.0030053,0.1543512,0.0617795,-0.1884617,-0.0
 773332,-0.1403791,-0.2303772,-0.0590156,-0.0209161,0.0153581,-0.209880
 3,-0.0047267,-0.0467406,0.0141272,-0.009852,-0.0010594,0.0096367,0.011
 7115,0.056367,-0.0204857,0.0513743,0.0988265,0.0443791,0.0904725,-0.02
 51093,0.0626849,-0.0231386,0.0283406,-0.0110107,0.0277574,0.0374612,-0
 .0927181,-0.0888468,-0.0614938,-0.0820115,0.031073,-0.0249094,-0.11143
 87,-0.0458271,-0.0035851,0.019622,-0.0079515,0.0558896,0.0295306,0.014
 4584,-0.075723,0.1109051,-0.0287164,-0.106223\Polar=100.3969781,-0.788
 6739,86.9588983,-0.909808,0.0750793,80.334105\Quadrupole=-1.2973162,-2
 .1410428,3.4383589,5.9914903,0.7917007,-0.360292\PG=C01 [X(C6H15N1)]\N
 Imag=0\\0.51698048,-0.06209843,0.52813931,-0.02114745,0.01442142,0.551
 68874,-0.07838309,0.02963988,0.08069124,0.09210995,0.02919646,-0.07375
 872,-0.07890655,-0.02784386,0.08114902,0.07943172,-0.07634017,-0.25220
 101,-0.09068250,0.08281166,0.27556683,-0.16304343,0.12490573,-0.033979
 32,-0.00784301,0.00788499,-0.00203662,0.17992468,0.12765757,-0.1843500
 7,0.03651036,0.00691859,-0.00806149,0.00199487,-0.13211473,0.20509288,
 -0.03309083,0.03609065,-0.05860634,0.01959624,-0.02137667,0.00675754,0
 .03748857,-0.04012068,0.06039476,-0.13394406,-0.03128831,-0.04061187,0
 .01016141,0.00371788,0.00350956,-0.01613369,-0.01176329,-0.01365642,0.
 42153238,-0.03462340,-0.10090066,-0.02832520,-0.00825926,-0.00455663,-
 0.00498952,0.01725181,0.00766956,0.01215817,0.04523630,0.57807150,-0.0
 4341748,-0.03032024,-0.11722274,-0.02404528,-0.00981815,-0.01722603,-0
 .00233698,-0.00312828,-0.00374222,0.01247423,-0.04735452,0.59228349,0.
 00182322,0.00189930,-0.02312221,-0.00333070,-0.00075383,-0.00192017,-0
 .00070696,0.00000629,-0.00034157,-0.04720841,-0.00288776,0.01841912,0.
 06679834,-0.00003006,0.00298934,-0.01458814,-0.00167907,-0.00089413,-0
 .00171821,-0.00048647,-0.00008959,-0.00046142,-0.00769787,-0.06843938,
 0.07042746,0.00813124,0.06947055,-0.00016894,0.00240005,-0.01653298,-0
 .00230550,-0.00001413,-0.00089909,-0.00061306,-0.00058456,-0.00095398,
 0.02814510,0.06463342,-0.29666308,-0.02803670,-0.06946894,0.32123355,-
 0.00203066,-0.02205777,0.00152328,-0.00062993,-0.00094983,-0.00076188,
 0.00016060,-0.00116048,-0.00002730,-0.04798614,-0.00455002,0.00249496,
 0.00092592,-0.00384781,-0.00038909,0.06257362,0.00043676,-0.00949654,0
 .00298143,-0.00037982,-0.00039999,-0.00022843,-0.00040217,0.00165524,-
 0.00004386,0.00054783,-0.30406658,0.02170778,-0.00038507,-0.00696851,0
 .00033598,-0.00169413,0.32986481,-0.00174690,-0.01847565,0.00253260,-0
 .00023303,-0.00030355,-0.00073337,0.00049221,0.00006510,0.00145931,0.0
 0010562,0.02427912,-0.05512322,-0.00145697,0.03096637,-0.00047048,0.00
 086474,-0.02283020,0.05304433,-0.02627245,0.00799986,0.00053464,0.0000
 7049,0.00124566,0.00210525,-0.00304302,-0.00247219,-0.00066278,-0.1213
 5888,0.01324548,0.01622737,-0.01379301,0.00480202,0.00410500,-0.005884
 73,0.00157492,0.00248269,0.49298816,-0.00770980,0.00668002,0.01009482,
 0.00143481,-0.00044519,-0.00110385,-0.00133551,-0.00063534,-0.00159928
 ,-0.01310398,-0.07831349,-0.00073218,-0.00662632,0.00144704,0.00319463
 ,0.03171142,-0.01351949,-0.01090929,0.04899743,0.43996799,-0.01620019,
 0.01060689,0.00684020,0.00108653,0.00013467,-0.00002428,-0.00346045,-0
 .00219719,-0.00238980,0.00889041,-0.00570979,-0.09660142,0.03399198,-0
 .01306310,-0.01223138,-0.00200947,0.00077015,-0.00044319,0.01050047,-0
 .00828235,0.57229906,0.00031779,-0.00141987,0.00018941,-0.00205679,-0.
 00024497,0.00100454,0.00020530,0.00014624,0.00007529,-0.01347751,-0.01
 029024,0.03493952,-0.00601039,0.00134567,0.00142220,0.00088005,-0.0013
 4697,0.00035016,-0.09616970,-0.00851194,0.02187402,0.61901508,-0.00008
 578,0.00026188,0.00012829,-0.00056632,-0.00028555,-0.00004931,0.000395
 51,0.00003894,0.00006240,-0.00007407,0.00484639,-0.00715460,0.00275961
 ,-0.00099874,-0.00144014,0.00149853,-0.00034239,-0.00168392,-0.0126836
 6,-0.09701296,0.03866181,-0.01777276,0.59589861,-0.00002191,0.00160991
 ,0.00068880,-0.00035737,-0.00114125,-0.00017881,-0.00068297,-0.0001951
 8,-0.00007717,0.01349698,0.00072100,-0.01186800,0.00003933,0.00017930,
 0.00124258,-0.00131388,0.00107186,0.00040376,0.02124894,0.02780610,-0.
 16920520,0.03909919,0.05453356,0.50683882,0.00022350,0.00008650,0.0002
 2830,0.00016077,0.00018276,0.00008211,-0.00003478,-0.00002608,-0.00003
 233,0.00090275,-0.00128463,0.00120084,-0.00038648,0.00012022,0.0003119
 7,0.00021339,0.00006327,-0.00018493,-0.01104099,0.00234455,0.00362118,
 -0.29715097,0.07549605,0.05108134,0.31865300,0.00008744,-0.00015432,0.
 00011564,0.00017459,0.00018396,0.00002386,-0.00006278,-0.00001545,-0.0
 0002001,0.00041036,-0.00185121,0.00120906,-0.00067407,0.00074946,0.000
 16269,-0.00007087,0.00031295,0.00018032,-0.01345362,0.00223336,0.00409
 433,0.08241528,-0.07177892,-0.01797851,-0.08348253,0.07195434,-0.00031
 300,-0.00050736,-0.00024117,0.00005584,0.00029191,0.00041892,0.0000783
 6,0.00006131,0.00001865,-0.00085025,0.00289081,-0.00561158,0.00199049,
 -0.00049913,-0.00042854,-0.00022905,0.00001992,0.00007987,0.03435037,-
 0.00697652,-0.01370751,0.04028949,-0.01415145,-0.05636234,-0.05528424,
 0.01505575,0.06886599,-0.00011986,0.00016133,-0.00011753,0.00023089,-0
 .00002348,-0.00002510,-0.00011962,0.00000993,0.00003606,0.00031751,-0.
 00172335,0.00035286,0.00007756,0.00015978,-0.00011276,-0.00043366,0.00
 012677,0.00075799,-0.00212803,-0.01031970,0.00098543,-0.05362850,0.023
 42555,0.00108806,0.00263626,0.02820520,0.00014137,0.04958038,-0.000192
 52,-0.00008331,-0.00015639,0.00011511,-0.00005307,0.00014452,-0.000161
 96,0.00004303,0.00008178,0.00108449,-0.00062794,-0.00105736,-0.0000325
 9,0.00055519,-0.00003517,-0.00039969,0.00115320,0.00012593,0.00261744,
 -0.01466345,0.00006297,0.01944954,-0.31058347,-0.00652066,-0.00096948,
 -0.00593886,-0.00084906,-0.02226722,0.33921041,0.00003053,-0.00025270,
 -0.00019273,0.00007465,0.00004440,0.00003344,-0.00000997,0.00003534,0.
 00010583,-0.00122971,0.00127278,0.00063900,-0.00020735,-0.00010902,0.0
 0012655,0.00071643,-0.00026684,-0.00033990,-0.00254053,0.03376565,-0.0
 0417163,0.00176756,-0.01594241,-0.05293109,-0.00132489,-0.00566364,-0.
 00026259,-0.00339329,0.00457117,0.05802315,-0.00157557,-0.00052022,0.0
 0158325,-0.00308092,-0.00123688,0.00141811,0.00010076,0.00000192,-0.00
 022006,0.00014571,0.00063303,-0.00022693,0.00008028,-0.00006948,-0.000
 17878,-0.00002777,0.00007757,-0.00004027,0.00619553,0.00337694,0.00842
 571,-0.15637839,-0.06794222,-0.12173146,-0.01611486,-0.01288731,-0.020
 82731,0.00248113,0.00228378,0.00394032,0.16715982,-0.00053176,-0.00036
 818,0.00047229,-0.00139123,0.00040934,0.00067302,0.00016009,-0.0000616
 4,-0.00021851,-0.00009544,-0.00002221,-0.00090771,0.00007752,-0.000090
 06,0.00004396,-0.00014736,-0.00012198,-0.00001269,0.00984565,0.0033461
 9,0.01048897,-0.06965469,-0.09317833,-0.07801100,0.00601571,0.00395548
 ,0.00738565,-0.01980772,-0.00983217,-0.02151299,0.07587146,0.09505392,
 0.00015035,-0.00050471,-0.00015185,0.00132306,0.00078755,0.00054312,-0
 .00002657,0.00011289,0.00014745,-0.00198504,-0.00033915,0.00011052,-0.
 00002196,-0.00001165,0.00012857,0.00018929,-0.00001712,-0.00009699,-0.
 02042618,-0.01061950,-0.02722958,-0.11239898,-0.07062092,-0.17665209,0
 .00388538,0.00281991,0.00604222,0.00072447,0.00005753,0.00156141,0.125
 79373,0.07741861,0.19914576,-0.00322804,0.00279014,0.00198771,0.000298
 97,0.00004957,-0.00005870,-0.00099815,-0.00039752,-0.00059631,-0.03837
 719,-0.01221294,-0.02262553,0.00017853,-0.00055241,-0.00217494,0.00067
 533,-0.00118929,-0.00059835,-0.12815991,-0.02115630,-0.04177088,0.0056
 0784,0.00379126,-0.00128633,0.00051630,0.00007686,0.00265111,-0.000162
 84,-0.00044831,0.00083831,-0.00048885,-0.00063326,0.00324241,0.5707191
 0,0.00188833,-0.00113879,-0.00054456,-0.00015841,-0.00031757,0.0000265
 4,0.00061743,0.00020060,0.00022840,0.00278455,0.00625934,0.00540649,-0
 .00021387,0.00028853,-0.00000740,0.00180879,-0.00079721,0.00078802,-0.
 02855277,-0.09483404,-0.02804145,0.00903919,0.00469393,0.00900321,0.00
 018468,-0.00032409,-0.00043937,0.00096123,0.00043579,0.00267857,-0.000
 23841,-0.00120641,0.00352332,-0.04005028,0.59054507,0.00243264,-0.0015
 3225,-0.00089813,-0.00016115,0.00027258,-0.00009177,0.00078852,0.00030
 463,0.00035831,-0.00127382,0.00466773,0.00582087,0.00330432,-0.0001524
 3,0.00037698,0.00085339,-0.00042066,-0.00033107,-0.04431487,-0.0207782
 6,-0.13373482,-0.02164508,-0.01180489,-0.03926756,-0.00141482,-0.00065
 132,0.00081977,-0.00047669,-0.00150190,0.00187779,0.00126497,0.0019112
 2,-0.00445049,-0.07003939,-0.04171906,0.55775052,0.00013054,0.00016648
 ,0.00004511,0.00009287,-0.00002847,0.00003419,0.00000612,-0.00001743,-
 0.00002064,0.00047012,-0.00166363,-0.00062982,-0.00007282,0.00002689,0
 .00021735,-0.00112107,0.00002012,-0.00059308,-0.00054485,-0.02389473,-
 0.00225939,-0.00002338,-0.00031572,0.00137728,-0.00006616,0.00022469,-
 0.00016933,0.00026555,0.00023486,0.00001047,-0.00011993,-0.00002811,0.
 00011098,-0.05743984,0.03661988,0.00072391,0.05651875,-0.00033482,0.00
 050560,-0.00014892,0.00014541,0.00000365,0.00016522,-0.00011584,0.0000
 0672,-0.00000092,0.00179080,-0.00049375,0.00047842,-0.00006375,-0.0002
 2789,0.00002897,-0.00039453,0.00118450,-0.00006208,0.00298193,-0.01453
 063,-0.00081214,0.00025907,0.00040373,0.00155855,-0.00003756,-0.000164
 75,0.00002093,-0.00006186,0.00062223,-0.00066987,-0.00010086,0.0003372
 2,-0.00007443,0.02861193,-0.30618269,-0.00917423,-0.03179968,0.3353599
 9,0.00013157,0.00009428,-0.00021352,0.00000533,-0.00009841,-0.00001991
 ,-0.00001216,0.00000120,0.00001413,0.00103685,-0.00061038,0.00012660,-
 0.00016740,0.00037801,-0.00008824,-0.00045418,0.00019798,0.00031967,0.
 00251318,-0.02449605,-0.00453211,0.00015747,-0.00276643,0.00176236,0.0
 0009357,-0.00002510,-0.00008621,-0.00029036,0.00063955,-0.00045304,0.0
 0004819,0.00030159,0.00012390,-0.00025901,-0.00294529,-0.05261265,0.00
 413710,0.01281402,0.05370842,-0.00052114,0.00100738,0.00063779,0.00000
 319,-0.00001874,-0.00007977,-0.00031669,-0.00022007,-0.00022872,-0.001
 42135,-0.00289916,-0.00382146,0.00030414,-0.00008559,-0.00020032,0.000
 26521,0.00019199,0.00000320,-0.02634972,0.00456657,0.00403599,0.000036
 41,0.00038192,0.00172436,0.00056751,0.00000607,-0.00065262,-0.00005105
 ,0.00000109,-0.00013368,0.00048446,-0.00010767,0.00004723,-0.28793571,
 0.06447436,0.07036049,0.00164689,-0.00022537,0.00016716,0.31523151,-0.
 00076466,0.00088134,-0.00020027,0.00003640,0.00009797,0.00006341,-0.00
 029197,-0.00011499,-0.00011988,0.00006249,-0.00197776,-0.00107807,-0.0
 0000044,-0.00014332,-0.00010235,-0.00026534,0.00027415,-0.00016976,-0.
 01432346,0.00152849,0.00263399,0.00025789,-0.00014614,0.00063522,0.000
 09469,0.00055498,0.00006905,0.00023791,-0.00019333,-0.00010803,-0.0001
 8133,-0.00012787,0.00005379,0.07260331,-0.06520672,-0.02042866,0.02774
 669,-0.00487843,-0.00817911,-0.07112817,0.06544067,-0.00122570,0.00047
 519,0.00080194,0.00014866,0.00008596,0.00016436,-0.00030671,-0.0000893
 3,-0.00008060,-0.00104147,-0.00214529,-0.00341749,-0.00024715,-0.00025
 641,0.00046878,0.00003255,-0.00003409,-0.00016262,-0.02720262,0.004058
 42,0.00235409,-0.00227379,0.00030234,0.00126656,-0.00021338,-0.0002279
 2,-0.00104863,0.00016158,0.00001031,-0.00009009,0.00015014,-0.00001885
 ,0.00019559,0.08135235,-0.02011307,-0.07255331,-0.00084622,0.00107862,
 -0.00021381,-0.07451242,0.02346575,0.07852294,0.00002080,-0.00004265,0
 .00011298,0.00008844,0.00008047,0.00001832,0.00003869,0.00000221,0.000
 02314,0.00117747,0.00054921,-0.00223390,-0.00103567,-0.00015102,-0.000
 23068,-0.00013350,0.00005989,0.00005807,0.00133063,0.00775690,-0.02346
 099,-0.00283285,-0.00154266,-0.00186674,0.00032160,-0.00022292,-0.0002
 2359,-0.00019114,-0.00001484,0.00004071,0.00068580,0.00027229,-0.00122
 956,-0.06313509,-0.02791498,0.05956322,0.00054547,0.00238841,-0.003929
 08,-0.00392440,-0.01332132,0.02599421,0.06700357,0.00020497,-0.0000643
 8,-0.00025448,-0.00009735,0.00001735,-0.00011241,0.00001026,0.00000152
 ,0.00000331,0.00039378,-0.00047249,0.00007112,0.00039056,0.00048159,-0
 .00007165,-0.00007964,0.00003025,0.00011328,0.00216215,0.00374635,-0.0
 1426382,-0.00146850,-0.00128986,-0.00155577,-0.00011733,-0.00009045,0.
 00007115,-0.00013736,0.00035557,-0.00025017,-0.00005200,0.00086211,-0.
 00078894,-0.02595056,-0.09950762,0.10802857,-0.00709699,-0.01055943,0.
 02754389,0.00171855,0.00358973,-0.00817339,0.03049775,0.10208754,-0.00
 013576,-0.00028833,0.00031337,0.00014689,0.00008280,0.00012322,0.00003
 521,-0.00000082,0.00004988,0.00233366,-0.00003002,-0.00011675,-0.00067
 890,0.00006465,0.00090047,-0.00005615,-0.00007665,0.00008168,0.0037597
 4,0.00818625,-0.02639179,-0.00412729,-0.00297624,-0.00188178,-0.000101
 87,0.00004879,0.00033358,0.00003136,0.00006071,0.00018653,0.00029527,0
 .00068412,-0.00134272,0.05046541,0.09948920,-0.26072403,-0.00030397,-0
 .00144375,0.00428299,0.00133691,0.00363875,-0.00563930,-0.05262977,-0.
 10896676,0.28786315,0.00136457,-0.00058532,0.00018615,-0.00034298,0.00
 002784,0.00028206,0.00001909,0.00053145,0.00040875,-0.00417428,0.02771
 020,0.00110129,0.00113292,-0.00007185,-0.00103804,-0.00544894,0.004144
 17,0.00155957,-0.05565102,-0.02917143,-0.00499707,0.00249143,-0.006623
 89,-0.00081850,0.00036120,-0.00069888,-0.00012041,-0.00033087,-0.00084
 509,0.00101637,-0.00001068,0.00057329,0.00014034,0.00248176,-0.0198701
 5,-0.00172500,-0.00122387,-0.00246519,-0.00216599,0.00134964,-0.001206
 63,-0.00031871,-0.00007198,0.00009612,0.00021534,0.24106586,-0.0017646
 4,-0.00010905,0.00007859,-0.00046278,0.00103238,0.00006036,-0.00063061
 ,-0.00026483,-0.00045510,0.02277884,-0.02451899,-0.00469460,-0.0026011
 3,0.00123129,0.00062715,0.00309297,0.00086723,-0.00099493,0.01289828,-
 0.09690308,-0.00250507,-0.00273963,-0.02452427,0.01318230,0.00141227,0
 .00063515,-0.00252681,0.00128058,0.00030450,-0.00010535,0.00053570,0.0
 0129261,-0.00263099,-0.00790292,-0.02683963,-0.01104301,0.00123785,-0.
 00062849,-0.00077328,0.00245043,0.00072863,0.00162748,0.00155603,0.001
 04234,0.00239626,0.09671385,0.29871751,-0.00007312,0.00073153,0.000325
 51,-0.00003141,0.00054497,-0.00017354,0.00008769,-0.00007167,-0.000175
 65,0.00046075,-0.00630415,0.00168013,-0.00044997,-0.00104971,0.0005637
 1,0.00151314,-0.00111721,0.00032717,-0.00487189,0.00339123,-0.08457186
 ,-0.00083034,0.03327692,-0.00415158,-0.00197416,0.00096919,0.00069369,
 -0.00028478,0.00425561,-0.00469616,0.00024944,0.00103529,0.00065380,-0
 .00124518,-0.02614766,-0.00320534,-0.00146099,-0.00418215,-0.00329842,
 0.00159695,-0.00035970,-0.00044024,-0.00036580,-0.00158020,0.00096952,
 0.05130103,-0.01034310,0.50769528,-0.00022613,0.00027113,-0.00024806,0
 .00006391,0.00001901,0.00008402,-0.00004107,0.00001057,0.00013502,0.00
 111429,-0.00081950,-0.00153459,0.00016814,0.00004934,0.00004784,0.0005
 4368,-0.00036273,-0.00004421,-0.00577582,0.01173768,-0.00495272,-0.000
 53818,-0.00031243,-0.00008432,0.00078338,0.00016585,-0.00047111,0.0014
 1877,-0.00082171,0.00009676,-0.00010287,0.00022151,0.00014012,0.000078
 79,-0.00037408,0.00140403,-0.00002796,0.00049321,-0.00047189,-0.000165
 38,-0.00005530,0.00048956,0.00031881,-0.00074226,-0.00078260,-0.049125
 71,-0.04967441,0.10363254,0.05097652,0.00020108,-0.00027065,-0.0001654
 1,-0.00008845,-0.00008569,-0.00003348,0.00007072,0.00005124,0.00003636
 ,-0.00165815,0.00181831,0.00181689,0.00040259,-0.00021245,-0.00051955,
 -0.00036635,0.00034893,-0.00017819,-0.01279607,-0.02333471,0.03424409,
 0.00103884,-0.00669360,-0.00197656,-0.00015790,-0.00019958,-0.00019284
 ,-0.00061102,-0.00095055,0.00235305,0.00030101,0.00000141,0.00004577,0
 .00069489,0.00047405,0.00263676,0.00013068,0.00007550,-0.00036104,0.00
 004919,-0.00016470,-0.00021888,-0.00025134,-0.00024015,-0.00064259,-0.
 02459746,-0.06435860,0.05270309,0.03318586,0.08840272,0.00001988,0.000
 20093,-0.00071952,0.00009448,-0.00000542,0.00032391,-0.00013874,-0.000
 09956,0.00020440,0.00035314,-0.00074239,-0.00015389,-0.00057956,0.0003
 5807,0.00063162,-0.00012142,-0.00034038,0.00056192,0.00234130,-0.00249
 991,-0.00290004,-0.00049887,0.00047784,0.00087497,-0.00035345,-0.00035
 462,0.00009812,0.00005022,0.00060973,0.00040920,0.00034212,-0.00023414
 ,0.00035230,-0.00038510,-0.00113603,0.00032299,-0.00012676,0.00046052,
 0.00039198,-0.00015593,-0.00011042,0.00003114,0.00036785,0.00003416,0.
 00044081,0.06624315,0.07537583,-0.24665483,-0.07848182,-0.07926727,0.2
 6670084,-0.00163372,0.00109617,-0.00031183,-0.00086549,0.00087984,0.00
 022551,-0.00010118,0.00014208,0.00036643,0.00099353,-0.00066111,0.0004
 5323,-0.00008445,-0.00003124,0.00011542,0.00035829,-0.00012106,-0.0003
 5967,-0.00390776,0.01136552,0.00632286,0.00012681,-0.00002259,-0.00095
 966,-0.00047330,-0.00011664,-0.00031845,0.00010048,0.00034506,0.000411
 69,0.00057807,-0.00057386,0.00055150,-0.00028420,-0.00119519,0.0001409
 4,0.00084795,-0.00116097,-0.00060746,0.00090951,0.00031677,-0.00003205
 ,-0.00020478,0.00026990,0.00028374,-0.13009510,-0.07792539,-0.14814304
 ,0.00162442,0.00471093,0.01047326,0.13368230,0.00077518,-0.00023894,-0
 .00041279,0.00104411,-0.00069230,0.00048109,-0.00006039,0.00014950,0.0
 0015763,-0.00239134,0.00138402,-0.00022347,0.00023503,-0.00011386,0.00
 005809,-0.00026043,0.00011097,0.00018996,-0.02424200,-0.02307850,-0.02
 645159,-0.00059510,0.00080025,-0.00273664,0.00013474,-0.00011580,0.000
 17090,0.00031721,0.00011954,0.00017246,0.00007658,-0.00029356,0.000710
 78,0.00207498,-0.00654419,0.00136660,-0.00157318,-0.00100242,-0.001784
 09,-0.00002672,-0.00020583,0.00023577,0.00030314,0.00000630,-0.0002169
 8,-0.04524822,-0.06778785,-0.04524826,0.00734218,0.00508666,0.00741755
 ,0.06223916,0.09191071,-0.00055508,0.00071236,0.00021438,0.00012334,-0
 .00017904,0.00058044,-0.00016219,0.00042093,0.00036215,-0.00229735,0.0
 0019165,-0.00073433,0.00006807,0.00002851,0.00005244,-0.00002050,0.000
 14344,0.00012046,0.00030131,-0.00143369,-0.00312002,0.00043756,0.00122
 673,0.00057208,0.00028353,0.00005662,0.00005436,0.00033955,-0.00049851
 ,0.00018257,-0.00031770,0.00022044,0.00044449,0.00071673,-0.00013174,0
 .00025899,-0.00033082,-0.00007607,0.00076651,-0.00005002,0.00024023,-0
 .00005283,-0.00003766,0.00014177,0.00053182,-0.11084538,-0.05741611,-0
 .16576147,-0.01866273,-0.01020243,-0.02108810,0.13070522,0.06584984,0.
 18724552,-0.10354636,-0.03931720,0.02419950,-0.00631551,-0.01081743,0.
 00629755,0.01162228,0.01625639,-0.01095792,-0.01445597,-0.02153667,0.0
 1013673,0.00163181,-0.00008665,0.00171661,-0.00224820,-0.00152022,-0.0
 0093070,-0.00086928,-0.00127316,-0.00005468,-0.00032513,0.00011580,-0.
 00016663,-0.00003589,-0.00005130,0.00000422,-0.00000760,-0.00000976,-0
 .00006672,-0.00006117,-0.00000320,-0.00007645,-0.00029185,0.00018677,0
 .00012105,0.00008062,0.00008140,0.00004524,-0.00007253,0.00010561,-0.0
 0010067,0.00001592,-0.00001633,-0.00006715,-0.00150640,-0.00016488,0.0
 0029168,-0.00014656,-0.00018471,0.00027216,-0.00041215,0.00001185,0.00
 017764,0.56128593,-0.03832671,-0.14697380,0.04460158,0.00392082,0.0084
 1152,-0.00417430,-0.01389864,-0.01985295,0.01413991,-0.01070752,-0.012
 62226,0.00070008,0.00037567,0.00071256,0.00149522,-0.00126993,0.000148
 95,-0.00056177,0.00056797,-0.00034560,0.00013735,0.00022125,-0.0003217
 1,-0.00048053,0.00009740,0.00016445,0.00010600,0.00006719,-0.00001057,
 0.00004266,0.00003316,0.00019987,0.00029835,0.00012228,-0.00028572,-0.
 00013171,0.00000306,-0.00001205,0.00000569,0.00001099,0.00014926,0.000
 05681,-0.00001128,0.00005892,0.00004310,-0.00104120,0.00019899,-0.0000
 8698,-0.00006483,-0.00019069,0.00099534,0.00040281,0.00019642,-0.00004
 665,-0.03611696,0.52177321,0.02674184,0.04655162,-0.10850992,0.0142753
 8,0.02464100,-0.01373250,0.00378219,0.00485137,-0.00361616,-0.00773481
 ,-0.01588936,0.00893860,-0.00145906,-0.00099820,0.00138294,-0.00337077
 ,-0.00217443,-0.00186257,-0.00049548,-0.00138375,-0.00091626,0.0003982
 2,-0.00008845,-0.00094987,0.00007496,0.00018105,0.00025294,0.00004495,
 0.00004180,-0.00002373,0.00005733,0.00018971,0.00038676,-0.00050191,0.
 00028335,0.00039592,0.00009801,0.00013448,0.00008498,-0.00018765,0.000
 03516,-0.00017931,0.00001876,0.00001233,0.00000177,0.00003196,0.000222
 10,-0.00031617,-0.00022566,-0.00002680,0.00015914,0.00030850,0.0003953
 1,0.00019595,0.02764265,0.03345056,0.55600951,0.01110916,-0.01367738,0
 .00363416,0.00047043,0.00088764,-0.00040587,-0.00101548,-0.00338211,0.
 00223741,0.00086929,0.00046337,-0.00043630,0.00010958,0.00026902,-0.00
 018887,0.00006298,0.00032597,-0.00011183,0.00032658,-0.00037194,-0.000
 02788,-0.00005486,0.00009463,0.00014768,-0.00002584,-0.00001730,-0.000
 00056,0.00002686,0.00006586,-0.00003959,0.00003839,-0.00002148,-0.0000
 0563,-0.00001915,-0.00002067,-0.00011289,0.00000152,0.00005332,0.00002
 311,-0.00002353,0.00002618,0.00002195,-0.00000230,-0.00002093,-0.00000
 351,-0.00105436,-0.00009611,0.00028594,-0.00115181,0.00000990,-0.00002
 007,-0.00120871,0.00004503,0.00057834,-0.16171217,0.13195115,-0.034987
 68,0.17520653,0.01609120,-0.02035819,0.00552032,0.00010370,0.00103882,
 -0.00034584,-0.00309369,-0.00301895,0.00265515,0.00104608,0.00061382,0
 .00035873,-0.00033297,-0.00007163,-0.00050432,0.00009660,0.00023591,-0
 .00019877,-0.00028247,-0.00032950,-0.00014698,0.00005724,0.00004585,0.
 00015463,-0.00004502,-0.00002992,0.00001608,-0.00000190,0.00008677,-0.
 00001514,0.00002932,-0.00005971,-0.00005207,-0.00010073,0.00007149,0.0
 0001868,-0.00001116,0.00009442,0.00001745,-0.00004288,-0.00006248,-0.0
 0004451,-0.00000936,-0.00002745,-0.00002508,0.00170522,-0.00013496,-0.
 00025611,-0.00017265,0.00029441,-0.00070120,0.00001543,0.00019456,0.00
 038611,0.12898607,-0.19565257,0.03660222,-0.14078997,0.21369261,-0.010
 67200,0.01263291,-0.00375711,-0.00075916,-0.00024681,0.00020060,0.0019
 4224,0.00263924,-0.00090193,-0.00002731,-0.00079889,0.00031202,0.00015
 437,-0.00023509,0.00009361,0.00002177,-0.00007671,-0.00009729,0.000043
 09,0.00033648,-0.00003180,-0.00000810,0.00002729,0.00001829,0.00002017
 ,-0.00000807,-0.00001994,-0.00001921,-0.00003456,-0.00001223,-0.000013
 64,0.00004570,-0.00000882,0.00010085,-0.00014312,0.00001954,-0.0000076
 0,-0.00006293,-0.00004501,0.00006102,0.00002645,0.00001274,-0.00001497
 ,0.00000958,-0.00001296,-0.00035753,-0.00005037,0.00061040,-0.00009392
 ,0.00000287,-0.00017515,0.00036545,-0.00014593,-0.00084570,-0.03304535
 ,0.03635225,-0.05827673,0.03500281,-0.04332808,0.06036603,-0.01055310,
 -0.00348059,-0.00883001,-0.00012340,0.00036054,0.00011764,0.00067071,-
 0.00010236,0.00014832,0.00014516,-0.00245735,0.00179775,0.00011038,0.0
 0011850,0.00027296,-0.00082058,-0.00024272,-0.00023162,0.00011578,-0.0
 0027637,-0.00016455,-0.00003042,0.00000378,-0.00020979,-0.00000770,0.0
 0003056,0.00000366,0.00003268,-0.00001894,-0.00000685,0.00000816,-0.00
 000044,0.00000148,-0.00003411,0.00006996,0.00014772,0.00004672,-0.0000
 0553,0.00001606,-0.00004187,0.00004738,-0.00000808,0.00001648,0.000006
 26,0.00001318,-0.00085199,0.00009346,0.00007616,0.00010899,-0.00007477
 ,0.00035918,0.00008375,-0.00000406,-0.00016232,-0.19363904,-0.06960843
 ,-0.11309124,-0.01424220,-0.00878232,-0.01168728,0.20813248,-0.0180596
 7,-0.00825248,-0.01556087,0.00029250,0.00108335,0.00002086,0.00065689,
 0.00021926,-0.00072742,-0.00202847,-0.00315058,0.00293416,0.00013173,0
 .00005732,0.00044057,-0.00090575,-0.00056660,-0.00045822,-0.00022349,-
 0.00099626,-0.00036278,-0.00006659,0.00008122,-0.00013452,-0.00003552,
 -0.00002531,0.00005833,-0.00000010,0.00004621,-0.00001707,0.00002483,-
 0.00000111,-0.00000080,-0.00020965,0.00011535,0.00019057,0.00001888,0.
 00006983,0.00001239,-0.00008987,-0.00000462,-0.00007127,0.00001597,-0.
 00001840,-0.00000844,0.00049427,0.00000507,0.00006305,0.00000452,0.000
 10256,-0.00035129,0.00001317,0.00003366,0.00008417,-0.06841568,-0.0810
 6866,-0.05301194,0.01697028,0.01059605,0.01485090,0.07908852,0.0861810
 6,0.01379096,0.00640464,0.00975980,-0.00013854,-0.00069853,0.00078742,
 -0.00046962,-0.00070315,0.00054321,0.00104655,0.00276709,-0.00170436,0
 .00021891,0.00009552,0.00038069,0.00048363,0.00039120,0.00053567,0.000
 08192,-0.00001450,0.00045371,-0.00008365,0.00003070,0.00002301,-0.0000
 1247,0.00001218,-0.00000097,0.00000178,-0.00002987,0.00000688,-0.00000
 058,-0.00000508,-0.00001617,0.00016542,-0.00002020,-0.00004614,-0.0000
 0475,-0.00005051,-0.00001551,0.00004606,-0.00000391,0.00005128,0.00001
 507,-0.00000186,0.00001552,-0.00020543,0.00010967,-0.00005157,0.000038
 26,-0.00007899,0.00018006,-0.00000599,-0.00006729,-0.00007171,-0.11432
 745,-0.05484499,-0.13693118,-0.00282753,-0.00207645,-0.00390985,0.1236
 3031,0.05758595,0.14547801,-0.00689245,0.00446384,0.01281477,-0.000779
 53,-0.00261517,0.00136004,0.00064883,-0.00002698,-0.00068034,0.0007078
 6,0.00077963,0.00171037,-0.00071193,-0.00023318,-0.00071679,0.00010609
 ,0.00007491,-0.00014267,-0.00007799,0.00045937,-0.00037632,-0.00000363
 ,-0.00002055,0.00019638,-0.00000271,-0.00005867,-0.00010498,0.00000510
 ,-0.00001512,0.00000878,0.00000289,-0.00004129,-0.00012997,-0.00000169
 ,-0.00004636,0.00005850,-0.00001326,-0.00003952,-0.00001730,0.00002491
 ,0.00000330,-0.00002203,-0.00003198,0.00002894,-0.00002974,-0.00037828
 ,-0.00008776,0.00023534,0.00010179,-0.00000945,-0.00005500,-0.00003428
 ,-0.00019775,-0.00028954,-0.08899075,0.03327175,0.08857951,-0.00771093
 ,0.00553427,0.01899429,0.01087310,-0.00767677,-0.02144285,0.09315883,-
 0.01201674,0.00706060,0.02433881,-0.00289938,-0.00387703,0.00263011,0.
 00070130,0.00133683,-0.00047001,0.00095506,0.00135097,0.00135899,0.000
 16226,0.00026668,-0.00067250,0.00021162,0.00009223,0.00013094,0.000090
 96,-0.00000719,0.00000105,-0.00011895,0.00008514,0.00027499,-0.0000768
 1,-0.00005546,-0.00007526,0.00000100,0.00000428,-0.00002283,-0.0000165
 9,-0.00009491,-0.00016821,-0.00001105,0.00010053,-0.00005895,-0.000000
 98,0.00001715,0.00003312,-0.00001431,-0.00001904,-0.00000363,0.0000001
 1,-0.00000934,-0.00001897,0.00042892,0.00001405,-0.00022397,-0.0001009
 6,0.00004560,-0.00008734,0.00001123,0.00008065,0.00028144,0.03377028,-
 0.07467757,-0.07401913,0.00723554,-0.00721935,-0.02179310,0.00523494,-
 0.00450695,-0.00880160,-0.03354745,0.08001214,0.00603888,-0.00471095,-
 0.01391833,0.00109231,0.00309104,-0.00021951,-0.00045960,0.00019318,0.
 00012823,-0.00114479,-0.00034312,0.00027386,0.00050239,0.00011358,0.00
 068528,0.00006048,0.00000684,0.00019427,-0.00008092,-0.00000446,0.0002
 5562,-0.00013853,-0.00004910,-0.00016575,0.00001318,-0.00000018,0.0000
 9136,0.00000405,0.00002188,0.00002082,-0.00001183,0.00005040,0.0001128
 1,0.00002134,-0.00003814,-0.00008636,-0.00000105,0.00001827,-0.0000031
 2,0.00000543,-0.00000162,0.00000880,0.00001040,-0.00000971,0.00001500,
 0.00010603,-0.00014103,-0.00002238,-0.00001453,0.00002516,0.00000812,0
 .00001441,0.00008107,0.00009199,0.08888869,-0.07209797,-0.24249411,-0.
 00276319,0.00196516,0.00646129,0.00780733,-0.00553631,-0.01546780,-0.0
 9995045,0.07736604,0.26402992\\0.00001445,0.00000411,-0.00000164,0.000
 00613,0.00000638,-0.00000556,0.00000411,0.00000578,-0.00000210,-0.0000
 1222,-0.00000604,0.00000215,0.00000250,-0.00000066,-0.00000336,0.00000
 321,0.00000541,-0.00000339,0.00001234,0.00003567,-0.00000784,-0.000013
 84,-0.00000952,0.00000850,0.00000118,0.00000108,0.00000228,0.00000095,
 0.00000118,0.00000171,-0.00000464,0.00000099,0.00000119,0.00000003,0.0
 0000143,0.00001209,0.00000183,-0.00000127,-0.00000008,0.00000064,0.000
 00055,-0.00000098,0.00000186,0.00000030,-0.00000256,0.00000270,-0.0000
 2575,-0.00000566,-0.00000305,0.00000082,0.00000035,-0.00000696,0.00000
 021,-0.00000423,-0.00001367,-0.00001377,0.00001327,-0.00000004,-0.0000
 0192,-0.00000109,0.00000068,-0.00000257,0.00000131,0.00000182,-0.00000
 239,-0.00000437\\\@


 MICHAEL FARADAY, ASKED BY A POLITICIAN WHAT GOOD
 HIS ELECTRICAL DISCOVERIES WERE, REPLIED 
 "AT PRESENT I DO NOT KNOW, BUT ONE DAY YOU WILL BE
 ABLE TO TAX THEM."
 Job cpu time:       0 days  4 hours 13 minutes 11.9 seconds.
 Elapsed time:       0 days  0 hours 11 minutes 37.7 seconds.
 File lengths (MBytes):  RWF=    174 Int=      0 D2E=      0 Chk=     10 Scr=      1
 Normal termination of Gaussian 16 at Thu Oct  1 09:05:06 2026.
