 Entering Gaussian System, Link 0=/applications/g16/g16/g16
 Initial command:
 /applications/g16/g16/l1.exe "/scratch/g98/Gau-82173.inp" -scrdir="/scratch/g98/"
 Entering Link 1 = /applications/g16/g16/l1.exe PID=     82174.
  
 Copyright (c) 1988,1990,1992,1993,1995,1998,2003,2009,2016,
            Gaussian, Inc.  All Rights Reserved.
  
 This is part of the Gaussian(R) 16 program.  It is based on
 the Gaussian(R) 09 system (copyright 2009, Gaussian, Inc.),
 the Gaussian(R) 03 system (copyright 2003, Gaussian, Inc.),
 the Gaussian(R) 98 system (copyright 1998, Gaussian, Inc.),
 the Gaussian(R) 94 system (copyright 1995, Gaussian, Inc.),
 the Gaussian 92(TM) system (copyright 1992, Gaussian, Inc.),
 the Gaussian 90(TM) system (copyright 1990, Gaussian, Inc.),
 the Gaussian 88(TM) system (copyright 1988, Gaussian, Inc.),
 the Gaussian 86(TM) system (copyright 1986, Carnegie Mellon
 University), and the Gaussian 82(TM) system (copyright 1983,
 Carnegie Mellon University). Gaussian is a federally registered
 trademark of Gaussian, Inc.
  
 This software contains proprietary and confidential information,
 including trade secrets, belonging to Gaussian, Inc.
  
 This software is provided under written license and may be
 used, copied, transmitted, or stored only in accord with that
 written license.
  
 The following legend is applicable only to US Government
 contracts under FAR:
  
                    RESTRICTED RIGHTS LEGEND
  
 Use, reproduction and disclosure by the US Government is
 subject to restrictions as set forth in subparagraphs (a)
 and (c) of the Commercial Computer Software - Restricted
 Rights clause in FAR 52.227-19.
  
 Gaussian, Inc.
 340 Quinnipiac St., Bldg. 40, Wallingford CT 06492
  
  
 ---------------------------------------------------------------
 Warning -- This program may not be used in any manner that
 competes with the business of Gaussian, Inc. or will provide
 assistance to any competitor of Gaussian, Inc.  The licensee
 of this program is prohibited from giving any competitor of
 Gaussian, Inc. access to this program.  By using this program,
 the user acknowledges that Gaussian, Inc. is engaged in the
 business of creating and licensing software in the field of
 computational chemistry and represents and warrants to the
 licensee that it is not a competitor of Gaussian, Inc. and that
 it will not use this program in any manner prohibited above.
 ---------------------------------------------------------------
  

 Cite this work as:
 Gaussian 16, Revision A.03,
 M. J. Frisch, G. W. Trucks, H. B. Schlegel, G. E. Scuseria, 
 M. A. Robb, J. R. Cheeseman, G. Scalmani, V. Barone, 
 G. A. Petersson, H. Nakatsuji, X. Li, M. Caricato, A. V. Marenich, 
 J. Bloino, B. G. Janesko, R. Gomperts, B. Mennucci, H. P. Hratchian, 
 J. V. Ortiz, A. F. Izmaylov, J. L. Sonnenberg, D. Williams-Young, 
 F. Ding, F. Lipparini, F. Egidi, J. Goings, B. Peng, A. Petrone, 
 T. Henderson, D. Ranasinghe, V. G. Zakrzewski, J. Gao, N. Rega, 
 G. Zheng, W. Liang, M. Hada, M. Ehara, K. Toyota, R. Fukuda, 
 J. Hasegawa, M. Ishida, T. Nakajima, Y. Honda, O. Kitao, H. Nakai, 
 T. Vreven, K. Throssell, J. A. Montgomery, Jr., J. E. Peralta, 
 F. Ogliaro, M. J. Bearpark, J. J. Heyd, E. N. Brothers, K. N. Kudin, 
 V. N. Staroverov, T. A. Keith, R. Kobayashi, J. Normand, 
 K. Raghavachari, A. P. Rendell, J. C. Burant, S. S. Iyengar, 
 J. Tomasi, M. Cossi, J. M. Millam, M. Klene, C. Adamo, R. Cammi, 
 J. W. Ochterski, R. L. Martin, K. Morokuma, O. Farkas, 
 J. B. Foresman, and D. J. Fox, Gaussian, Inc., Wallingford CT, 2016.
 
 ******************************************
 Gaussian 16:  EM64M-G16RevA.03 25-Dec-2016
                28-Sep-2026 
 ******************************************
 %nprocshared=8
 Will use up to    8 processors via shared memory.
 %mem=28GB
 %chk=aminopropyl_betaine_h.chk
 ----------------------------------------
 # opt freq wb97xd/6-311+g(2d,2p) scf=xqc
 ----------------------------------------
 1/18=20,19=15,26=3,38=1/1,3;
 2/9=110,12=2,17=6,18=5,40=1/2;
 3/5=4,6=6,7=212,11=2,25=1,30=1,71=1,74=-58/1,2,3;
 4//1;
 5/5=2,8=3,13=1,38=5/2,8;
 6/7=2,8=2,9=2,10=2,28=1/1;
 7//1,2,3,16;
 1/18=20,19=15,26=3/3(2);
 2/9=110/2;
 99//99;
 2/9=110/2;
 3/5=4,6=6,7=212,11=2,25=1,30=1,71=1,74=-58/1,2,3;
 4/5=5,16=3,69=1/1;
 5/5=2,8=3,13=1,38=5/2,8;
 7//1,2,3,16;
 1/18=20,19=15,26=3/3(-5);
 2/9=110/2;
 6/7=2,8=2,9=2,10=2,19=2,28=1/1;
 99/9=1/99;
 --------
 opt freq
 --------
 Symbolic Z-matrix:
 Charge =  0 Multiplicity = 1
 C                     1.2909    0.47285  -0.3437 
 H                     0.59478   1.28106  -0.56485 
 H                     1.7008    0.14093  -1.29755 
 C                     0.58963  -0.69584   0.35645 
 H                     0.22473  -0.37452   1.33274 
 H                     1.3349   -1.46503   0.54978 
 C                    -0.53132  -1.31587  -0.47757 
 H                    -0.39052  -1.07919  -1.53227 
 H                    -0.52126  -2.40054  -0.3831 
 N                    -1.93811  -0.89586  -0.14301 
 C                    -2.32848  -1.40536   1.20551 
 H                    -3.35473  -1.09025   1.37573 
 H                    -2.22919  -2.48856   1.20857 
 H                    -1.67494  -0.96965   1.95473 
 C                    -2.8483   -1.50386  -1.16155 
 H                    -2.72084  -2.58394  -1.14089 
 H                    -3.86177  -1.20794  -0.90486 
 H                    -2.5764   -1.11417  -2.13943 
 C                    -2.07932   0.61124  -0.18636 
 H                    -1.74072   0.92843  -1.17083 
 H                    -1.41117   1.01676   0.56796 
 C                    -3.51005   1.2184    0.07421 
 O                    -4.4324    0.42535   0.33505 
 O                    -3.47145   2.44208  -0.02056 
 N                     2.404     1.04416   0.428 
 H                     3.23334   0.51077   0.26161 
 H                     2.55442   1.99134   0.14477 
 

 GradGradGradGradGradGradGradGradGradGradGradGradGradGradGradGradGradGrad
 Berny optimization.
 Initialization pass.
                           ----------------------------
                           !    Initial Parameters    !
                           ! (Angstroms and Degrees)  !
 --------------------------                            --------------------------
 ! Name  Definition              Value          Derivative Info.                !
 --------------------------------------------------------------------------------
 ! R1    R(1,2)                  1.0894         estimate D2E/DX2                !
 ! R2    R(1,3)                  1.09           estimate D2E/DX2                !
 ! R3    R(1,4)                  1.5323         estimate D2E/DX2                !
 ! R4    R(1,25)                 1.47           estimate D2E/DX2                !
 ! R5    R(4,5)                  1.0907         estimate D2E/DX2                !
 ! R6    R(4,6)                  1.0883         estimate D2E/DX2                !
 ! R7    R(4,7)                  1.5286         estimate D2E/DX2                !
 ! R8    R(7,8)                  1.0901         estimate D2E/DX2                !
 ! R9    R(7,9)                  1.0888         estimate D2E/DX2                !
 ! R10   R(7,10)                 1.5058         estimate D2E/DX2                !
 ! R11   R(10,11)                1.4935         estimate D2E/DX2                !
 ! R12   R(10,15)                1.4952         estimate D2E/DX2                !
 ! R13   R(10,19)                1.5143         estimate D2E/DX2                !
 ! R14   R(11,12)                1.0869         estimate D2E/DX2                !
 ! R15   R(11,13)                1.0877         estimate D2E/DX2                !
 ! R16   R(11,14)                1.0855         estimate D2E/DX2                !
 ! R17   R(15,16)                1.0878         estimate D2E/DX2                !
 ! R18   R(15,17)                1.0865         estimate D2E/DX2                !
 ! R19   R(15,18)                1.0872         estimate D2E/DX2                !
 ! R20   R(19,20)                1.0883         estimate D2E/DX2                !
 ! R21   R(19,21)                1.0862         estimate D2E/DX2                !
 ! R22   R(19,22)                1.5759         estimate D2E/DX2                !
 ! R23   R(22,23)                1.2441         estimate D2E/DX2                !
 ! R24   R(22,24)                1.228          estimate D2E/DX2                !
 ! R25   R(25,26)                1.0            estimate D2E/DX2                !
 ! R26   R(25,27)                1.0            estimate D2E/DX2                !
 ! A1    A(2,1,3)              106.7739         estimate D2E/DX2                !
 ! A2    A(2,1,4)              111.4798         estimate D2E/DX2                !
 ! A3    A(2,1,25)             107.5839         estimate D2E/DX2                !
 ! A4    A(3,1,4)              109.8602         estimate D2E/DX2                !
 ! A5    A(3,1,25)             107.0379         estimate D2E/DX2                !
 ! A6    A(4,1,25)             113.772          estimate D2E/DX2                !
 ! A7    A(1,4,5)              109.7212         estimate D2E/DX2                !
 ! A8    A(1,4,6)              107.8677         estimate D2E/DX2                !
 ! A9    A(1,4,7)              113.3089         estimate D2E/DX2                !
 ! A10   A(5,4,6)              106.1595         estimate D2E/DX2                !
 ! A11   A(5,4,7)              111.2575         estimate D2E/DX2                !
 ! A12   A(6,4,7)              108.2048         estimate D2E/DX2                !
 ! A13   A(4,7,8)              110.1894         estimate D2E/DX2                !
 ! A14   A(4,7,9)              110.4856         estimate D2E/DX2                !
 ! A15   A(4,7,10)             116.7919         estimate D2E/DX2                !
 ! A16   A(8,7,9)              107.4003         estimate D2E/DX2                !
 ! A17   A(8,7,10)             105.9669         estimate D2E/DX2                !
 ! A18   A(9,7,10)             105.4988         estimate D2E/DX2                !
 ! A19   A(7,10,11)            110.4663         estimate D2E/DX2                !
 ! A20   A(7,10,15)            107.6953         estimate D2E/DX2                !
 ! A21   A(7,10,19)            110.999          estimate D2E/DX2                !
 ! A22   A(11,10,15)           108.4969         estimate D2E/DX2                !
 ! A23   A(11,10,19)           109.9377         estimate D2E/DX2                !
 ! A24   A(15,10,19)           109.1743         estimate D2E/DX2                !
 ! A25   A(10,11,12)           106.8154         estimate D2E/DX2                !
 ! A26   A(10,11,13)           108.5667         estimate D2E/DX2                !
 ! A27   A(10,11,14)           109.2028         estimate D2E/DX2                !
 ! A28   A(12,11,13)           111.9899         estimate D2E/DX2                !
 ! A29   A(12,11,14)           110.1197         estimate D2E/DX2                !
 ! A30   A(13,11,14)           110.0486         estimate D2E/DX2                !
 ! A31   A(10,15,16)           108.6327         estimate D2E/DX2                !
 ! A32   A(10,15,17)           107.225          estimate D2E/DX2                !
 ! A33   A(10,15,18)           108.3436         estimate D2E/DX2                !
 ! A34   A(16,15,17)           112.0393         estimate D2E/DX2                !
 ! A35   A(16,15,18)           110.1006         estimate D2E/DX2                !
 ! A36   A(17,15,18)           110.3733         estimate D2E/DX2                !
 ! A37   A(10,19,20)           106.6751         estimate D2E/DX2                !
 ! A38   A(10,19,21)           107.1166         estimate D2E/DX2                !
 ! A39   A(10,19,22)           117.6038         estimate D2E/DX2                !
 ! A40   A(20,19,21)           109.1474         estimate D2E/DX2                !
 ! A41   A(20,19,22)           108.6471         estimate D2E/DX2                !
 ! A42   A(21,19,22)           107.4447         estimate D2E/DX2                !
 ! A43   A(19,22,23)           117.5271         estimate D2E/DX2                !
 ! A44   A(19,22,24)           110.0372         estimate D2E/DX2                !
 ! A45   A(23,22,24)           132.4336         estimate D2E/DX2                !
 ! A46   A(1,25,26)            109.4712         estimate D2E/DX2                !
 ! A47   A(1,25,27)            109.4712         estimate D2E/DX2                !
 ! A48   A(26,25,27)           109.4713         estimate D2E/DX2                !
 ! D1    D(2,1,4,5)            -64.7101         estimate D2E/DX2                !
 ! D2    D(2,1,4,6)           -179.9364         estimate D2E/DX2                !
 ! D3    D(2,1,4,7)             60.3074         estimate D2E/DX2                !
 ! D4    D(3,1,4,5)            177.1332         estimate D2E/DX2                !
 ! D5    D(3,1,4,6)             61.9069         estimate D2E/DX2                !
 ! D6    D(3,1,4,7)            -57.8493         estimate D2E/DX2                !
 ! D7    D(25,1,4,5)            57.1653         estimate D2E/DX2                !
 ! D8    D(25,1,4,6)           -58.0611         estimate D2E/DX2                !
 ! D9    D(25,1,4,7)          -177.8172         estimate D2E/DX2                !
 ! D10   D(2,1,25,26)         -151.6843         estimate D2E/DX2                !
 ! D11   D(2,1,25,27)          -31.6843         estimate D2E/DX2                !
 ! D12   D(3,1,25,26)          -37.2434         estimate D2E/DX2                !
 ! D13   D(3,1,25,27)           82.7566         estimate D2E/DX2                !
 ! D14   D(4,1,25,26)           84.3068         estimate D2E/DX2                !
 ! D15   D(4,1,25,27)         -155.6932         estimate D2E/DX2                !
 ! D16   D(1,4,7,8)             21.2406         estimate D2E/DX2                !
 ! D17   D(1,4,7,9)            139.7637         estimate D2E/DX2                !
 ! D18   D(1,4,7,10)           -99.6914         estimate D2E/DX2                !
 ! D19   D(5,4,7,8)            145.4259         estimate D2E/DX2                !
 ! D20   D(5,4,7,9)            -96.051          estimate D2E/DX2                !
 ! D21   D(5,4,7,10)            24.4939         estimate D2E/DX2                !
 ! D22   D(6,4,7,8)            -98.3228         estimate D2E/DX2                !
 ! D23   D(6,4,7,9)             20.2003         estimate D2E/DX2                !
 ! D24   D(6,4,7,10)           140.7452         estimate D2E/DX2                !
 ! D25   D(4,7,10,11)          -67.4876         estimate D2E/DX2                !
 ! D26   D(4,7,10,15)          174.1843         estimate D2E/DX2                !
 ! D27   D(4,7,10,19)           54.729          estimate D2E/DX2                !
 ! D28   D(8,7,10,11)          169.3767         estimate D2E/DX2                !
 ! D29   D(8,7,10,15)           51.0487         estimate D2E/DX2                !
 ! D30   D(8,7,10,19)          -68.4067         estimate D2E/DX2                !
 ! D31   D(9,7,10,11)           55.6656         estimate D2E/DX2                !
 ! D32   D(9,7,10,15)          -62.6624         estimate D2E/DX2                !
 ! D33   D(9,7,10,19)          177.8823         estimate D2E/DX2                !
 ! D34   D(7,10,11,12)        -178.7032         estimate D2E/DX2                !
 ! D35   D(7,10,11,13)         -57.7622         estimate D2E/DX2                !
 ! D36   D(7,10,11,14)          62.2334         estimate D2E/DX2                !
 ! D37   D(15,10,11,12)        -60.866          estimate D2E/DX2                !
 ! D38   D(15,10,11,13)         60.075          estimate D2E/DX2                !
 ! D39   D(15,10,11,14)       -179.9295         estimate D2E/DX2                !
 ! D40   D(19,10,11,12)         58.4591         estimate D2E/DX2                !
 ! D41   D(19,10,11,13)        179.4            estimate D2E/DX2                !
 ! D42   D(19,10,11,14)        -60.6044         estimate D2E/DX2                !
 ! D43   D(7,10,15,16)          57.9295         estimate D2E/DX2                !
 ! D44   D(7,10,15,17)         179.2032         estimate D2E/DX2                !
 ! D45   D(7,10,15,18)         -61.6669         estimate D2E/DX2                !
 ! D46   D(11,10,15,16)        -61.6577         estimate D2E/DX2                !
 ! D47   D(11,10,15,17)         59.616          estimate D2E/DX2                !
 ! D48   D(11,10,15,18)        178.7458         estimate D2E/DX2                !
 ! D49   D(19,10,15,16)        178.5391         estimate D2E/DX2                !
 ! D50   D(19,10,15,17)        -60.1872         estimate D2E/DX2                !
 ! D51   D(19,10,15,18)         58.9427         estimate D2E/DX2                !
 ! D52   D(7,10,19,20)          54.9833         estimate D2E/DX2                !
 ! D53   D(7,10,19,21)         -61.7932         estimate D2E/DX2                !
 ! D54   D(7,10,19,22)         177.2099         estimate D2E/DX2                !
 ! D55   D(11,10,19,20)        177.5068         estimate D2E/DX2                !
 ! D56   D(11,10,19,21)         60.7303         estimate D2E/DX2                !
 ! D57   D(11,10,19,22)        -60.2667         estimate D2E/DX2                !
 ! D58   D(15,10,19,20)        -63.583          estimate D2E/DX2                !
 ! D59   D(15,10,19,21)        179.6404         estimate D2E/DX2                !
 ! D60   D(15,10,19,22)         58.6435         estimate D2E/DX2                !
 ! D61   D(10,19,22,23)          1.8472         estimate D2E/DX2                !
 ! D62   D(10,19,22,24)       -178.6113         estimate D2E/DX2                !
 ! D63   D(20,19,22,23)        123.0578         estimate D2E/DX2                !
 ! D64   D(20,19,22,24)        -57.4007         estimate D2E/DX2                !
 ! D65   D(21,19,22,23)       -118.9793         estimate D2E/DX2                !
 ! D66   D(21,19,22,24)         60.5622         estimate D2E/DX2                !
 --------------------------------------------------------------------------------
 Trust Radius=3.00D-01 FncErr=1.00D-07 GrdErr=1.00D-06 EigMax=2.50D+02 EigMin=1.00D-04
 Number of steps in this run=    150 maximum allowed number of steps=    162.
 GradGradGradGradGradGradGradGradGradGradGradGradGradGradGradGradGradGrad

                          Input orientation:                          
 ---------------------------------------------------------------------
 Center     Atomic      Atomic             Coordinates (Angstroms)
 Number     Number       Type             X           Y           Z
 ---------------------------------------------------------------------
      1          6           0        1.290900    0.472853   -0.343704
      2          1           0        0.594780    1.281064   -0.564847
      3          1           0        1.700797    0.140933   -1.297546
      4          6           0        0.589625   -0.695836    0.356452
      5          1           0        0.224734   -0.374523    1.332741
      6          1           0        1.334903   -1.465026    0.549777
      7          6           0       -0.531321   -1.315867   -0.477565
      8          1           0       -0.390523   -1.079186   -1.532267
      9          1           0       -0.521264   -2.400543   -0.383104
     10          7           0       -1.938114   -0.895862   -0.143011
     11          6           0       -2.328485   -1.405363    1.205507
     12          1           0       -3.354727   -1.090248    1.375729
     13          1           0       -2.229190   -2.488564    1.208571
     14          1           0       -1.674942   -0.969645    1.954734
     15          6           0       -2.848301   -1.503863   -1.161546
     16          1           0       -2.720835   -2.583940   -1.140892
     17          1           0       -3.861773   -1.207938   -0.904855
     18          1           0       -2.576401   -1.114172   -2.139427
     19          6           0       -2.079317    0.611244   -0.186361
     20          1           0       -1.740718    0.928434   -1.170832
     21          1           0       -1.411168    1.016765    0.567961
     22          6           0       -3.510049    1.218403    0.074212
     23          8           0       -4.432405    0.425355    0.335047
     24          8           0       -3.471446    2.442084   -0.020555
     25          7           0        2.403995    1.044158    0.428003
     26          1           0        3.233337    0.510767    0.261608
     27          1           0        2.554422    1.991339    0.144774
 ---------------------------------------------------------------------
                    Distance matrix (angstroms):
                    1          2          3          4          5
     1  C    0.000000
     2  H    1.089355   0.000000
     3  H    1.089955   1.749292   0.000000
     4  C    1.532266   2.181044   2.161156   0.000000
     5  H    2.159913   2.545337   3.059880   1.090655   0.000000
     6  H    2.134390   3.054698   2.474992   1.088332   1.742041
     7  C    2.556937   2.831921   2.788725   1.528575   2.175995
     8  H    2.578506   2.734503   2.432571   2.162153   3.013862
     9  H    3.397336   3.851339   3.497550   2.164957   2.757788
    10  N    3.512861   3.366378   3.955953   2.584364   2.669747
    11  C    4.362075   4.347013   4.989130   3.120847   2.756401
    12  H    5.194381   4.998756   5.849832   4.092970   3.650569
    13  H    4.854954   5.032883   5.351605   3.447564   3.241347
    14  H    4.019929   4.070088   4.817294   2.785272   2.085620
    15  C    4.659320   4.468409   4.839230   3.844030   4.115874
    16  H    5.106223   5.124782   5.196181   4.094645   4.435849
    17  H    5.448852   5.115818   5.737232   4.654899   4.732964
    18  H    4.549647   4.274675   4.536350   4.053163   4.522099
    19  C    3.376725   2.782571   3.968020   3.020986   2.930538
    20  H    3.175280   2.438466   3.532738   3.225112   3.439269
    21  H    2.903127   2.318822   3.732496   2.642142   2.279637
    22  C    4.876434   4.154749   5.495050   4.533354   4.250871
    23  O    5.763608   5.178285   6.353143   5.145708   4.829507
    24  O    5.163549   4.263615   5.803283   5.145967   4.840085
    25  N    1.470000   2.077290   2.070706   2.514883   2.753250
    26  H    2.034920   2.870256   2.217300   2.907594   3.314025
    27  H    2.034920   2.201874   2.496591   3.335588   3.526474
                    6          7          8          9         10
     6  H    0.000000
     7  C    2.135526   0.000000
     8  H    2.731460   1.090064   0.000000
     9  H    2.278336   1.088827   1.756033   0.000000
    10  N    3.393603   1.505789   2.087745   2.080666   0.000000
    11  C    3.722090   2.463847   3.370088   2.603865   1.493480
    12  H    4.776535   3.384853   4.152478   3.583138   2.085941
    13  H    3.766218   2.664777   3.588766   2.336277   2.109076
    14  H    3.358343   2.709948   3.717648   2.973874   2.115475
    15  C    4.519882   2.423133   2.521599   2.612491   1.495166
    16  H    4.534241   2.615719   2.801395   2.333664   2.111404
    17  H    5.402544   3.359484   3.529844   3.585181   2.092429
    18  H    4.759539   2.642880   2.268905   2.993827   2.107307
    19  C    4.063212   2.488945   2.742452   3.396630   1.514326
    20  H    4.260116   2.641997   2.446263   3.631758   2.103196
    21  H    3.701422   2.703410   3.137783   3.657108   2.107437
    22  C    5.558823   3.949659   4.194179   4.715797   2.643536
    23  O    6.073013   4.348638   4.699715   4.878366   2.862803
    24  O    6.220271   4.793265   4.916981   5.682081   3.675321
    25  N    2.730163   3.873738   4.020022   4.591405   4.789952
    26  H    2.755150   4.249190   4.344916   4.794623   5.374591
    27  H    3.687508   4.565822   4.573106   5.387683   5.348049
                   11         12         13         14         15
    11  C    0.000000
    12  H    1.086944   0.000000
    13  H    1.087747   1.802793   0.000000
    14  H    1.085499   1.780863   1.780748   0.000000
    15  C    2.425459   2.620174   2.640150   3.372442   0.000000
    16  H    2.654914   2.994380   2.402246   3.644549   1.087768
    17  H    2.616023   2.339233   2.961739   3.607806   1.086548
    18  H    3.366724   3.600373   3.635739   4.194719   1.087216
    19  C    2.462942   2.638536   3.402514   2.692028   2.452754
    20  H    3.382168   3.628371   4.192378   3.657348   2.672620
    21  H    2.667328   2.978156   3.656073   2.436912   3.377886
    22  C    3.091936   2.654795   4.082765   3.419288   3.061984
    23  O    2.921593   2.131070   3.756078   3.488985   2.910508
    24  O    4.196717   3.800079   5.231179   4.332331   4.154596
    25  N    5.385260   6.214238   5.878419   4.798337   6.050264
    26  H    5.957882   6.870743   6.303327   5.399027   6.562807
    27  H    6.041980   6.777129   6.639589   5.470914   6.565999
                   16         17         18         19         20
    16  H    0.000000
    17  H    1.803006   0.000000
    18  H    1.782737   1.784696   0.000000
    19  C    3.395861   2.646281   2.653040   0.000000
    20  H    3.646682   3.022201   2.410141   1.088321   0.000000
    21  H    4.195292   3.622699   3.637115   1.086218   1.771949
    22  C    4.069047   2.639964   3.348552   1.575924   2.182831
    23  O    3.763472   2.128526   3.455129   2.417322   3.125050
    24  O    5.203795   3.775844   4.235289   2.305968   2.570932
    25  N    6.472125   6.790308   6.004534   4.545871   4.443907
    26  H    6.855391   7.392913   6.492953   5.332453   5.193029
    27  H    7.100314   7.246009   6.417719   4.846220   4.616148
                   21         22         23         24         25
    21  H    0.000000
    22  C    2.165582   0.000000
    23  O    3.087375   1.244066   0.000000
    24  O    2.573447   1.227952   2.262099   0.000000
    25  N    3.817828   5.927179   6.864978   6.056089   0.000000
    26  H    4.682020   6.783002   7.666569   6.983102   1.000000
    27  H    4.105459   6.113937   7.162699   6.044964   1.000000
                   26         27
    26  H    0.000000
    27  H    1.632993   0.000000
 Stoichiometry    C7H16N2O2
 Framework group  C1[X(C7H16N2O2)]
 Deg. of freedom    75
 Full point group                 C1      NOp   1
 Largest Abelian subgroup         C1      NOp   1
 Largest concise Abelian subgroup C1      NOp   1
                         Standard orientation:                         
 ---------------------------------------------------------------------
 Center     Atomic      Atomic             Coordinates (Angstroms)
 Number     Number       Type             X           Y           Z
 ---------------------------------------------------------------------
      1          6           0        2.719778    0.527864   -0.404931
      2          1           0        1.999928    1.302135   -0.667639
      3          1           0        3.127248    0.146476   -1.341154
      4          6           0        2.057945   -0.611483    0.377184
      5          1           0        1.696003   -0.238085    1.335882
      6          1           0        2.825573   -1.347332    0.609005
      7          6           0        0.944254   -1.312089   -0.400881
      8          1           0        1.066474   -1.139583   -1.470247
      9          1           0        0.984197   -2.387915   -0.237952
     10          7           0       -0.469217   -0.907981   -0.075008
     11          6           0       -0.830254   -1.340356    1.308172
     12          1           0       -1.862456   -1.041566    1.471663
     13          1           0       -0.702210   -2.418241    1.378618
     14          1           0       -0.179860   -0.841071    2.019517
     15          6           0       -1.374698   -1.602922   -1.040763
     16          1           0       -1.218373   -2.675842   -0.953334
     17          1           0       -2.392622   -1.317434   -0.789936
     18          1           0       -1.124601   -1.269494   -2.044912
     19          6           0       -0.650873    0.589157   -0.211987
     20          1           0       -0.332258    0.851553   -1.219000
     21          1           0        0.014981    1.059018    0.506163
     22          6           0       -2.094100    1.174643    0.028508
     23          8           0       -2.991990    0.376345    0.351333
     24          8           0       -2.089098    2.390380   -0.144189
     25          7           0        3.826192    1.175685    0.314149
     26          1           0        4.667415    0.654309    0.170934
     27          1           0        3.948125    2.106442   -0.030558
 ---------------------------------------------------------------------
 Rotational constants (GHZ):           1.5469858           0.6294843           0.5064906
 Standard basis: 6-311+G(2d,2p) (5D, 7F)
 There are   463 symmetry adapted cartesian basis functions of A   symmetry.
 There are   441 symmetry adapted basis functions of A   symmetry.
   441 basis functions,   638 primitive gaussians,   463 cartesian basis functions
    44 alpha electrons       44 beta electrons
       nuclear repulsion energy       681.1359868554 Hartrees.
 NAtoms=   27 NActive=   27 NUniq=   27 SFac= 1.00D+00 NAtFMM=   60 NAOKFM=F Big=F
 Integral buffers will be    131072 words long.
 Raffenetti 2 integral format.
 Two-electron integral symmetry is turned on.
 Nuclear repulsion after empirical dispersion term =      681.1145496571 Hartrees.
 One-electron integrals computed using PRISM.
 NBasis=   441 RedAO= T EigKep=  1.21D-05  NBF=   441
 NBsUse=   441 1.00D-06 EigRej= -1.00D+00 NBFU=   441
 ExpMin= 4.38D-02 ExpMax= 8.59D+03 ExpMxC= 1.30D+03 IAcc=3 IRadAn=         5 AccDes= 0.00D+00
 Harris functional with IExCor= 4639 and IRadAn=       5 diagonalized for initial guess.
 HarFok:  IExCor= 4639 AccDes= 0.00D+00 IRadAn=         5 IDoV= 1 UseB2=F ITyADJ=14
 ICtDFT=  3500011 ScaDFX=  1.000000  1.000000  1.000000  1.000000
 FoFCou: FMM=F IPFlag=           0 FMFlag=      100000 FMFlg1=           0
         NFxFlg=           0 DoJE=T BraDBF=F KetDBF=T FulRan=T
         wScrn=  0.000000 ICntrl=       500 IOpCl=  0 I1Cent=   200000004 NGrid=           0
         NMat0=    1 NMatS0=      1 NMatT0=    0 NMatD0=    1 NMtDS0=    0 NMtDT0=    0
 Petite list used in FoFCou.
 Requested convergence on RMS density matrix=1.00D-08 within  32 cycles.
 Requested convergence on MAX density matrix=1.00D-06.
 Requested convergence on             energy=1.00D-06.
 No special actions if energy rises.
 SCF Done:  E(RwB97XD) =  -536.301768822     A.U. after   14 cycles
            NFock= 14  Conv=0.57D-08     -V/T= 2.0039
 QCSCF skips out because SCF is already converged.

 **********************************************************************

            Population analysis using the SCF density.

 **********************************************************************

 Orbital symmetries:
       Occupied  (A) (A) (A) (A) (A) (A) (A) (A) (A) (A) (A) (A)
                 (A) (A) (A) (A) (A) (A) (A) (A) (A) (A) (A) (A)
                 (A) (A) (A) (A) (A) (A) (A) (A) (A) (A) (A) (A)
                 (A) (A) (A) (A) (A) (A) (A) (A)
       Virtual   (A) (A) (A) (A) (A) (A) (A) (A) (A) (A) (A) (A)
                 (A) (A) (A) (A) (A) (A) (A) (A) (A) (A) (A) (A)
                 (A) (A) (A) (A) (A) (A) (A) (A) (A) (A) (A) (A)
                 (A) (A) (A) (A) (A) (A) (A) (A) (A) (A) (A) (A)
                 (A) (A) (A) (A) (A) (A) (A) (A) (A) (A) (A) (A)
                 (A) (A) (A) (A) (A) (A) (A) (A) (A) (A) (A) (A)
                 (A) (A) (A) (A) (A) (A) (A) (A) (A) (A) (A) (A)
                 (A) (A) (A) (A) (A) (A) (A) (A) (A) (A) (A) (A)
                 (A) (A) (A) (A) (A) (A) (A) (A) (A) (A) (A) (A)
                 (A) (A) (A) (A) (A) (A) (A) (A) (A) (A) (A) (A)
                 (A) (A) (A) (A) (A) (A) (A) (A) (A) (A) (A) (A)
                 (A) (A) (A) (A) (A) (A) (A) (A) (A) (A) (A) (A)
                 (A) (A) (A) (A) (A) (A) (A) (A) (A) (A) (A) (A)
                 (A) (A) (A) (A) (A) (A) (A) (A) (A) (A) (A) (A)
                 (A) (A) (A) (A) (A) (A) (A) (A) (A) (A) (A) (A)
                 (A) (A) (A) (A) (A) (A) (A) (A) (A) (A) (A) (A)
                 (A) (A) (A) (A) (A) (A) (A) (A) (A) (A) (A) (A)
                 (A) (A) (A) (A) (A) (A) (A) (A) (A) (A) (A) (A)
                 (A) (A) (A) (A) (A) (A) (A) (A) (A) (A) (A) (A)
                 (A) (A) (A) (A) (A) (A) (A) (A) (A) (A) (A) (A)
                 (A) (A) (A) (A) (A) (A) (A) (A) (A) (A) (A) (A)
                 (A) (A) (A) (A) (A) (A) (A) (A) (A) (A) (A) (A)
                 (A) (A) (A) (A) (A) (A) (A) (A) (A) (A) (A) (A)
                 (A) (A) (A) (A) (A) (A) (A) (A) (A) (A) (A) (A)
                 (A) (A) (A) (A) (A) (A) (A) (A) (A) (A) (A) (A)
                 (A) (A) (A) (A) (A) (A) (A) (A) (A) (A) (A) (A)
                 (A) (A) (A) (A) (A) (A) (A) (A) (A) (A) (A) (A)
                 (A) (A) (A) (A) (A) (A) (A) (A) (A) (A) (A) (A)
                 (A) (A) (A) (A) (A) (A) (A) (A) (A) (A) (A) (A)
                 (A) (A) (A) (A) (A) (A) (A) (A) (A) (A) (A) (A)
                 (A) (A) (A) (A) (A) (A) (A) (A) (A) (A) (A) (A)
                 (A) (A) (A) (A) (A) (A) (A) (A) (A) (A) (A) (A)
                 (A) (A) (A) (A) (A) (A) (A) (A) (A) (A) (A) (A)
                 (A)
 The electronic state is 1-A.
 Alpha  occ. eigenvalues --  -19.16013 -19.15392 -14.58139 -14.43184 -10.37305
 Alpha  occ. eigenvalues --  -10.34848 -10.34535 -10.34424 -10.33498 -10.32902
 Alpha  occ. eigenvalues --  -10.32365  -1.14519  -1.10520  -1.02331  -1.01254
 Alpha  occ. eigenvalues --   -0.92302  -0.86886  -0.85787  -0.82596  -0.74941
 Alpha  occ. eigenvalues --   -0.72156  -0.65096  -0.64237  -0.62268  -0.61134
 Alpha  occ. eigenvalues --   -0.57842  -0.56666  -0.56420  -0.54843  -0.52789
 Alpha  occ. eigenvalues --   -0.51544  -0.51276  -0.51086  -0.50478  -0.48526
 Alpha  occ. eigenvalues --   -0.48008  -0.47848  -0.45839  -0.45462  -0.43395
 Alpha  occ. eigenvalues --   -0.34931  -0.30655  -0.29935  -0.29307
 Alpha virt. eigenvalues --    0.03192   0.04771   0.05308   0.06368   0.07261
 Alpha virt. eigenvalues --    0.07856   0.08369   0.09124   0.10314   0.10559
 Alpha virt. eigenvalues --    0.11435   0.12304   0.12844   0.13136   0.14007
 Alpha virt. eigenvalues --    0.14090   0.14740   0.15700   0.16073   0.16500
 Alpha virt. eigenvalues --    0.17277   0.17499   0.18055   0.18210   0.18546
 Alpha virt. eigenvalues --    0.19153   0.19500   0.20363   0.20641   0.20791
 Alpha virt. eigenvalues --    0.21362   0.21975   0.22709   0.23180   0.23464
 Alpha virt. eigenvalues --    0.23812   0.24151   0.24486   0.25931   0.26026
 Alpha virt. eigenvalues --    0.27132   0.27939   0.28140   0.28514   0.29573
 Alpha virt. eigenvalues --    0.29990   0.30473   0.30929   0.31552   0.31740
 Alpha virt. eigenvalues --    0.32056   0.33020   0.34004   0.34837   0.35204
 Alpha virt. eigenvalues --    0.35989   0.37075   0.37502   0.38024   0.39185
 Alpha virt. eigenvalues --    0.39571   0.40336   0.41224   0.41454   0.42824
 Alpha virt. eigenvalues --    0.43507   0.45050   0.45697   0.46344   0.47178
 Alpha virt. eigenvalues --    0.48065   0.48965   0.51160   0.52175   0.52788
 Alpha virt. eigenvalues --    0.53284   0.53490   0.53874   0.55241   0.55539
 Alpha virt. eigenvalues --    0.57058   0.58086   0.58720   0.60083   0.60659
 Alpha virt. eigenvalues --    0.60844   0.61451   0.62577   0.63733   0.64164
 Alpha virt. eigenvalues --    0.65095   0.65243   0.65796   0.66116   0.66874
 Alpha virt. eigenvalues --    0.67918   0.68311   0.69395   0.70151   0.70388
 Alpha virt. eigenvalues --    0.71602   0.72428   0.72586   0.73349   0.74184
 Alpha virt. eigenvalues --    0.74728   0.76023   0.76213   0.76875   0.77632
 Alpha virt. eigenvalues --    0.77989   0.78467   0.79999   0.82277   0.83246
 Alpha virt. eigenvalues --    0.83974   0.85013   0.85944   0.89820   0.90340
 Alpha virt. eigenvalues --    0.91451   0.92460   0.93571   0.95261   0.96209
 Alpha virt. eigenvalues --    0.97892   0.98774   0.99701   1.01002   1.01905
 Alpha virt. eigenvalues --    1.04326   1.04771   1.05393   1.06375   1.07165
 Alpha virt. eigenvalues --    1.09634   1.09861   1.10470   1.12265   1.12881
 Alpha virt. eigenvalues --    1.15303   1.15653   1.16346   1.17712   1.18415
 Alpha virt. eigenvalues --    1.19512   1.20287   1.20772   1.22305   1.23314
 Alpha virt. eigenvalues --    1.23799   1.24355   1.24613   1.27463   1.28162
 Alpha virt. eigenvalues --    1.28508   1.29051   1.29945   1.31171   1.32264
 Alpha virt. eigenvalues --    1.32618   1.33581   1.34047   1.35793   1.36956
 Alpha virt. eigenvalues --    1.37294   1.37860   1.38250   1.39664   1.39910
 Alpha virt. eigenvalues --    1.40618   1.41118   1.43033   1.43701   1.43955
 Alpha virt. eigenvalues --    1.44993   1.46130   1.47506   1.48598   1.48767
 Alpha virt. eigenvalues --    1.49664   1.50044   1.50994   1.52497   1.52936
 Alpha virt. eigenvalues --    1.53673   1.54499   1.55051   1.55559   1.56925
 Alpha virt. eigenvalues --    1.58738   1.59384   1.60750   1.62084   1.62628
 Alpha virt. eigenvalues --    1.64370   1.65423   1.66142   1.67321   1.67845
 Alpha virt. eigenvalues --    1.68475   1.69220   1.70586   1.70813   1.72579
 Alpha virt. eigenvalues --    1.73222   1.75825   1.76728   1.78377   1.79250
 Alpha virt. eigenvalues --    1.80759   1.82757   1.83585   1.86969   1.91017
 Alpha virt. eigenvalues --    1.91889   1.93250   1.94887   1.97234   1.98382
 Alpha virt. eigenvalues --    1.98836   2.00672   2.02460   2.02960   2.06493
 Alpha virt. eigenvalues --    2.08028   2.08593   2.15362   2.22096   2.40755
 Alpha virt. eigenvalues --    2.50178   2.65374   2.75053   2.77457   2.81959
 Alpha virt. eigenvalues --    2.84199   2.85752   2.87553   2.89061   2.90679
 Alpha virt. eigenvalues --    2.94122   2.95256   2.98504   3.00149   3.02503
 Alpha virt. eigenvalues --    3.08420   3.09941   3.12661   3.14565   3.17331
 Alpha virt. eigenvalues --    3.19368   3.22605   3.25240   3.28807   3.30084
 Alpha virt. eigenvalues --    3.30756   3.32905   3.34682   3.36378   3.38679
 Alpha virt. eigenvalues --    3.40282   3.41519   3.43131   3.45850   3.46558
 Alpha virt. eigenvalues --    3.48510   3.49290   3.50439   3.51367   3.53150
 Alpha virt. eigenvalues --    3.54422   3.55145   3.57381   3.58763   3.59518
 Alpha virt. eigenvalues --    3.61555   3.63286   3.63505   3.64210   3.66267
 Alpha virt. eigenvalues --    3.67054   3.68383   3.69567   3.71374   3.72635
 Alpha virt. eigenvalues --    3.74702   3.74924   3.76258   3.76810   3.78954
 Alpha virt. eigenvalues --    3.80811   3.81904   3.83752   3.84674   3.85264
 Alpha virt. eigenvalues --    3.88595   3.89236   3.90720   3.92366   3.92958
 Alpha virt. eigenvalues --    3.94351   3.94734   3.96510   3.98721   4.00342
 Alpha virt. eigenvalues --    4.01260   4.02901   4.03933   4.04587   4.05942
 Alpha virt. eigenvalues --    4.07694   4.09383   4.10861   4.11414   4.12657
 Alpha virt. eigenvalues --    4.12936   4.15318   4.17456   4.17804   4.19827
 Alpha virt. eigenvalues --    4.21224   4.21684   4.23076   4.23829   4.25824
 Alpha virt. eigenvalues --    4.27237   4.29420   4.30541   4.31337   4.32474
 Alpha virt. eigenvalues --    4.35580   4.35921   4.37319   4.39015   4.40429
 Alpha virt. eigenvalues --    4.42239   4.43136   4.44458   4.46090   4.48428
 Alpha virt. eigenvalues --    4.50893   4.52808   4.58044   4.64590   4.74610
 Alpha virt. eigenvalues --    4.84877   4.94145   5.00303   5.01261   5.02296
 Alpha virt. eigenvalues --    5.07078   5.11137   5.11864   5.12308   5.14404
 Alpha virt. eigenvalues --    5.15083   5.16081   5.18011   5.20691   5.23406
 Alpha virt. eigenvalues --    5.24002   5.26743   5.29630   5.30491   5.36266
 Alpha virt. eigenvalues --    5.38090   5.45579   5.48328   5.55322   5.70538
 Alpha virt. eigenvalues --    5.73587   5.76088   5.83677   5.98341   6.08399
 Alpha virt. eigenvalues --    6.34345   6.96807   7.05347   7.08869   7.10247
 Alpha virt. eigenvalues --    7.21071   7.32876   7.37198   7.41594   7.45581
 Alpha virt. eigenvalues --    7.54230  23.99360  24.04372  24.08409  24.15090
 Alpha virt. eigenvalues --   24.17170  24.19177  24.35566  35.57108  35.76099
 Alpha virt. eigenvalues --   50.18418  50.26895
          Condensed to atoms (all electrons):
               1          2          3          4          5          6
     1  C    5.179671   0.443202   0.486285   0.012193  -0.029015  -0.018430
     2  H    0.443202   0.527328  -0.031846  -0.014429  -0.005665   0.004281
     3  H    0.486285  -0.031846   0.576645  -0.009735   0.004048  -0.009466
     4  C    0.012193  -0.014429  -0.009735   5.844507   0.438580   0.455776
     5  H   -0.029015  -0.005665   0.004048   0.438580   0.484917  -0.021895
     6  H   -0.018430   0.004281  -0.009466   0.455776  -0.021895   0.512204
     7  C   -0.059390  -0.010150  -0.059969  -0.271370  -0.033013  -0.045994
     8  H    0.003839  -0.001878   0.004903  -0.024260   0.002419   0.001787
     9  H    0.012744  -0.000296   0.000298  -0.063314   0.001650  -0.009013
    10  N    0.018216  -0.000627   0.003018  -0.039972   0.027626  -0.003871
    11  C    0.022985   0.000079  -0.000729  -0.045323  -0.005892   0.001555
    12  H   -0.000860   0.000003   0.000002  -0.000358   0.000037  -0.000022
    13  H    0.001848  -0.000004   0.000002  -0.011964   0.000205   0.000227
    14  H   -0.004898   0.000055  -0.000003   0.005406   0.004777  -0.000098
    15  C   -0.021533  -0.000605  -0.000746  -0.089829   0.006386   0.000147
    16  H    0.002328  -0.000001  -0.000017  -0.000755   0.000004  -0.000007
    17  H   -0.000489   0.000005   0.000001   0.003730  -0.000039   0.000008
    18  H   -0.002651  -0.000059   0.000070  -0.000413  -0.000004   0.000000
    19  C    0.012191  -0.003021  -0.003545   0.025083  -0.015205   0.004885
    20  H   -0.012908  -0.001147   0.000202  -0.015445   0.000255  -0.000137
    21  H    0.005099  -0.004319   0.000305   0.050958  -0.002986  -0.000094
    22  C   -0.046972   0.008345  -0.000935   0.037983  -0.001476   0.001315
    23  O   -0.003098  -0.000022  -0.000001   0.010684  -0.000177  -0.000023
    24  O    0.001813  -0.000561  -0.000003  -0.012363   0.000210   0.000008
    25  N    0.266320  -0.033133  -0.058996  -0.034832  -0.003267   0.001473
    26  H    0.002476   0.005226  -0.013465  -0.031195  -0.000006   0.002231
    27  H   -0.032894  -0.007696   0.000639   0.007992   0.000252  -0.000248
               7          8          9         10         11         12
     1  C   -0.059390   0.003839   0.012744   0.018216   0.022985  -0.000860
     2  H   -0.010150  -0.001878  -0.000296  -0.000627   0.000079   0.000003
     3  H   -0.059969   0.004903   0.000298   0.003018  -0.000729   0.000002
     4  C   -0.271370  -0.024260  -0.063314  -0.039972  -0.045323  -0.000358
     5  H   -0.033013   0.002419   0.001650   0.027626  -0.005892   0.000037
     6  H   -0.045994   0.001787  -0.009013  -0.003871   0.001555  -0.000022
     7  C    5.585353   0.406511   0.462930   0.279506  -0.059217   0.009055
     8  H    0.406511   0.496662  -0.018278  -0.028501   0.001127  -0.000198
     9  H    0.462930  -0.018278   0.487650  -0.020039  -0.001022  -0.000278
    10  N    0.279506  -0.028501  -0.020039   6.970268   0.128456  -0.037961
    11  C   -0.059217   0.001127  -0.001022   0.128456   5.081238   0.426346
    12  H    0.009055  -0.000198  -0.000278  -0.037961   0.426346   0.419154
    13  H   -0.003344   0.000444   0.001899  -0.021030   0.428363  -0.018805
    14  H   -0.003884  -0.000369  -0.000547  -0.019339   0.398543  -0.011887
    15  C   -0.012827   0.007472  -0.006039   0.182140  -0.074034  -0.002405
    16  H   -0.003433  -0.002115   0.002594  -0.017258  -0.017568  -0.000809
    17  H    0.004376   0.000126  -0.000220  -0.034975  -0.001505   0.001453
    18  H   -0.014797   0.005552  -0.000370  -0.026583   0.013771   0.000018
    19  C   -0.120036  -0.009090  -0.003639  -0.087473   0.009242  -0.004202
    20  H    0.025091  -0.001641  -0.000153  -0.010652   0.007413   0.000459
    21  H   -0.044737   0.000300   0.000054  -0.018546  -0.016200  -0.001389
    22  C   -0.014181   0.002993  -0.003015  -0.101060  -0.024518  -0.002318
    23  O    0.024157  -0.000512   0.000095   0.081629  -0.054904   0.017692
    24  O    0.013140   0.000072   0.000052   0.035160   0.001042  -0.000312
    25  N    0.010204  -0.000633  -0.000292  -0.002685   0.000345   0.000016
    26  H    0.004281  -0.000064   0.000014   0.000040  -0.000027  -0.000000
    27  H    0.006261  -0.000040  -0.000001   0.000056   0.000015   0.000000
              13         14         15         16         17         18
     1  C    0.001848  -0.004898  -0.021533   0.002328  -0.000489  -0.002651
     2  H   -0.000004   0.000055  -0.000605  -0.000001   0.000005  -0.000059
     3  H    0.000002  -0.000003  -0.000746  -0.000017   0.000001   0.000070
     4  C   -0.011964   0.005406  -0.089829  -0.000755   0.003730  -0.000413
     5  H    0.000205   0.004777   0.006386   0.000004  -0.000039  -0.000004
     6  H    0.000227  -0.000098   0.000147  -0.000007   0.000008   0.000000
     7  C   -0.003344  -0.003884  -0.012827  -0.003433   0.004376  -0.014797
     8  H    0.000444  -0.000369   0.007472  -0.002115   0.000126   0.005552
     9  H    0.001899  -0.000547  -0.006039   0.002594  -0.000220  -0.000370
    10  N   -0.021030  -0.019339   0.182140  -0.017258  -0.034975  -0.026583
    11  C    0.428363   0.398543  -0.074034  -0.017568  -0.001505   0.013771
    12  H   -0.018805  -0.011887  -0.002405  -0.000809   0.001453   0.000018
    13  H    0.516267  -0.026105  -0.014754   0.003325  -0.000520   0.000145
    14  H   -0.026105   0.513287   0.014350   0.000257  -0.000017  -0.000538
    15  C   -0.014754   0.014350   5.113118   0.414215   0.423273   0.411473
    16  H    0.003325   0.000257   0.414215   0.523216  -0.018319  -0.027278
    17  H   -0.000520  -0.000017   0.423273  -0.018319   0.421326  -0.011817
    18  H    0.000145  -0.000538   0.411473  -0.027278  -0.011817   0.510753
    19  C    0.016626  -0.021821  -0.102009   0.020158  -0.008777  -0.019386
    20  H   -0.000227  -0.000074  -0.021087  -0.000194  -0.001139   0.000649
    21  H   -0.000111   0.001805   0.001484  -0.000129   0.000469   0.000235
    22  C   -0.008287   0.014699   0.001367  -0.011535   0.002136   0.018777
    23  O    0.001382  -0.002714  -0.053562   0.001483   0.015389  -0.003590
    24  O    0.000029   0.000473   0.002544  -0.000001  -0.000131   0.000773
    25  N   -0.000003   0.000066   0.000811  -0.000008  -0.000003  -0.000013
    26  H   -0.000000   0.000004   0.000012  -0.000000   0.000000  -0.000000
    27  H   -0.000001   0.000006   0.000058  -0.000000   0.000000  -0.000000
              19         20         21         22         23         24
     1  C    0.012191  -0.012908   0.005099  -0.046972  -0.003098   0.001813
     2  H   -0.003021  -0.001147  -0.004319   0.008345  -0.000022  -0.000561
     3  H   -0.003545   0.000202   0.000305  -0.000935  -0.000001  -0.000003
     4  C    0.025083  -0.015445   0.050958   0.037983   0.010684  -0.012363
     5  H   -0.015205   0.000255  -0.002986  -0.001476  -0.000177   0.000210
     6  H    0.004885  -0.000137  -0.000094   0.001315  -0.000023   0.000008
     7  C   -0.120036   0.025091  -0.044737  -0.014181   0.024157   0.013140
     8  H   -0.009090  -0.001641   0.000300   0.002993  -0.000512   0.000072
     9  H   -0.003639  -0.000153   0.000054  -0.003015   0.000095   0.000052
    10  N   -0.087473  -0.010652  -0.018546  -0.101060   0.081629   0.035160
    11  C    0.009242   0.007413  -0.016200  -0.024518  -0.054904   0.001042
    12  H   -0.004202   0.000459  -0.001389  -0.002318   0.017692  -0.000312
    13  H    0.016626  -0.000227  -0.000111  -0.008287   0.001382   0.000029
    14  H   -0.021821  -0.000074   0.001805   0.014699  -0.002714   0.000473
    15  C   -0.102009  -0.021087   0.001484   0.001367  -0.053562   0.002544
    16  H    0.020158  -0.000194  -0.000129  -0.011535   0.001483  -0.000001
    17  H   -0.008777  -0.001139   0.000469   0.002136   0.015389  -0.000131
    18  H   -0.019386   0.000649   0.000235   0.018777  -0.003590   0.000773
    19  C    5.466247   0.391929   0.423866   0.191170  -0.113380  -0.003071
    20  H    0.391929   0.477576  -0.025621   0.028791  -0.000373  -0.006092
    21  H    0.423866  -0.025621   0.494718  -0.019039  -0.001839  -0.004841
    22  C    0.191170   0.028791  -0.019039   4.819731   0.416951   0.326559
    23  O   -0.113380  -0.000373  -0.001839   0.416951   8.360244  -0.066402
    24  O   -0.003071  -0.006092  -0.004841   0.326559  -0.066402   8.273797
    25  N   -0.002551   0.000659  -0.001242  -0.000567  -0.000032   0.000322
    26  H    0.001180  -0.000003  -0.000043   0.000229  -0.000000   0.000001
    27  H   -0.001538   0.000001   0.000070  -0.000427  -0.000000  -0.000011
              25         26         27
     1  C    0.266320   0.002476  -0.032894
     2  H   -0.033133   0.005226  -0.007696
     3  H   -0.058996  -0.013465   0.000639
     4  C   -0.034832  -0.031195   0.007992
     5  H   -0.003267  -0.000006   0.000252
     6  H    0.001473   0.002231  -0.000248
     7  C    0.010204   0.004281   0.006261
     8  H   -0.000633  -0.000064  -0.000040
     9  H   -0.000292   0.000014  -0.000001
    10  N   -0.002685   0.000040   0.000056
    11  C    0.000345  -0.000027   0.000015
    12  H    0.000016  -0.000000   0.000000
    13  H   -0.000003  -0.000000  -0.000001
    14  H    0.000066   0.000004   0.000006
    15  C    0.000811   0.000012   0.000058
    16  H   -0.000008  -0.000000  -0.000000
    17  H   -0.000003   0.000000   0.000000
    18  H   -0.000013  -0.000000  -0.000000
    19  C   -0.002551   0.001180  -0.001538
    20  H    0.000659  -0.000003   0.000001
    21  H   -0.001242  -0.000043   0.000070
    22  C   -0.000567   0.000229  -0.000427
    23  O   -0.000032  -0.000000  -0.000000
    24  O    0.000322   0.000001  -0.000011
    25  N    6.433582   0.399652   0.419129
    26  H    0.399652   0.493560  -0.036333
    27  H    0.419129  -0.036333   0.465832
 Mulliken charges:
               1
     1  C   -0.238069
     2  H    0.126933
     3  H    0.113038
     4  C   -0.227334
     5  H    0.147275
     6  H    0.123401
     7  C   -0.074523
     8  H    0.153371
     9  H    0.156537
    10  N   -0.255543
    11  C   -0.219581
    12  H    0.207569
    13  H    0.134393
    14  H    0.138566
    15  C   -0.179420
    16  H    0.131846
    17  H    0.205659
    18  H    0.145287
    19  C   -0.043834
    20  H    0.163871
    21  H    0.161774
    22  C    0.363284
    23  O   -0.629080
    24  O   -0.562206
    25  N   -0.394322
    26  H    0.172232
    27  H    0.178878
 Sum of Mulliken charges =  -0.00000
 Mulliken charges with hydrogens summed into heavy atoms:
               1
     1  C    0.001901
     4  C    0.043341
     7  C    0.235386
    10  N   -0.255543
    11  C    0.260946
    15  C    0.303370
    19  C    0.281811
    22  C    0.363284
    23  O   -0.629080
    24  O   -0.562206
    25  N   -0.043211
 Electronic spatial extent (au):  <R**2>=           2307.9969
 Charge=             -0.0000 electrons
 Dipole moment (field-independent basis, Debye):
    X=              8.8596    Y=             -8.1573    Z=             -1.8846  Tot=             12.1896
 Quadrupole moment (field-independent basis, Debye-Ang):
   XX=            -85.4843   YY=            -74.3586   ZZ=            -66.2326
   XY=             14.9931   XZ=             -2.5962   YZ=             -1.1020
 Traceless Quadrupole moment (field-independent basis, Debye-Ang):
   XX=            -10.1258   YY=              0.9999   ZZ=              9.1259
   XY=             14.9931   XZ=             -2.5962   YZ=             -1.1020
 Octapole moment (field-independent basis, Debye-Ang**2):
  XXX=            115.1917  YYY=            -41.4279  ZZZ=             -2.2019  XYY=             32.9318
  XXY=            -30.7272  XXZ=            -26.3397  XZZ=            -11.0938  YZZ=             -5.6600
  YYZ=             -0.3429  XYZ=             -8.4446
 Hexadecapole moment (field-independent basis, Debye-Ang**3):
 XXXX=          -1964.3859 YYYY=           -798.6797 ZZZZ=           -262.7666 XXXY=            106.9780
 XXXZ=            -38.1271 YYYX=            112.0642 YYYZ=              0.1604 ZZZX=             -9.4921
 ZZZY=             -3.1974 XXYY=           -474.2055 XXZZ=           -398.3002 YYZZ=           -172.2089
 XXYZ=            -23.9193 YYXZ=            -14.1216 ZZXY=             -3.6192
 N-N= 6.811145496571D+02 E-N=-2.613374516998D+03  KE= 5.342144942001D+02
 Calling FoFJK, ICntrl=      2127 FMM=F ISym2X=0 I1Cent= 0 IOpClX= 0 NMat=1 NMatS=1 NMatT=0.
 ***** Axes restored to original set *****
 -------------------------------------------------------------------
 Center     Atomic                   Forces (Hartrees/Bohr)
 Number     Number              X              Y              Z
 -------------------------------------------------------------------
      1        6           0.010693890    0.007371414   -0.001668565
      2        1          -0.002178856   -0.001971035    0.001327731
      3        1          -0.007681015   -0.005673898   -0.007058558
      4        6           0.001795156    0.006614463    0.000045498
      5        1           0.002006550    0.000321385   -0.000400304
      6        1           0.000155000   -0.001835691    0.001074042
      7        6           0.001206493   -0.001064218   -0.000836182
      8        1           0.000002814    0.000140080    0.000000274
      9        1          -0.000641659   -0.000314062   -0.000107528
     10        7           0.000162278   -0.000281398    0.000174924
     11        6           0.000047940    0.000234965    0.000238636
     12        1           0.000018087   -0.000040710   -0.000047538
     13        1          -0.000040285   -0.000083751   -0.000074007
     14        1          -0.000001473    0.000070635   -0.000099509
     15        6           0.000231440    0.000110558    0.000187194
     16        1          -0.000025854   -0.000061052   -0.000002172
     17        1           0.000049821   -0.000010495    0.000034220
     18        1           0.000004585    0.000008954    0.000005157
     19        6          -0.000116158    0.000677894    0.000458461
     20        1           0.000078720   -0.000115047    0.000072198
     21        1           0.000200802   -0.000039609   -0.000141635
     22        6           0.000999944   -0.000280564   -0.000240220
     23        8          -0.000772663   -0.000152790    0.000093778
     24        8          -0.000414767    0.000163979   -0.000207727
     25        7          -0.019724893   -0.009362838    0.008243120
     26        1           0.009306959   -0.001068963    0.000204283
     27        1           0.004637143    0.006641796   -0.001275570
 -------------------------------------------------------------------
 Cartesian Forces:  Max     0.019724893 RMS     0.003660658

 GradGradGradGradGradGradGradGradGradGradGradGradGradGradGradGradGradGrad
 Berny optimization.
 FormGI is forming the generalized inverse of G from B-inverse, IUseBI=4.
 Internal  Forces:  Max     0.014465608 RMS     0.002341915
 Search for a local minimum.
 Step number   1 out of a maximum of  150
 All quantities printed in internal units (Hartrees-Bohrs-Radians)
 Mixed Optimization -- RFO/linear search
 Second derivative matrix not updated -- first step.
 ITU=  0
     Eigenvalues ---    0.00230   0.00230   0.00230   0.00292   0.00339
     Eigenvalues ---    0.00388   0.00433   0.00455   0.00766   0.03195
     Eigenvalues ---    0.03428   0.03539   0.03995   0.04248   0.04448
     Eigenvalues ---    0.04716   0.04836   0.04938   0.05131   0.05274
     Eigenvalues ---    0.05296   0.06004   0.06042   0.06164   0.06182
     Eigenvalues ---    0.08459   0.08982   0.09716   0.09869   0.12310
     Eigenvalues ---    0.12636   0.12983   0.13221   0.14310   0.14553
     Eigenvalues ---    0.16000   0.16000   0.16000   0.16000   0.16000
     Eigenvalues ---    0.16000   0.16000   0.16000   0.21909   0.21962
     Eigenvalues ---    0.22026   0.22154   0.25000   0.25000   0.25560
     Eigenvalues ---    0.29215   0.29555   0.30920   0.31778   0.32890
     Eigenvalues ---    0.33071   0.34737   0.34805   0.34818   0.34887
     Eigenvalues ---    0.34949   0.35006   0.35007   0.35072   0.35074
     Eigenvalues ---    0.35136   0.35168   0.35215   0.35253   0.35338
     Eigenvalues ---    0.35740   0.47688   0.47688   0.85468   0.91945
 RFO step:  Lambda=-4.70753573D-03 EMin= 2.30000000D-03
 Linear search not attempted -- first point.
 Iteration  1 RMS(Cart)=  0.04642997 RMS(Int)=  0.00146259
 Iteration  2 RMS(Cart)=  0.00183421 RMS(Int)=  0.00044970
 Iteration  3 RMS(Cart)=  0.00000328 RMS(Int)=  0.00044969
 Iteration  4 RMS(Cart)=  0.00000001 RMS(Int)=  0.00044969
 Variable       Old X    -DE/DX   Delta X   Delta X   Delta X     New X
                                 (Linear)    (Quad)   (Total)
    R1        2.05858  -0.00034   0.00000  -0.00096  -0.00096   2.05762
    R2        2.05972   0.00502   0.00000   0.01422   0.01422   2.07393
    R3        2.89556  -0.00526   0.00000  -0.01770  -0.01770   2.87786
    R4        2.77790  -0.00209   0.00000  -0.00577  -0.00577   2.77213
    R5        2.06104  -0.00094   0.00000  -0.00266  -0.00266   2.05838
    R6        2.05665   0.00159   0.00000   0.00449   0.00449   2.06114
    R7        2.88859  -0.00004   0.00000  -0.00015  -0.00015   2.88844
    R8        2.05992   0.00003   0.00000   0.00009   0.00009   2.06001
    R9        2.05758   0.00030   0.00000   0.00084   0.00084   2.05842
   R10        2.84553  -0.00024   0.00000  -0.00073  -0.00073   2.84480
   R11        2.82227  -0.00005   0.00000  -0.00015  -0.00015   2.82212
   R12        2.82545  -0.00033   0.00000  -0.00099  -0.00099   2.82446
   R13        2.86166   0.00025   0.00000   0.00081   0.00081   2.86247
   R14        2.05403  -0.00004   0.00000  -0.00010  -0.00010   2.05392
   R15        2.05554   0.00008   0.00000   0.00022   0.00022   2.05577
   R16        2.05130  -0.00004   0.00000  -0.00011  -0.00011   2.05118
   R17        2.05558   0.00006   0.00000   0.00016   0.00016   2.05574
   R18        2.05328  -0.00004   0.00000  -0.00011  -0.00011   2.05316
   R19        2.05454  -0.00000   0.00000  -0.00000  -0.00000   2.05454
   R20        2.05663  -0.00008   0.00000  -0.00021  -0.00021   2.05642
   R21        2.05265   0.00001   0.00000   0.00003   0.00003   2.05269
   R22        2.97806   0.00001   0.00000   0.00003   0.00003   2.97810
   R23        2.35094   0.00069   0.00000   0.00080   0.00080   2.35175
   R24        2.32049   0.00017   0.00000   0.00018   0.00018   2.32067
   R25        1.88973   0.00826   0.00000   0.01714   0.01714   1.90687
   R26        1.88973   0.00735   0.00000   0.01526   0.01526   1.90499
    A1        1.86356  -0.00169   0.00000  -0.00184  -0.00394   1.85962
    A2        1.94569   0.00172   0.00000  -0.02870  -0.02991   1.91579
    A3        1.87769   0.00487   0.00000   0.00889   0.00566   1.88336
    A4        1.91742  -0.00222   0.00000  -0.02010  -0.01849   1.89893
    A5        1.86816   0.01301   0.00000   0.11547   0.11522   1.98338
    A6        1.98570  -0.01447   0.00000  -0.06427  -0.06448   1.92122
    A7        1.91500  -0.00165   0.00000  -0.01215  -0.01216   1.90283
    A8        1.88265   0.00114   0.00000   0.01032   0.01033   1.89298
    A9        1.97761   0.00061   0.00000   0.00471   0.00469   1.98230
   A10        1.85283  -0.00036   0.00000  -0.00854  -0.00850   1.84434
   A11        1.94181   0.00142   0.00000   0.01242   0.01245   1.95426
   A12        1.88853  -0.00122   0.00000  -0.00757  -0.00759   1.88094
   A13        1.92317   0.00021   0.00000   0.00145   0.00144   1.92461
   A14        1.92834   0.00051   0.00000   0.00403   0.00402   1.93236
   A15        2.03840  -0.00061   0.00000  -0.00323  -0.00323   2.03518
   A16        1.87449  -0.00008   0.00000   0.00101   0.00100   1.87549
   A17        1.84947   0.00012   0.00000  -0.00075  -0.00075   1.84872
   A18        1.84130  -0.00015   0.00000  -0.00250  -0.00249   1.83881
   A19        1.92800   0.00008   0.00000   0.00157   0.00157   1.92957
   A20        1.87964  -0.00017   0.00000  -0.00207  -0.00207   1.87757
   A21        1.93730   0.00013   0.00000   0.00113   0.00113   1.93843
   A22        1.89363   0.00009   0.00000   0.00031   0.00031   1.89394
   A23        1.91878  -0.00004   0.00000   0.00059   0.00059   1.91937
   A24        1.90545  -0.00009   0.00000  -0.00165  -0.00165   1.90380
   A25        1.86428  -0.00001   0.00000  -0.00017  -0.00017   1.86412
   A26        1.89485  -0.00005   0.00000  -0.00033  -0.00033   1.89452
   A27        1.90595  -0.00013   0.00000  -0.00071  -0.00071   1.90523
   A28        1.95459   0.00001   0.00000  -0.00014  -0.00014   1.95445
   A29        1.92195   0.00007   0.00000   0.00040   0.00040   1.92235
   A30        1.92071   0.00012   0.00000   0.00088   0.00088   1.92159
   A31        1.89600   0.00005   0.00000   0.00032   0.00032   1.89631
   A32        1.87143  -0.00007   0.00000  -0.00050  -0.00050   1.87093
   A33        1.89095  -0.00001   0.00000   0.00002   0.00002   1.89097
   A34        1.95545  -0.00000   0.00000  -0.00015  -0.00015   1.95531
   A35        1.92162   0.00000   0.00000   0.00016   0.00016   1.92178
   A36        1.92638   0.00003   0.00000   0.00015   0.00015   1.92652
   A37        1.86183  -0.00006   0.00000  -0.00330  -0.00331   1.85852
   A38        1.86954   0.00015   0.00000   0.00269   0.00269   1.87222
   A39        2.05257  -0.00046   0.00000  -0.00200  -0.00201   2.05056
   A40        1.90498  -0.00011   0.00000  -0.00073  -0.00072   1.90426
   A41        1.89625   0.00010   0.00000  -0.00184  -0.00185   1.89440
   A42        1.87526   0.00039   0.00000   0.00519   0.00519   1.88045
   A43        2.05123   0.00031   0.00000   0.00134   0.00108   2.05232
   A44        1.92051   0.00028   0.00000   0.00119   0.00093   1.92144
   A45        2.31140  -0.00059   0.00000  -0.00219  -0.00245   2.30895
   A46        1.91063   0.00580   0.00000   0.03734   0.03699   1.94763
   A47        1.91063   0.00377   0.00000   0.02500   0.02465   1.93528
   A48        1.91063  -0.00437   0.00000  -0.02233  -0.02298   1.88765
    D1       -1.12940  -0.00032   0.00000   0.01139   0.01086  -1.11855
    D2       -3.14048   0.00034   0.00000   0.02224   0.02171  -3.11877
    D3        1.05256   0.00071   0.00000   0.02178   0.02121   1.07378
    D4        3.09156   0.00213   0.00000   0.04434   0.04439   3.13595
    D5        1.08048   0.00280   0.00000   0.05518   0.05525   1.13573
    D6       -1.00966   0.00316   0.00000   0.05473   0.05475  -0.95491
    D7        0.99772  -0.00326   0.00000  -0.04619  -0.04568   0.95204
    D8       -1.01336  -0.00259   0.00000  -0.03534  -0.03483  -1.04819
    D9       -3.10350  -0.00222   0.00000  -0.03580  -0.03533  -3.13882
   D10       -2.64739  -0.00397   0.00000  -0.06104  -0.06196  -2.70935
   D11       -0.55300  -0.00346   0.00000  -0.05021  -0.05080  -0.60379
   D12       -0.65002   0.00276   0.00000  -0.00262  -0.00129  -0.65131
   D13        1.44438   0.00327   0.00000   0.00820   0.00987   1.45425
   D14        1.47143   0.00002   0.00000   0.01294   0.01202   1.48346
   D15       -2.71736   0.00053   0.00000   0.02376   0.02319  -2.69417
   D16        0.37072   0.00049   0.00000   0.01520   0.01517   0.38589
   D17        2.43934   0.00084   0.00000   0.01985   0.01983   2.45917
   D18       -1.73994   0.00061   0.00000   0.01739   0.01737  -1.72257
   D19        2.53816  -0.00013   0.00000   0.01239   0.01241   2.55057
   D20       -1.67641   0.00023   0.00000   0.01704   0.01707  -1.65934
   D21        0.42750  -0.00001   0.00000   0.01459   0.01461   0.44211
   D22       -1.71606  -0.00050   0.00000   0.00448   0.00448  -1.71157
   D23        0.35256  -0.00014   0.00000   0.00914   0.00914   0.36170
   D24        2.45647  -0.00038   0.00000   0.00668   0.00668   2.46315
   D25       -1.17788   0.00008   0.00000   0.01838   0.01838  -1.15950
   D26        3.04009   0.00003   0.00000   0.01835   0.01835   3.05844
   D27        0.95520   0.00016   0.00000   0.02099   0.02099   0.97619
   D28        2.95618   0.00012   0.00000   0.01925   0.01925   2.97543
   D29        0.89097   0.00007   0.00000   0.01922   0.01922   0.91019
   D30       -1.19392   0.00021   0.00000   0.02186   0.02186  -1.17206
   D31        0.97155   0.00022   0.00000   0.01953   0.01953   0.99108
   D32       -1.09367   0.00017   0.00000   0.01950   0.01950  -1.07417
   D33        3.10463   0.00031   0.00000   0.02214   0.02214   3.12677
   D34       -3.11896   0.00011   0.00000   0.00214   0.00214  -3.11682
   D35       -1.00814   0.00008   0.00000   0.00170   0.00170  -1.00644
   D36        1.08618   0.00011   0.00000   0.00215   0.00215   1.08833
   D37       -1.06231   0.00000   0.00000   0.00072   0.00073  -1.06159
   D38        1.04851  -0.00003   0.00000   0.00028   0.00028   1.04879
   D39       -3.14036   0.00000   0.00000   0.00073   0.00073  -3.13963
   D40        1.02030  -0.00007   0.00000  -0.00075  -0.00075   1.01955
   D41        3.13112  -0.00010   0.00000  -0.00119  -0.00119   3.12993
   D42       -1.05775  -0.00007   0.00000  -0.00074  -0.00074  -1.05849
   D43        1.01106   0.00003   0.00000   0.00061   0.00061   1.01167
   D44        3.12769   0.00001   0.00000   0.00032   0.00032   3.12800
   D45       -1.07629   0.00000   0.00000   0.00022   0.00022  -1.07607
   D46       -1.07613  -0.00002   0.00000  -0.00027  -0.00027  -1.07640
   D47        1.04050  -0.00004   0.00000  -0.00056  -0.00056   1.03993
   D48        3.11970  -0.00004   0.00000  -0.00065  -0.00066   3.11905
   D49        3.11610   0.00003   0.00000  -0.00021  -0.00020   3.11589
   D50       -1.05046   0.00001   0.00000  -0.00050  -0.00050  -1.05096
   D51        1.02874   0.00000   0.00000  -0.00059  -0.00059   1.02815
   D52        0.95964  -0.00015   0.00000  -0.01306  -0.01307   0.94657
   D53       -1.07850  -0.00007   0.00000  -0.01191  -0.01191  -1.09040
   D54        3.09290  -0.00039   0.00000  -0.01951  -0.01951   3.07338
   D55        3.09808   0.00000   0.00000  -0.00990  -0.00990   3.08818
   D56        1.05994   0.00009   0.00000  -0.00874  -0.00874   1.05120
   D57       -1.05185  -0.00024   0.00000  -0.01635  -0.01635  -1.06820
   D58       -1.10973   0.00004   0.00000  -0.01017  -0.01017  -1.11990
   D59        3.13532   0.00012   0.00000  -0.00901  -0.00901   3.12631
   D60        1.02352  -0.00021   0.00000  -0.01662  -0.01662   1.00691
   D61        0.03224   0.00012   0.00000  -0.00367  -0.00367   0.02857
   D62       -3.11736   0.00038   0.00000   0.03335   0.03335  -3.08401
   D63        2.14776  -0.00022   0.00000  -0.01099  -0.01098   2.13678
   D64       -1.00183   0.00004   0.00000   0.02603   0.02603  -0.97580
   D65       -2.07658  -0.00008   0.00000  -0.00998  -0.00998  -2.08656
   D66        1.05701   0.00018   0.00000   0.02704   0.02703   1.08404
         Item               Value     Threshold  Converged?
 Maximum Force            0.014466     0.000450     NO 
 RMS     Force            0.002342     0.000300     NO 
 Maximum Displacement     0.259838     0.001800     NO 
 RMS     Displacement     0.047046     0.001200     NO 
 Predicted change in Energy=-2.475889D-03
 GradGradGradGradGradGradGradGradGradGradGradGradGradGradGradGradGradGrad

                          Input orientation:                          
 ---------------------------------------------------------------------
 Center     Atomic      Atomic             Coordinates (Angstroms)
 Number     Number       Type             X           Y           Z
 ---------------------------------------------------------------------
      1          6           0        1.283101    0.477701   -0.367285
      2          1           0        0.560746    1.277003   -0.525111
      3          1           0        1.622912    0.162543   -1.362104
      4          6           0        0.604665   -0.702060    0.316169
      5          1           0        0.270957   -0.394796    1.306467
      6          1           0        1.350988   -1.479382    0.484757
      7          6           0       -0.529660   -1.314678   -0.504996
      8          1           0       -0.405993   -1.071370   -1.560386
      9          1           0       -0.525954   -2.400410   -0.417337
     10          7           0       -1.928314   -0.890391   -0.144465
     11          6           0       -2.291127   -1.383375    1.217731
     12          1           0       -3.314071   -1.066983    1.404301
     13          1           0       -2.190916   -2.466524    1.231802
     14          1           0       -1.622927   -0.937443    1.947685
     15          6           0       -2.858068   -1.510567   -1.136879
     16          1           0       -2.729807   -2.590397   -1.106192
     17          1           0       -3.866130   -1.211941   -0.862853
     18          1           0       -2.606342   -1.132152   -2.124539
     19          6           0       -2.072809    0.616244   -0.204898
     20          1           0       -1.743803    0.918464   -1.197177
     21          1           0       -1.398046    1.034910    0.536262
     22          6           0       -3.505080    1.220592    0.053853
     23          8           0       -4.425359    0.427264    0.323069
     24          8           0       -3.481162    2.439720   -0.091933
     25          7           0        2.357672    1.002140    0.482538
     26          1           0        3.219044    0.494084    0.347848
     27          1           0        2.531997    1.974623    0.282274
 ---------------------------------------------------------------------
                    Distance matrix (angstroms):
                    1          2          3          4          5
     1  C    0.000000
     2  H    1.088847   0.000000
     3  H    1.097479   1.752362   0.000000
     4  C    1.522898   2.150900   2.144986   0.000000
     5  H    2.141759   2.496711   3.042972   1.089248   0.000000
     6  H    2.135593   3.040061   2.486113   1.090710   1.737239
     7  C    2.552976   2.811797   2.747795   1.528498   2.183705
     8  H    2.583824   2.742486   2.382920   2.163164   3.022393
     9  H    3.399810   3.836131   3.475477   2.168116   2.762075
    10  N    3.497786   3.322335   3.899041   2.581402   2.680972
    11  C    4.330240   4.271801   4.936102   3.108475   2.747624
    12  H    5.163192   4.922510   5.791245   4.083343   3.648812
    13  H    4.826419   4.967130   5.309013   3.430305   3.218454
    14  H    3.975766   3.973276   4.764466   2.771176   2.071816
    15  C    4.657764   4.453437   4.788445   3.841296   4.123795
    16  H    5.105157   5.110986   5.156581   4.087497   4.432400
    17  H    5.441971   5.089808   5.680496   4.651675   4.742274
    18  H    4.561505   4.288665   4.488221   4.056181   4.538099
    19  C    3.362691   2.734000   3.899144   3.029572   2.966423
    20  H    3.169407   2.427174   3.454473   3.229801   3.471619
    21  H    2.883648   2.240980   3.673010   2.660142   2.328700
    22  C    4.863735   4.107229   5.424085   4.544822   4.293830
    23  O    5.750273   5.128617   6.284223   5.155246   4.868084
    24  O    5.159800   4.228070   5.731529   5.170233   4.905955
    25  N    1.466949   2.078424   2.155806   2.450511   2.642852
    26  H    2.063870   2.905437   2.362518   2.875194   3.224946
    27  H    2.054859   2.241511   2.610373   3.298543   3.431533
                    6          7          8          9         10
     6  H    0.000000
     7  C    2.131566   0.000000
     8  H    2.726915   1.090110   0.000000
     9  H    2.277055   1.089271   1.757072   0.000000
    10  N    3.390671   1.505402   2.086875   2.078757   0.000000
    11  C    3.716378   2.464807   3.371796   2.612210   1.493400
    12  H    4.772673   3.385220   4.152867   3.587476   2.085709
    13  H    3.752013   2.665143   3.595652   2.344382   2.108854
    14  H    3.358276   2.711675   3.715565   2.989473   2.114844
    15  C    4.510746   2.420565   2.526841   2.597753   1.494640
    16  H    4.518668   2.613339   2.813156   2.316805   2.111239
    17  H    5.394988   3.357179   3.532543   3.573194   2.091556
    18  H    4.752836   2.639857   2.272334   2.975068   2.106861
    19  C    4.073040   2.489945   2.731971   3.396777   1.514754
    20  H    4.261021   2.634422   2.425097   3.620253   2.101000
    21  H    3.725788   2.712725   3.133132   3.670329   2.109823
    22  C    5.572875   3.948801   4.178899   4.712628   2.642304
    23  O    6.085033   4.347014   4.684934   4.873326   2.861824
    24  O    6.248328   4.793484   4.892930   5.680317   3.674743
    25  N    2.677941   3.831390   4.013829   4.549991   4.726995
    26  H    2.720836   4.248735   4.385532   4.794645   5.352984
    27  H    3.655945   4.562131   4.615761   5.383441   5.318344
                   11         12         13         14         15
    11  C    0.000000
    12  H    1.086889   0.000000
    13  H    1.087866   1.802761   0.000000
    14  H    1.085440   1.781015   1.781344   0.000000
    15  C    2.425240   2.619599   2.639999   3.371733   0.000000
    16  H    2.655176   2.994116   2.402491   3.644668   1.087853
    17  H    2.615120   2.337898   2.961063   3.606443   1.086488
    18  H    3.366487   3.599699   3.635677   4.193808   1.087214
    19  C    2.463739   2.638845   3.403162   2.692573   2.451234
    20  H    3.380799   3.629796   4.190225   3.653650   2.673091
    21  H    2.666475   2.973650   3.656836   2.435747   3.377946
    22  C    3.099828   2.663304   4.087715   3.433106   3.048884
    23  O    2.938330   2.153322   3.767299   3.515029   2.888432
    24  O    4.212773   3.816228   5.242922   4.360999   4.133391
    25  N    5.276601   6.107338   5.769113   4.664097   6.011668
    26  H    5.885875   6.799604   6.230108   5.296549   6.569196
    27  H    5.950945   6.684820   6.552197   5.340142   6.573686
                   16         17         18         19         20
    16  H    0.000000
    17  H    1.802937   0.000000
    18  H    1.782905   1.784736   0.000000
    19  C    3.395073   2.644081   2.650767   0.000000
    20  H    3.645900   3.025668   2.410186   1.088209   0.000000
    21  H    4.196914   3.619019   3.638131   1.086234   1.771417
    22  C    4.058372   2.624485   3.329943   1.575941   2.181388
    23  O    3.744858   2.099082   3.425111   2.418461   3.121404
    24  O    5.186071   3.751953   4.201793   2.306791   2.560117
    25  N    6.427505   6.741508   5.999457   4.500071   4.432893
    26  H    6.856901   7.387558   6.533947   5.322045   5.215079
    27  H    7.103086   7.238890   6.468951   4.825637   4.646150
                   21         22         23         24         25
    21  H    0.000000
    22  C    2.169514   0.000000
    23  O    3.095046   1.244491   0.000000
    24  O    2.589883   1.228047   2.261352   0.000000
    25  N    3.756245   5.882462   6.809216   6.040582   0.000000
    26  H    4.652474   6.769645   7.644735   6.990827   1.009071
    27  H    4.048803   6.088271   7.127467   6.042716   1.008077
                   26         27
    26  H    0.000000
    27  H    1.633502   0.000000
 Stoichiometry    C7H16N2O2
 Framework group  C1[X(C7H16N2O2)]
 Deg. of freedom    75
 Full point group                 C1      NOp   1
 Largest Abelian subgroup         C1      NOp   1
 Largest concise Abelian subgroup C1      NOp   1
                         Standard orientation:                         
 ---------------------------------------------------------------------
 Center     Atomic      Atomic             Coordinates (Angstroms)
 Number     Number       Type             X           Y           Z
 ---------------------------------------------------------------------
      1          6           0        2.702714    0.560304   -0.441492
      2          1           0        1.948807    1.323237   -0.628968
      3          1           0        3.033818    0.199979   -1.423834
      4          6           0        2.081340   -0.600820    0.323298
      5          1           0        1.756529   -0.248418    1.301445
      6          1           0        2.858611   -1.340357    0.519726
      7          6           0        0.953841   -1.299562   -0.436184
      8          1           0        1.047501   -1.113817   -1.506262
      9          1           0        0.998716   -2.377564   -0.286482
     10          7           0       -0.451820   -0.904386   -0.069871
     11          6           0       -0.769231   -1.329791    1.326025
     12          1           0       -1.799060   -1.039186    1.516621
     13          1           0       -0.629497   -2.406106    1.400004
     14          1           0       -0.103225   -0.819012    2.014298
     15          6           0       -1.378068   -1.613443   -1.004350
     16          1           0       -1.210096   -2.684495   -0.914595
     17          1           0       -2.390637   -1.334957   -0.725771
     18          1           0       -1.160013   -1.284471   -2.017398
     19          6           0       -0.652103    0.590188   -0.213445
     20          1           0       -0.354160    0.845584   -1.228434
     21          1           0        0.021674    1.074647    0.487433
     22          6           0       -2.099923    1.157914    0.041690
     23          8           0       -2.985232    0.349768    0.376182
     24          8           0       -2.123200    2.366595   -0.174291
     25          7           0        3.774283    1.170640    0.352969
     26          1           0        4.650675    0.686158    0.228709
     27          1           0        3.909151    2.135357    0.093451
 ---------------------------------------------------------------------
 Rotational constants (GHZ):           1.5560054           0.6333647           0.5108054
 Standard basis: 6-311+G(2d,2p) (5D, 7F)
 There are   463 symmetry adapted cartesian basis functions of A   symmetry.
 There are   441 symmetry adapted basis functions of A   symmetry.
   441 basis functions,   638 primitive gaussians,   463 cartesian basis functions
    44 alpha electrons       44 beta electrons
       nuclear repulsion energy       682.2601634151 Hartrees.
 NAtoms=   27 NActive=   27 NUniq=   27 SFac= 1.00D+00 NAtFMM=   60 NAOKFM=F Big=F
 Integral buffers will be    131072 words long.
 Raffenetti 2 integral format.
 Two-electron integral symmetry is turned on.
 Nuclear repulsion after empirical dispersion term =      682.2386498580 Hartrees.
 One-electron integrals computed using PRISM.
 NBasis=   441 RedAO= T EigKep=  1.20D-05  NBF=   441
 NBsUse=   441 1.00D-06 EigRej= -1.00D+00 NBFU=   441
 Initial guess from the checkpoint file:  "aminopropyl_betaine_h.chk"
 B after Tr=     0.000000    0.000000    0.000000
         Rot=    0.999987   -0.000043   -0.002736   -0.004393 Ang=  -0.59 deg.
 ExpMin= 4.38D-02 ExpMax= 8.59D+03 ExpMxC= 1.30D+03 IAcc=2 IRadAn=         4 AccDes= 0.00D+00
 Harris functional with IExCor= 4639 and IRadAn=       4 diagonalized for initial guess.
 HarFok:  IExCor= 4639 AccDes= 0.00D+00 IRadAn=         4 IDoV= 1 UseB2=F ITyADJ=14
 ICtDFT=  3500011 ScaDFX=  1.000000  1.000000  1.000000  1.000000
 FoFCou: FMM=F IPFlag=           0 FMFlag=      100000 FMFlg1=           0
         NFxFlg=           0 DoJE=T BraDBF=F KetDBF=T FulRan=T
         wScrn=  0.000000 ICntrl=       500 IOpCl=  0 I1Cent=   200000004 NGrid=           0
         NMat0=    1 NMatS0=      1 NMatT0=    0 NMatD0=    1 NMtDS0=    0 NMtDT0=    0
 Petite list used in FoFCou.
 Requested convergence on RMS density matrix=1.00D-08 within  32 cycles.
 Requested convergence on MAX density matrix=1.00D-06.
 Requested convergence on             energy=1.00D-06.
 No special actions if energy rises.
 SCF Done:  E(RwB97XD) =  -536.303908333     A.U. after   12 cycles
            NFock= 12  Conv=0.92D-08     -V/T= 2.0039
 QCSCF skips out because SCF is already converged.
 Calling FoFJK, ICntrl=      2127 FMM=F ISym2X=0 I1Cent= 0 IOpClX= 0 NMat=1 NMatS=1 NMatT=0.
 ***** Axes restored to original set *****
 -------------------------------------------------------------------
 Center     Atomic                   Forces (Hartrees/Bohr)
 Number     Number              X              Y              Z
 -------------------------------------------------------------------
      1        6           0.004907427    0.004450189    0.003811942
      2        1           0.000163221    0.000321100    0.000020586
      3        1           0.000837055    0.000631327    0.000032177
      4        6          -0.001569290   -0.001310204   -0.000544463
      5        1           0.000354520    0.000042715   -0.000170522
      6        1           0.000108240   -0.000434649    0.000286249
      7        6           0.000308390   -0.001193311    0.000934198
      8        1           0.000057520   -0.000002212   -0.000010611
      9        1          -0.000312499   -0.000020231   -0.000109271
     10        7          -0.000157211   -0.000252322    0.000083169
     11        6           0.000042329    0.000553514   -0.000099720
     12        1          -0.000110431   -0.000144264   -0.000077101
     13        1          -0.000122821    0.000016611    0.000047061
     14        1          -0.000189113   -0.000067474   -0.000045670
     15        6          -0.000188174   -0.000482998   -0.000127223
     16        1           0.000121940   -0.000007431   -0.000016570
     17        1          -0.000005099    0.000019725   -0.000191343
     18        1           0.000014251   -0.000004255   -0.000022018
     19        6          -0.000102776    0.000231596    0.001448338
     20        1          -0.000217612    0.000216085    0.000067420
     21        1           0.000290406   -0.000375550    0.000169032
     22        6          -0.000814908   -0.000690307   -0.005743210
     23        8           0.000314408    0.000274120    0.002538064
     24        8           0.000379154    0.000429069    0.002000722
     25        7          -0.006469405   -0.002480208   -0.003747583
     26        1           0.000774543    0.000065187    0.000012531
     27        1           0.001585937    0.000214177   -0.000546185
 -------------------------------------------------------------------
 Cartesian Forces:  Max     0.006469405 RMS     0.001494919

 GradGradGradGradGradGradGradGradGradGradGradGradGradGradGradGradGradGrad
 Berny optimization.
 Using GEDIIS/GDIIS optimizer.
 FormGI is forming the generalized inverse of G from B-inverse, IUseBI=4.
 Internal  Forces:  Max     0.006279315 RMS     0.000804747
 Search for a local minimum.
 Step number   2 out of a maximum of  150
 All quantities printed in internal units (Hartrees-Bohrs-Radians)
 Mixed Optimization -- En-DIIS/RFO-DIIS
 Update second derivatives using D2CorX and points    1    2
 DE= -2.14D-03 DEPred=-2.48D-03 R= 8.64D-01
 TightC=F SS=  1.41D+00  RLast= 2.31D-01 DXNew= 5.0454D-01 6.9385D-01
 Trust test= 8.64D-01 RLast= 2.31D-01 DXMaxT set to 5.05D-01
 ITU=  1  0
 Use linear search instead of GDIIS.
     Eigenvalues ---    0.00227   0.00230   0.00246   0.00300   0.00340
     Eigenvalues ---    0.00391   0.00433   0.00455   0.00760   0.03213
     Eigenvalues ---    0.03386   0.03554   0.03931   0.04416   0.04472
     Eigenvalues ---    0.04717   0.04795   0.04956   0.05137   0.05300
     Eigenvalues ---    0.05538   0.06008   0.06040   0.06167   0.06186
     Eigenvalues ---    0.08521   0.08945   0.09588   0.09850   0.12193
     Eigenvalues ---    0.12542   0.12702   0.13221   0.14316   0.14554
     Eigenvalues ---    0.15468   0.16000   0.16000   0.16000   0.16000
     Eigenvalues ---    0.16000   0.16000   0.16035   0.20629   0.22008
     Eigenvalues ---    0.22135   0.22809   0.24996   0.25001   0.25560
     Eigenvalues ---    0.29540   0.30123   0.30919   0.31800   0.32901
     Eigenvalues ---    0.33072   0.34513   0.34743   0.34805   0.34887
     Eigenvalues ---    0.34948   0.34995   0.35007   0.35072   0.35074
     Eigenvalues ---    0.35136   0.35168   0.35215   0.35254   0.35338
     Eigenvalues ---    0.36855   0.47276   0.47688   0.85464   0.91945
 RFO step:  Lambda=-3.00353619D-03 EMin= 2.26769412D-03
 Quartic linear search produced a step of -0.07890.
 Iteration  1 RMS(Cart)=  0.05544416 RMS(Int)=  0.01983717
 Iteration  2 RMS(Cart)=  0.02231446 RMS(Int)=  0.00850727
 Iteration  3 RMS(Cart)=  0.00137807 RMS(Int)=  0.00838616
 Iteration  4 RMS(Cart)=  0.00006518 RMS(Int)=  0.00838605
 Iteration  5 RMS(Cart)=  0.00000435 RMS(Int)=  0.00838605
 Iteration  6 RMS(Cart)=  0.00000029 RMS(Int)=  0.00838605
 Variable       Old X    -DE/DX   Delta X   Delta X   Delta X     New X
                                 (Linear)    (Quad)   (Total)
    R1        2.05762   0.00012   0.00008  -0.00039  -0.00032   2.05731
    R2        2.07393   0.00005  -0.00112   0.01077   0.00965   2.08359
    R3        2.87786   0.00347   0.00140  -0.00239  -0.00099   2.87687
    R4        2.77213  -0.00628   0.00045  -0.02039  -0.01993   2.75220
    R5        2.05838  -0.00025   0.00021  -0.00265  -0.00244   2.05594
    R6        2.06114   0.00043  -0.00035   0.00448   0.00413   2.06527
    R7        2.88844   0.00066   0.00001   0.00192   0.00193   2.89037
    R8        2.06001   0.00002  -0.00001   0.00011   0.00010   2.06011
    R9        2.05842   0.00001  -0.00007   0.00066   0.00059   2.05901
   R10        2.84480   0.00062   0.00006   0.00125   0.00131   2.84610
   R11        2.82212  -0.00018   0.00001  -0.00062  -0.00061   2.82151
   R12        2.82446   0.00047   0.00008   0.00056   0.00064   2.82510
   R13        2.86247   0.00008  -0.00006   0.00085   0.00078   2.86325
   R14        2.05392   0.00005   0.00001   0.00005   0.00006   2.05398
   R15        2.05577  -0.00003  -0.00002   0.00010   0.00008   2.05585
   R16        2.05118  -0.00017   0.00001  -0.00054  -0.00053   2.05066
   R17        2.05574   0.00002  -0.00001   0.00018   0.00016   2.05591
   R18        2.05316  -0.00004   0.00001  -0.00018  -0.00017   2.05299
   R19        2.05454   0.00002   0.00000   0.00005   0.00005   2.05459
   R20        2.05642  -0.00007   0.00002  -0.00033  -0.00032   2.05610
   R21        2.05269   0.00015  -0.00000   0.00042   0.00041   2.05310
   R22        2.97810  -0.00008  -0.00000  -0.00027  -0.00027   2.97782
   R23        2.35175   0.00014  -0.00006   0.00076   0.00069   2.35244
   R24        2.32067   0.00020  -0.00001   0.00033   0.00032   2.32099
   R25        1.90687   0.00063  -0.00135   0.01406   0.01271   1.91958
   R26        1.90499   0.00059  -0.00120   0.01258   0.01138   1.91637
    A1        1.85962  -0.00002   0.00031  -0.00302  -0.00331   1.85631
    A2        1.91579   0.00049   0.00236  -0.01403  -0.01185   1.90394
    A3        1.88336  -0.00002  -0.00045   0.00646   0.00522   1.88858
    A4        1.89893   0.00040   0.00146  -0.01363  -0.01159   1.88734
    A5        1.98338  -0.00087  -0.00909   0.07264   0.06330   2.04668
    A6        1.92122   0.00006   0.00509  -0.04858  -0.04340   1.87782
    A7        1.90283  -0.00107   0.00096  -0.01232  -0.01145   1.89139
    A8        1.89298  -0.00057  -0.00082   0.00553   0.00473   1.89771
    A9        1.98230   0.00263  -0.00037   0.01578   0.01538   1.99768
   A10        1.84434   0.00031   0.00067  -0.00967  -0.00899   1.83535
   A11        1.95426  -0.00048  -0.00098   0.00977   0.00881   1.96306
   A12        1.88094  -0.00099   0.00060  -0.01089  -0.01031   1.87063
   A13        1.92461  -0.00042  -0.00011  -0.00136  -0.00147   1.92314
   A14        1.93236   0.00013  -0.00032   0.00538   0.00506   1.93742
   A15        2.03518   0.00086   0.00025   0.00149   0.00174   2.03692
   A16        1.87549   0.00009  -0.00008  -0.00023  -0.00031   1.87517
   A17        1.84872  -0.00014   0.00006  -0.00107  -0.00101   1.84770
   A18        1.83881  -0.00058   0.00020  -0.00464  -0.00445   1.83436
   A19        1.92957   0.00046  -0.00012   0.00350   0.00338   1.93295
   A20        1.87757  -0.00037   0.00016  -0.00315  -0.00298   1.87459
   A21        1.93843  -0.00007  -0.00009   0.00040   0.00031   1.93874
   A22        1.89394  -0.00008  -0.00002  -0.00035  -0.00037   1.89357
   A23        1.91937  -0.00047  -0.00005  -0.00314  -0.00318   1.91618
   A24        1.90380   0.00054   0.00013   0.00274   0.00287   1.90667
   A25        1.86412  -0.00008   0.00001  -0.00085  -0.00083   1.86328
   A26        1.89452   0.00009   0.00003   0.00017   0.00020   1.89471
   A27        1.90523   0.00016   0.00006   0.00076   0.00081   1.90605
   A28        1.95445  -0.00012   0.00001  -0.00159  -0.00158   1.95288
   A29        1.92235  -0.00000  -0.00003   0.00051   0.00048   1.92283
   A30        1.92159  -0.00004  -0.00007   0.00098   0.00091   1.92250
   A31        1.89631  -0.00013  -0.00003  -0.00051  -0.00054   1.89578
   A32        1.87093   0.00025   0.00004   0.00132   0.00136   1.87229
   A33        1.89097  -0.00004  -0.00000  -0.00052  -0.00052   1.89045
   A34        1.95531   0.00003   0.00001   0.00066   0.00067   1.95598
   A35        1.92178   0.00000  -0.00001  -0.00044  -0.00045   1.92133
   A36        1.92652  -0.00010  -0.00001  -0.00051  -0.00052   1.92600
   A37        1.85852   0.00004   0.00026  -0.00025   0.00001   1.85853
   A38        1.87222  -0.00054  -0.00021  -0.00275  -0.00296   1.86926
   A39        2.05056   0.00065   0.00016   0.00123   0.00139   2.05195
   A40        1.90426   0.00013   0.00006  -0.00023  -0.00017   1.90409
   A41        1.89440  -0.00025   0.00015  -0.00078  -0.00063   1.89377
   A42        1.88045  -0.00004  -0.00041   0.00264   0.00224   1.88269
   A43        2.05232   0.00027  -0.00009   0.00778  -0.04264   2.00967
   A44        1.92144   0.00002  -0.00007   0.00674  -0.04499   1.87645
   A45        2.30895  -0.00018   0.00019   0.00349  -0.05873   2.25022
   A46        1.94763   0.00023  -0.00292   0.02667   0.02366   1.97129
   A47        1.93528   0.00092  -0.00194   0.02141   0.01937   1.95466
   A48        1.88765  -0.00098   0.00181  -0.02651  -0.02485   1.86280
    D1       -1.11855  -0.00019  -0.00086   0.00979   0.00884  -1.10970
    D2       -3.11877   0.00031  -0.00171   0.02473   0.02291  -3.09586
    D3        1.07378   0.00028  -0.00167   0.02463   0.02278   1.09656
    D4        3.13595  -0.00066  -0.00350   0.02898   0.02560  -3.12164
    D5        1.13573  -0.00016  -0.00436   0.04392   0.03967   1.17540
    D6       -0.95491  -0.00019  -0.00432   0.04381   0.03954  -0.91537
    D7        0.95204   0.00012   0.00360  -0.02047  -0.01681   0.93523
    D8       -1.04819   0.00062   0.00275  -0.00553  -0.00273  -1.05092
    D9       -3.13882   0.00059   0.00279  -0.00564  -0.00287   3.14150
   D10       -2.70935   0.00027   0.00489  -0.06416  -0.05955  -2.76890
   D11       -0.60379  -0.00018   0.00401  -0.06510  -0.06128  -0.66508
   D12       -0.65131  -0.00028   0.00010  -0.02021  -0.01963  -0.67094
   D13        1.45425  -0.00074  -0.00078  -0.02114  -0.02136   1.43288
   D14        1.48346  -0.00034  -0.00095  -0.02281  -0.02408   1.45937
   D15       -2.69417  -0.00079  -0.00183  -0.02375  -0.02582  -2.71999
   D16        0.38589   0.00002  -0.00120   0.00042  -0.00083   0.38506
   D17        2.45917  -0.00005  -0.00156   0.00266   0.00104   2.46020
   D18       -1.72257  -0.00009  -0.00137   0.00186   0.00044  -1.72213
   D19        2.55057   0.00025  -0.00098   0.00403   0.00310   2.55367
   D20       -1.65934   0.00019  -0.00135   0.00627   0.00496  -1.65438
   D21        0.44211   0.00015  -0.00115   0.00547   0.00436   0.44647
   D22       -1.71157  -0.00023  -0.00035  -0.00886  -0.00920  -1.72077
   D23        0.36170  -0.00030  -0.00072  -0.00662  -0.00733   0.35437
   D24        2.46315  -0.00034  -0.00053  -0.00742  -0.00793   2.45522
   D25       -1.15950  -0.00011  -0.00145  -0.00527  -0.00672  -1.16622
   D26        3.05844  -0.00005  -0.00145  -0.00494  -0.00639   3.05205
   D27        0.97619  -0.00044  -0.00166  -0.00656  -0.00821   0.96798
   D28        2.97543  -0.00003  -0.00152  -0.00365  -0.00516   2.97027
   D29        0.91019   0.00003  -0.00152  -0.00332  -0.00483   0.90535
   D30       -1.17206  -0.00036  -0.00172  -0.00494  -0.00666  -1.17872
   D31        0.99108   0.00018  -0.00154  -0.00093  -0.00247   0.98860
   D32       -1.07417   0.00024  -0.00154  -0.00060  -0.00214  -1.07631
   D33        3.12677  -0.00015  -0.00175  -0.00222  -0.00397   3.12280
   D34       -3.11682   0.00013  -0.00017   0.00615   0.00598  -3.11084
   D35       -1.00644  -0.00000  -0.00013   0.00387   0.00374  -1.00270
   D36        1.08833   0.00009  -0.00017   0.00561   0.00544   1.09377
   D37       -1.06159  -0.00009  -0.00006   0.00414   0.00408  -1.05750
   D38        1.04879  -0.00023  -0.00002   0.00186   0.00184   1.05063
   D39       -3.13963  -0.00013  -0.00006   0.00360   0.00354  -3.13609
   D40        1.01955   0.00023   0.00006   0.00542   0.00548   1.02504
   D41        3.12993   0.00010   0.00009   0.00314   0.00324   3.13317
   D42       -1.05849   0.00019   0.00006   0.00488   0.00494  -1.05355
   D43        1.01167   0.00004  -0.00005   0.00104   0.00099   1.01266
   D44        3.12800   0.00014  -0.00003   0.00231   0.00229   3.13029
   D45       -1.07607   0.00014  -0.00002   0.00216   0.00214  -1.07393
   D46       -1.07640  -0.00026   0.00002  -0.00116  -0.00114  -1.07754
   D47        1.03993  -0.00016   0.00004   0.00011   0.00015   1.04009
   D48        3.11905  -0.00016   0.00005  -0.00004   0.00001   3.11906
   D49        3.11589   0.00005   0.00002   0.00123   0.00125   3.11714
   D50       -1.05096   0.00015   0.00004   0.00251   0.00254  -1.04841
   D51        1.02815   0.00014   0.00005   0.00235   0.00240   1.03055
   D52        0.94657  -0.00002   0.00103   0.02444   0.02547   0.97204
   D53       -1.09040   0.00007   0.00094   0.02617   0.02711  -1.06330
   D54        3.07338   0.00012   0.00154   0.02404   0.02558   3.09897
   D55        3.08818   0.00019   0.00078   0.02698   0.02777   3.11594
   D56        1.05120   0.00029   0.00069   0.02871   0.02940   1.08060
   D57       -1.06820   0.00033   0.00129   0.02659   0.02788  -1.04032
   D58       -1.11990   0.00013   0.00080   0.02635   0.02716  -1.09275
   D59        3.12631   0.00023   0.00071   0.02808   0.02879  -3.12809
   D60        1.00691   0.00027   0.00131   0.02596   0.02727   1.03418
   D61        0.02857   0.00158   0.00029   0.30356   0.29271   0.32128
   D62       -3.08401  -0.00171  -0.00263  -0.24813  -0.23963   2.95955
   D63        2.13678   0.00188   0.00087   0.30345   0.29318   2.42996
   D64       -0.97580  -0.00140  -0.00205  -0.24824  -0.23915  -1.21496
   D65       -2.08656   0.00188   0.00079   0.30422   0.29387  -1.79269
   D66        1.08404  -0.00141  -0.00213  -0.24747  -0.23847   0.84557
         Item               Value     Threshold  Converged?
 Maximum Force            0.006279     0.000450     NO 
 RMS     Force            0.000805     0.000300     NO 
 Maximum Displacement     0.520431     0.001800     NO 
 RMS     Displacement     0.071681     0.001200     NO 
 Predicted change in Energy=-1.312414D-03
 GradGradGradGradGradGradGradGradGradGradGradGradGradGradGradGradGradGrad

                          Input orientation:                          
 ---------------------------------------------------------------------
 Center     Atomic      Atomic             Coordinates (Angstroms)
 Number     Number       Type             X           Y           Z
 ---------------------------------------------------------------------
      1          6           0        1.284272    0.495318   -0.390405
      2          1           0        0.559864    1.292334   -0.549220
      3          1           0        1.602543    0.160895   -1.391685
      4          6           0        0.595833   -0.672335    0.302600
      5          1           0        0.262048   -0.340400    1.283443
      6          1           0        1.338012   -1.449598    0.501228
      7          6           0       -0.527848   -1.317734   -0.509945
      8          1           0       -0.396882   -1.102096   -1.570513
      9          1           0       -0.521286   -2.401084   -0.393746
     10          7           0       -1.934146   -0.895649   -0.174555
     11          6           0       -2.313172   -1.358075    1.193575
     12          1           0       -3.342542   -1.048663    1.354995
     13          1           0       -2.203232   -2.439565    1.236376
     14          1           0       -1.662121   -0.886977    1.922804
     15          6           0       -2.844905   -1.547578   -1.164738
     16          1           0       -2.707625   -2.625220   -1.105956
     17          1           0       -3.859487   -1.251049   -0.913836
     18          1           0       -2.581388   -1.191240   -2.157551
     19          6           0       -2.088789    0.608659   -0.268768
     20          1           0       -1.775297    0.889032   -1.272235
     21          1           0       -1.404232    1.045998    0.452686
     22          6           0       -3.520143    1.212589   -0.004899
     23          8           0       -4.308263    0.461268    0.598469
     24          8           0       -3.396742    2.431506    0.081852
     25          7           0        2.318146    0.992218    0.506977
     26          1           0        3.185697    0.468025    0.440470
     27          1           0        2.548198    1.962242    0.321177
 ---------------------------------------------------------------------
                    Distance matrix (angstroms):
                    1          2          3          4          5
     1  C    0.000000
     2  H    1.088680   0.000000
     3  H    1.102586   1.754162   0.000000
     4  C    1.522373   2.141686   2.139705   0.000000
     5  H    2.131932   2.472482   3.033897   1.087955   0.000000
     6  H    2.140233   3.037622   2.499356   1.092895   1.732016
     7  C    2.566170   2.827917   2.739046   1.529519   2.189830
     8  H    2.602050   2.773391   2.371671   2.163037   3.026455
     9  H    3.413092   3.851545   3.474229   2.172884   2.770017
    10  N    3.512777   3.338822   3.886626   2.584249   2.693943
    11  C    4.345764   4.279760   4.931903   3.118716   2.770469
    12  H    5.180513   4.933060   5.784561   4.093893   3.674211
    13  H    4.839695   4.974950   5.305943   3.439449   3.238258
    14  H    3.992857   3.974609   4.768847   2.787380   2.099989
    15  C    4.671522   4.476206   4.769715   3.841589   4.135701
    16  H    5.117129   5.131634   5.140196   4.087863   4.443938
    17  H    5.457292   5.111987   5.661775   4.654514   4.758610
    18  H    4.572813   4.315361   4.463194   4.051708   4.544172
    19  C    3.377156   2.749805   3.884246   3.028961   2.972626
    20  H    3.208363   2.477575   3.457492   3.246572   3.491958
    21  H    2.870907   2.218597   3.636731   2.641109   2.321367
    22  C    4.872935   4.116929   5.410282   4.537484   4.286790
    23  O    5.679391   5.070160   6.244082   5.042098   4.690373
    24  O    5.087607   4.165417   5.685054   5.061938   4.744895
    25  N    1.456400   2.072964   2.192739   2.403928   2.570274
    26  H    2.075214   2.924717   2.440798   2.833165   3.148313
    27  H    2.062940   2.271527   2.659513   3.279187   3.384464
                    6          7          8          9         10
     6  H    0.000000
     7  C    2.126333   0.000000
     8  H    2.724467   1.090163   0.000000
     9  H    2.272288   1.089584   1.757164   0.000000
    10  N    3.386821   1.506093   2.086744   2.076187   0.000000
    11  C    3.717374   2.467993   3.373111   2.611190   1.493076
    12  H    4.774647   3.387167   4.151911   3.584218   2.084830
    13  H    3.749785   2.667406   3.595880   2.342589   2.108746
    14  H    3.367227   2.718527   3.721608   2.993397   2.114943
    15  C    4.503536   2.418747   2.521096   2.592702   1.494977
    16  H    4.509135   2.610781   2.806288   2.310315   2.111206
    17  H    5.390345   3.356693   3.527470   3.568845   2.092793
    18  H    4.743158   2.635837   2.263764   2.969638   2.106792
    19  C    4.070906   2.491123   2.735649   3.395767   1.515168
    20  H    4.278674   2.647080   2.439998   3.628932   2.101244
    21  H    3.708134   2.698506   3.118076   3.657652   2.108135
    22  C    5.562830   3.951131   4.190904   4.712004   2.643641
    23  O    5.961651   4.322610   4.737878   4.849612   2.841693
    24  O    6.136509   4.757896   4.920957   5.643436   3.643473
    25  N    2.631190   3.803905   4.009176   4.515327   4.702183
    26  H    2.663627   4.228787   4.398204   4.761242   5.333915
    27  H    3.624585   4.572861   4.652112   5.382514   5.338979
                   11         12         13         14         15
    11  C    0.000000
    12  H    1.086919   0.000000
    13  H    1.087907   1.801862   0.000000
    14  H    1.085161   1.781113   1.781717   0.000000
    15  C    2.424931   2.616413   2.640594   3.371689   0.000000
    16  H    2.655013   2.990808   2.403206   3.645264   1.087940
    17  H    2.616051   2.335763   2.962965   3.606590   1.086396
    18  H    3.365980   3.596897   3.635940   4.193677   1.087242
    19  C    2.461064   2.637275   3.401504   2.687370   2.454350
    20  H    3.379204   3.621224   4.189967   3.657225   2.663210
    21  H    2.674819   2.993128   3.660837   2.442160   3.379088
    22  C    3.082439   2.644640   4.075936   3.402420   3.069152
    23  O    2.764876   1.945467   3.640455   3.251721   3.047257
    24  O    4.095238   3.706132   5.146332   4.172570   4.206141
    25  N    5.238741   6.076819   5.722938   4.623685   5.991852
    26  H    5.842890   6.764215   6.174796   5.247350   6.558011
    27  H    5.951344   6.695905   6.541375   5.330107   6.603963
                   16         17         18         19         20
    16  H    0.000000
    17  H    1.803341   0.000000
    18  H    1.782718   1.784360   0.000000
    19  C    3.397324   2.647640   2.655145   0.000000
    20  H    3.639622   3.008695   2.400230   1.088041   0.000000
    21  H    4.195955   3.629337   3.633768   1.086453   1.771350
    22  C    4.074468   2.647798   3.360591   1.575796   2.180669
    23  O    3.872146   2.328196   3.648085   2.387444   3.177803
    24  O    5.239871   3.842752   4.336361   2.270781   2.615696
    25  N    6.398889   6.724144   5.989377   4.491100   4.464585
    26  H    6.833069   7.377260   6.539277   5.323814   5.265174
    27  H    7.120757   7.273851   6.511620   4.866401   4.731104
                   21         22         23         24         25
    21  H    0.000000
    22  C    2.171225   0.000000
    23  O    2.965899   1.244857   0.000000
    24  O    2.455045   1.228215   2.231502   0.000000
    25  N    3.723163   5.864828   6.648276   5.908657   0.000000
    26  H    4.626192   6.761732   7.495628   6.878399   1.015798
    27  H    4.059371   6.123158   7.024305   5.968232   1.014097
                   26         27
    26  H    0.000000
    27  H    1.628902   0.000000
 Stoichiometry    C7H16N2O2
 Framework group  C1[X(C7H16N2O2)]
 Deg. of freedom    75
 Full point group                 C1      NOp   1
 Largest Abelian subgroup         C1      NOp   1
 Largest concise Abelian subgroup C1      NOp   1
                         Standard orientation:                         
 ---------------------------------------------------------------------
 Center     Atomic      Atomic             Coordinates (Angstroms)
 Number     Number       Type             X           Y           Z
 ---------------------------------------------------------------------
      1          6           0        2.704123    0.536057   -0.462833
      2          1           0        1.955746    1.287754   -0.707997
      3          1           0        3.032740    0.100914   -1.421144
      4          6           0        2.051490   -0.566579    0.359289
      5          1           0        1.707448   -0.136680    1.297622
      6          1           0        2.817016   -1.293638    0.641736
      7          6           0        0.948278   -1.333160   -0.371944
      8          1           0        1.072887   -1.234354   -1.450446
      9          1           0        0.987904   -2.395851   -0.134646
     10          7           0       -0.470353   -0.918951   -0.081712
     11          6           0       -0.835451   -1.235792    1.330942
     12          1           0       -1.873839   -0.941610    1.459790
     13          1           0       -0.692531   -2.301754    1.494772
     14          1           0       -0.199299   -0.666063    2.000489
     15          6           0       -1.360494   -1.705536   -0.989395
     16          1           0       -1.190368   -2.765046   -0.810205
     17          1           0       -2.383731   -1.413629   -0.770231
     18          1           0       -1.107713   -1.455337   -2.016818
     19          6           0       -0.670859    0.559803   -0.344045
     20          1           0       -0.365803    0.734876   -1.373668
     21          1           0       -0.000184    1.096148    0.321468
     22          6           0       -2.120070    1.145809   -0.145256
     23          8           0       -2.885033    0.443552    0.541284
     24          8           0       -2.033993    2.369930   -0.196552
     25          7           0        3.722085    1.161968    0.369687
     26          1           0        4.605265    0.660230    0.359819
     27          1           0        3.922442    2.111465    0.075228
 ---------------------------------------------------------------------
 Rotational constants (GHZ):           1.5296332           0.6468745           0.5206435
 Standard basis: 6-311+G(2d,2p) (5D, 7F)
 There are   463 symmetry adapted cartesian basis functions of A   symmetry.
 There are   441 symmetry adapted basis functions of A   symmetry.
   441 basis functions,   638 primitive gaussians,   463 cartesian basis functions
    44 alpha electrons       44 beta electrons
       nuclear repulsion energy       684.1787148834 Hartrees.
 NAtoms=   27 NActive=   27 NUniq=   27 SFac= 1.00D+00 NAtFMM=   60 NAOKFM=F Big=F
 Integral buffers will be    131072 words long.
 Raffenetti 2 integral format.
 Two-electron integral symmetry is turned on.
 Nuclear repulsion after empirical dispersion term =      684.1571880197 Hartrees.
 One-electron integrals computed using PRISM.
 NBasis=   441 RedAO= T EigKep=  1.13D-05  NBF=   441
 NBsUse=   441 1.00D-06 EigRej= -1.00D+00 NBFU=   441
 Initial guess from the checkpoint file:  "aminopropyl_betaine_h.chk"
 B after Tr=    -0.000000    0.000000    0.000000
         Rot=    0.999811    0.018860    0.002682    0.003987 Ang=   2.23 deg.
 ExpMin= 4.38D-02 ExpMax= 8.59D+03 ExpMxC= 1.30D+03 IAcc=2 IRadAn=         4 AccDes= 0.00D+00
 Harris functional with IExCor= 4639 and IRadAn=       4 diagonalized for initial guess.
 HarFok:  IExCor= 4639 AccDes= 0.00D+00 IRadAn=         4 IDoV= 1 UseB2=F ITyADJ=14
 ICtDFT=  3500011 ScaDFX=  1.000000  1.000000  1.000000  1.000000
 FoFCou: FMM=F IPFlag=           0 FMFlag=      100000 FMFlg1=           0
         NFxFlg=           0 DoJE=T BraDBF=F KetDBF=T FulRan=T
         wScrn=  0.000000 ICntrl=       500 IOpCl=  0 I1Cent=   200000004 NGrid=           0
         NMat0=    1 NMatS0=      1 NMatT0=    0 NMatD0=    1 NMtDS0=    0 NMtDT0=    0
 Petite list used in FoFCou.
 Requested convergence on RMS density matrix=1.00D-08 within  32 cycles.
 Requested convergence on MAX density matrix=1.00D-06.
 Requested convergence on             energy=1.00D-06.
 No special actions if energy rises.
 SCF Done:  E(RwB97XD) =  -536.285154363     A.U. after   14 cycles
            NFock= 14  Conv=0.58D-08     -V/T= 2.0038
 QCSCF skips out because SCF is already converged.
 Calling FoFJK, ICntrl=      2127 FMM=F ISym2X=0 I1Cent= 0 IOpClX= 0 NMat=1 NMatS=1 NMatT=0.
 ***** Axes restored to original set *****
 -------------------------------------------------------------------
 Center     Atomic                   Forces (Hartrees/Bohr)
 Number     Number              X              Y              Z
 -------------------------------------------------------------------
      1        6          -0.002878342   -0.001883774    0.003972807
      2        1           0.000928458    0.001429659   -0.000420840
      3        1           0.005018563    0.003615045    0.003437827
      4        6          -0.003533885   -0.006099872   -0.000825198
      5        1          -0.001218120   -0.000281278    0.000277479
      6        1           0.000211008    0.001007164   -0.000474274
      7        6          -0.000534942   -0.000286853    0.001036438
      8        1           0.000231510    0.000103634   -0.000149127
      9        1           0.000404428    0.000222244    0.000219514
     10        7          -0.000806794   -0.000824582   -0.001743092
     11        6           0.001526089   -0.004598565    0.001891704
     12        1           0.001477245    0.000535575    0.000510320
     13        1           0.001428258   -0.000461675   -0.000432356
     14        1          -0.000070744    0.000234774   -0.000137229
     15        6           0.000422914    0.003223676    0.001847225
     16        1          -0.001162353    0.000288189    0.000054998
     17        1          -0.000385384   -0.001048668    0.000359447
     18        1          -0.000181023   -0.000137296   -0.000138840
     19        6          -0.001756610   -0.004140061   -0.022519162
     20        1           0.004293281   -0.000674101   -0.000927957
     21        1          -0.004658346   -0.000083137    0.001020355
     22        6           0.033617412    0.003200456    0.074265133
     23        8          -0.022455352   -0.008086101   -0.025379544
     24        8          -0.011542822    0.012594585   -0.028909938
     25        7           0.008201979    0.005630029   -0.005931932
     26        1          -0.005156163    0.000421604   -0.000524729
     27        1          -0.001420263   -0.003900671   -0.000379026
 -------------------------------------------------------------------
 Cartesian Forces:  Max     0.074265133 RMS     0.011074880

 GradGradGradGradGradGradGradGradGradGradGradGradGradGradGradGradGradGrad
 Berny optimization.
 Using GEDIIS/GDIIS optimizer.
 FormGI is forming the generalized inverse of G from B-inverse, IUseBI=4.
 Internal  Forces:  Max     0.024680362 RMS     0.005938433
 Search for a local minimum.
 Step number   3 out of a maximum of  150
 All quantities printed in internal units (Hartrees-Bohrs-Radians)
 Mixed Optimization -- RFO/linear search
 Update second derivatives using D2CorX and points    1    3    2
 DE=  1.88D-02 DEPred=-1.31D-03 R=-1.43D+01
 Trust test=-1.43D+01 RLast= 6.84D-01 DXMaxT set to 2.52D-01
 ITU= -1  1  0
 Use linear search instead of GDIIS.
     Eigenvalues ---    0.00229   0.00242   0.00296   0.00338   0.00390
     Eigenvalues ---    0.00433   0.00455   0.00748   0.03205   0.03288
     Eigenvalues ---    0.03545   0.03747   0.04423   0.04511   0.04707
     Eigenvalues ---    0.04749   0.04939   0.05136   0.05296   0.05705
     Eigenvalues ---    0.05999   0.06040   0.06161   0.06188   0.08682
     Eigenvalues ---    0.08958   0.09025   0.09184   0.09858   0.12219
     Eigenvalues ---    0.12468   0.12643   0.13263   0.14301   0.14881
     Eigenvalues ---    0.15438   0.16000   0.16000   0.16000   0.16000
     Eigenvalues ---    0.16000   0.16027   0.16029   0.20524   0.22007
     Eigenvalues ---    0.22284   0.22788   0.25001   0.25497   0.27083
     Eigenvalues ---    0.29551   0.29974   0.30973   0.31787   0.32910
     Eigenvalues ---    0.33090   0.34285   0.34742   0.34805   0.34888
     Eigenvalues ---    0.34948   0.34990   0.35020   0.35072   0.35076
     Eigenvalues ---    0.35136   0.35173   0.35215   0.35279   0.35338
     Eigenvalues ---    0.35760   0.47354   0.47688   0.85580   0.92166
 RFO step:  Lambda=-4.84294778D-04 EMin= 2.28650113D-03
 Quartic linear search produced a step of -0.92950.
 Iteration  1 RMS(Cart)=  0.05963307 RMS(Int)=  0.01462151
 Iteration  2 RMS(Cart)=  0.01503897 RMS(Int)=  0.00077375
 Iteration  3 RMS(Cart)=  0.00061316 RMS(Int)=  0.00048876
 Iteration  4 RMS(Cart)=  0.00000032 RMS(Int)=  0.00048876
 Variable       Old X    -DE/DX   Delta X   Delta X   Delta X     New X
                                 (Linear)    (Quad)   (Total)
    R1        2.05731   0.00049   0.00029   0.00035   0.00065   2.05795
    R2        2.08359  -0.00277  -0.00897   0.00092  -0.00805   2.07554
    R3        2.87687   0.00612   0.00092   0.01130   0.01222   2.88909
    R4        2.75220  -0.00232   0.01853  -0.01800   0.00053   2.75273
    R5        2.05594   0.00054   0.00227  -0.00084   0.00143   2.05737
    R6        2.06527  -0.00066  -0.00384   0.00148  -0.00236   2.06291
    R7        2.89037  -0.00037  -0.00179   0.00203   0.00024   2.89061
    R8        2.06011   0.00019  -0.00009   0.00009  -0.00000   2.06011
    R9        2.05901  -0.00019  -0.00055   0.00007  -0.00048   2.05854
   R10        2.84610   0.00019  -0.00121   0.00187   0.00066   2.84676
   R11        2.82151   0.00190   0.00057  -0.00013   0.00044   2.82194
   R12        2.82510  -0.00162  -0.00059   0.00092   0.00033   2.82542
   R13        2.86325   0.00320  -0.00073   0.00109   0.00036   2.86362
   R14        2.05398  -0.00117  -0.00005  -0.00012  -0.00017   2.05381
   R15        2.05585   0.00059  -0.00007   0.00007  -0.00001   2.05584
   R16        2.05066  -0.00003   0.00049  -0.00049  -0.00000   2.05065
   R17        2.05591  -0.00043  -0.00015  -0.00002  -0.00017   2.05574
   R18        2.05299   0.00016   0.00016  -0.00008   0.00008   2.05307
   R19        2.05459   0.00004  -0.00005   0.00007   0.00002   2.05461
   R20        2.05610   0.00192   0.00029   0.00020   0.00049   2.05659
   R21        2.05310  -0.00229  -0.00038  -0.00006  -0.00044   2.05266
   R22        2.97782   0.00664   0.00025   0.00159   0.00185   2.97967
   R23        2.35244   0.00679  -0.00064   0.00082   0.00018   2.35262
   R24        2.32099   0.00930  -0.00030   0.00096   0.00067   2.32166
   R25        1.91958  -0.00459  -0.01182   0.00221  -0.00961   1.90997
   R26        1.91637  -0.00399  -0.01057   0.00204  -0.00853   1.90783
    A1        1.85631   0.00156   0.00308   0.00037   0.00343   1.85973
    A2        1.90394  -0.00110   0.01101   0.00675   0.01765   1.92159
    A3        1.88858  -0.00221  -0.00486   0.00272  -0.00225   1.88634
    A4        1.88734   0.00028   0.01077   0.00009   0.01075   1.89810
    A5        2.04668  -0.00809  -0.05884  -0.00593  -0.06467   1.98201
    A6        1.87782   0.00960   0.04034  -0.00296   0.03730   1.91512
    A7        1.89139   0.00043   0.01064  -0.00420   0.00653   1.89791
    A8        1.89771  -0.00111  -0.00440  -0.00182  -0.00624   1.89147
    A9        1.99768   0.00118  -0.01429   0.01400  -0.00026   1.99742
   A10        1.83535   0.00039   0.00835  -0.00482   0.00354   1.83889
   A11        1.96306  -0.00126  -0.00819   0.00137  -0.00683   1.95623
   A12        1.87063   0.00028   0.00959  -0.00622   0.00340   1.87402
   A13        1.92314  -0.00008   0.00137  -0.00261  -0.00124   1.92190
   A14        1.93742  -0.00028  -0.00471   0.00283  -0.00188   1.93554
   A15        2.03692  -0.00014  -0.00162   0.00375   0.00213   2.03905
   A16        1.87517   0.00006   0.00029  -0.00084  -0.00055   1.87463
   A17        1.84770   0.00012   0.00094  -0.00061   0.00033   1.84804
   A18        1.83436   0.00036   0.00413  -0.00295   0.00119   1.83555
   A19        1.93295  -0.00337  -0.00314   0.00067  -0.00247   1.93049
   A20        1.87459   0.00286   0.00277  -0.00126   0.00152   1.87610
   A21        1.93874  -0.00118  -0.00029  -0.00137  -0.00166   1.93708
   A22        1.89357  -0.00023   0.00034  -0.00023   0.00010   1.89368
   A23        1.91618   0.00452   0.00296  -0.00075   0.00221   1.91840
   A24        1.90667  -0.00266  -0.00267   0.00300   0.00033   1.90700
   A25        1.86328   0.00081   0.00077  -0.00028   0.00050   1.86378
   A26        1.89471  -0.00117  -0.00018  -0.00007  -0.00025   1.89446
   A27        1.90605  -0.00044  -0.00076   0.00090   0.00015   1.90619
   A28        1.95288   0.00094   0.00146  -0.00074   0.00072   1.95360
   A29        1.92283  -0.00044  -0.00045  -0.00006  -0.00051   1.92232
   A30        1.92250   0.00027  -0.00085   0.00027  -0.00057   1.92193
   A31        1.89578   0.00082   0.00050  -0.00047   0.00003   1.89581
   A32        1.87229   0.00031  -0.00127   0.00181   0.00055   1.87284
   A33        1.89045   0.00040   0.00049  -0.00023   0.00026   1.89071
   A34        1.95598  -0.00113  -0.00062  -0.00005  -0.00067   1.95531
   A35        1.92133  -0.00027   0.00042  -0.00052  -0.00011   1.92122
   A36        1.92600  -0.00004   0.00049  -0.00050  -0.00001   1.92599
   A37        1.85853  -0.00416  -0.00001   0.00030   0.00028   1.85881
   A38        1.86926  -0.00105   0.00275  -0.00470  -0.00195   1.86732
   A39        2.05195   0.00863  -0.00129   0.00574   0.00444   2.05639
   A40        1.90409   0.00121   0.00016  -0.00007   0.00009   1.90418
   A41        1.89377  -0.00102   0.00058   0.00055   0.00112   1.89490
   A42        1.88269  -0.00380  -0.00208  -0.00208  -0.00416   1.87853
   A43        2.00967   0.02253   0.03964   0.00502   0.04799   2.05766
   A44        1.87645   0.01469   0.04182   0.00164   0.04679   1.92324
   A45        2.25022  -0.00481   0.05459  -0.00591   0.05201   2.30223
   A46        1.97129  -0.00321  -0.02200   0.00102  -0.02099   1.95031
   A47        1.95466  -0.00115  -0.01801   0.00490  -0.01312   1.94154
   A48        1.86280   0.00194   0.02310  -0.01181   0.01126   1.87406
    D1       -1.10970   0.00005  -0.00822   0.01732   0.00906  -1.10065
    D2       -3.09586  -0.00007  -0.02130   0.02608   0.00475  -3.09110
    D3        1.09656  -0.00040  -0.02118   0.02621   0.00506   1.10162
    D4       -3.12164  -0.00137  -0.02379   0.01328  -0.01060  -3.13223
    D5        1.17540  -0.00149  -0.03687   0.02205  -0.01490   1.16050
    D6       -0.91537  -0.00182  -0.03675   0.02218  -0.01459  -0.92996
    D7        0.93523   0.00214   0.01562   0.02251   0.03817   0.97341
    D8       -1.05092   0.00203   0.00254   0.03127   0.03387  -1.01705
    D9        3.14150   0.00170   0.00266   0.03140   0.03418  -3.10751
   D10       -2.76890   0.00253   0.05535  -0.03772   0.01765  -2.75125
   D11       -0.66508   0.00191   0.05696  -0.04879   0.00820  -0.65687
   D12       -0.67094  -0.00266   0.01824  -0.03912  -0.02096  -0.69191
   D13        1.43288  -0.00328   0.01986  -0.05019  -0.03041   1.40247
   D14        1.45937  -0.00018   0.02239  -0.04553  -0.02309   1.43628
   D15       -2.71999  -0.00080   0.02400  -0.05660  -0.03254  -2.75253
   D16        0.38506  -0.00024   0.00077  -0.00897  -0.00815   0.37691
   D17        2.46020  -0.00038  -0.00096  -0.00989  -0.01080   2.44940
   D18       -1.72213  -0.00023  -0.00041  -0.00879  -0.00915  -1.73128
   D19        2.55367   0.00026  -0.00288  -0.00222  -0.00514   2.54853
   D20       -1.65438   0.00011  -0.00461  -0.00314  -0.00779  -1.66217
   D21        0.44647   0.00026  -0.00406  -0.00204  -0.00614   0.44033
   D22       -1.72077   0.00023   0.00855  -0.01104  -0.00250  -1.72327
   D23        0.35437   0.00008   0.00682  -0.01196  -0.00515   0.34921
   D24        2.45522   0.00023   0.00737  -0.01086  -0.00350   2.45172
   D25       -1.16622  -0.00102   0.00624  -0.02013  -0.01389  -1.18010
   D26        3.05205  -0.00057   0.00594  -0.01947  -0.01354   3.03852
   D27        0.96798   0.00159   0.00763  -0.02155  -0.01392   0.95406
   D28        2.97027  -0.00092   0.00480  -0.01875  -0.01395   2.95631
   D29        0.90535  -0.00047   0.00449  -0.01809  -0.01361   0.89175
   D30       -1.17872   0.00169   0.00619  -0.02018  -0.01399  -1.19271
   D31        0.98860  -0.00119   0.00230  -0.01629  -0.01399   0.97461
   D32       -1.07631  -0.00074   0.00199  -0.01564  -0.01364  -1.08995
   D33        3.12280   0.00141   0.00369  -0.01772  -0.01403   3.10878
   D34       -3.11084  -0.00105  -0.00556   0.00752   0.00196  -3.10887
   D35       -1.00270  -0.00012  -0.00348   0.00645   0.00297  -0.99973
   D36        1.09377  -0.00075  -0.00506   0.00727   0.00221   1.09598
   D37       -1.05750   0.00034  -0.00380   0.00624   0.00245  -1.05506
   D38        1.05063   0.00128  -0.00171   0.00517   0.00345   1.05409
   D39       -3.13609   0.00064  -0.00329   0.00599   0.00270  -3.13339
   D40        1.02504  -0.00037  -0.00510   0.00931   0.00421   1.02925
   D41        3.13317   0.00056  -0.00301   0.00823   0.00522   3.13839
   D42       -1.05355  -0.00007  -0.00459   0.00906   0.00446  -1.04908
   D43        1.01266  -0.00011  -0.00092   0.00086  -0.00007   1.01260
   D44        3.13029  -0.00083  -0.00213   0.00159  -0.00054   3.12976
   D45       -1.07393  -0.00049  -0.00199   0.00189  -0.00011  -1.07403
   D46       -1.07754   0.00242   0.00106   0.00089   0.00195  -1.07559
   D47        1.04009   0.00170  -0.00014   0.00163   0.00148   1.04157
   D48        3.11906   0.00204  -0.00001   0.00192   0.00191   3.12097
   D49        3.11714  -0.00136  -0.00116   0.00018  -0.00098   3.11616
   D50       -1.04841  -0.00208  -0.00237   0.00092  -0.00145  -1.04986
   D51        1.03055  -0.00174  -0.00223   0.00121  -0.00102   1.02953
   D52        0.97204  -0.00182  -0.02367   0.00341  -0.02027   0.95177
   D53       -1.06330  -0.00065  -0.02519   0.00562  -0.01957  -1.08287
   D54        3.09897  -0.00067  -0.02378   0.00822  -0.01556   3.08341
   D55        3.11594  -0.00377  -0.02581   0.00282  -0.02299   3.09295
   D56        1.08060  -0.00260  -0.02733   0.00503  -0.02229   1.05831
   D57       -1.04032  -0.00263  -0.02591   0.00764  -0.01828  -1.05860
   D58       -1.09275  -0.00295  -0.02524   0.00390  -0.02134  -1.11409
   D59       -3.12809  -0.00179  -0.02676   0.00612  -0.02064   3.13445
   D60        1.03418  -0.00181  -0.02535   0.00872  -0.01663   1.01755
   D61        0.32128  -0.02316  -0.27207   0.05029  -0.22177   0.09951
   D62        2.95955   0.02452   0.22273   0.04934   0.27206  -3.05158
   D63        2.42996  -0.02346  -0.27252   0.05515  -0.21735   2.21261
   D64       -1.21496   0.02422   0.22229   0.05420   0.27648  -0.93848
   D65       -1.79269  -0.02468  -0.27315   0.05422  -0.21892  -2.01161
   D66        0.84557   0.02300   0.22165   0.05327   0.27492   1.12049
         Item               Value     Threshold  Converged?
 Maximum Force            0.024680     0.000450     NO 
 RMS     Force            0.005938     0.000300     NO 
 Maximum Displacement     0.372559     0.001800     NO 
 RMS     Displacement     0.067208     0.001200     NO 
 Predicted change in Energy=-8.710406D-04
 GradGradGradGradGradGradGradGradGradGradGradGradGradGradGradGradGradGrad

                          Input orientation:                          
 ---------------------------------------------------------------------
 Center     Atomic      Atomic             Coordinates (Angstroms)
 Number     Number       Type             X           Y           Z
 ---------------------------------------------------------------------
      1          6           0        1.293467    0.500088   -0.371707
      2          1           0        0.586633    1.314173   -0.525400
      3          1           0        1.623053    0.179310   -1.369101
      4          6           0        0.599795   -0.674754    0.318159
      5          1           0        0.264723   -0.353812    1.303052
      6          1           0        1.343308   -1.451973    0.504730
      7          6           0       -0.529802   -1.309065   -0.495156
      8          1           0       -0.405262   -1.078266   -1.553304
      9          1           0       -0.519243   -2.393704   -0.394726
     10          7           0       -1.935182   -0.894461   -0.145337
     11          6           0       -2.308675   -1.395118    1.211059
     12          1           0       -3.337814   -1.092156    1.385071
     13          1           0       -2.195921   -2.477090    1.223670
     14          1           0       -1.655949   -0.943176    1.950834
     15          6           0       -2.850770   -1.517610   -1.149756
     16          1           0       -2.715556   -2.596633   -1.120672
     17          1           0       -3.864161   -1.226670   -0.887569
     18          1           0       -2.590137   -1.135164   -2.133585
     19          6           0       -2.085695    0.612457   -0.198863
     20          1           0       -1.753531    0.921357   -1.188129
     21          1           0       -1.412674    1.025341    0.547086
     22          6           0       -3.517665    1.218760    0.062047
     23          8           0       -4.426397    0.439838    0.404666
     24          8           0       -3.502265    2.434365   -0.115297
     25          7           0        2.376144    0.994013    0.468391
     26          1           0        3.216539    0.443414    0.358295
     27          1           0        2.609551    1.949357    0.240146
 ---------------------------------------------------------------------
                    Distance matrix (angstroms):
                    1          2          3          4          5
     1  C    0.000000
     2  H    1.089023   0.000000
     3  H    1.098327   1.753258   0.000000
     4  C    1.528839   2.160462   2.150192   0.000000
     5  H    2.142959   2.495803   3.044615   1.088711   0.000000
     6  H    2.140366   3.047177   2.500117   1.091645   1.733961
     7  C    2.571494   2.851091   2.759315   1.529647   2.185710
     8  H    2.602509   2.786433   2.393635   2.162252   3.022000
     9  H    3.414744   3.871484   3.487010   2.171460   2.767348
    10  N    3.524228   3.373731   3.913006   2.586351   2.688813
    11  C    4.367193   4.328782   4.959287   3.126562   2.777618
    12  H    5.202909   4.984135   5.814833   4.100889   3.678336
    13  H    4.856402   5.017522   5.325738   3.447375   3.251059
    14  H    4.021972   4.031939   4.799354   2.797510   2.110913
    15  C    4.674522   4.497171   4.789858   3.843381   4.132432
    16  H    5.120829   5.152980   5.156656   4.093337   4.448230
    17  H    5.463418   5.137764   5.684907   4.656748   4.754828
    18  H    4.567345   4.321733   4.479201   4.049530   4.535550
    19  C    3.385445   2.782152   3.913041   3.022595   2.951930
    20  H    3.182485   2.463713   3.461893   3.217859   3.450418
    21  H    2.905730   2.287111   3.688249   2.644384   2.299394
    22  C    4.883812   4.147223   5.436508   4.539214   4.280133
    23  O    5.772627   5.173002   6.309514   5.149020   4.841858
    24  O    5.177472   4.259354   5.738134   5.165404   4.896513
    25  N    1.456680   2.071829   2.146454   2.441878   2.640338
    26  H    2.057747   2.907842   2.364920   2.845920   3.200211
    27  H    2.051054   2.254267   2.587648   3.306231   3.454355
                    6          7          8          9         10
     6  H    0.000000
     7  C    2.128082   0.000000
     8  H    2.726290   1.090163   0.000000
     9  H    2.272658   1.089330   1.756608   0.000000
    10  N    3.388496   1.506441   2.087298   2.077212   0.000000
    11  C    3.720095   2.466366   3.371213   2.603418   1.493307
    12  H    4.776753   3.386331   4.151398   3.578554   2.085332
    13  H    3.754182   2.663569   3.588141   2.331825   2.108763
    14  H    3.368328   2.717526   3.723097   2.982916   2.115249
    15  C    4.509093   2.420513   2.517217   2.602620   1.495150
    16  H    4.519574   2.612781   2.798225   2.322061   2.111315
    17  H    5.395089   3.358382   3.525509   3.576778   2.093378
    18  H    4.746900   2.638119   2.261336   2.982642   2.107139
    19  C    4.063862   2.490148   2.741699   3.395458   1.515361
    20  H    4.253102   2.636760   2.439196   3.625270   2.101810
    21  H    3.705984   2.704659   3.138739   3.657198   2.106681
    22  C    5.563977   3.953188   4.191986   4.716892   2.648200
    23  O    6.072764   4.364836   4.723115   4.892223   2.879064
    24  O    6.242406   4.795111   4.898762   5.682143   3.679365
    25  N    2.655357   3.831071   4.014699   4.539258   4.746633
    26  H    2.668883   4.223107   4.368886   4.751037   5.346381
    27  H    3.639014   4.584050   4.633796   5.390231   5.374988
                   11         12         13         14         15
    11  C    0.000000
    12  H    1.086828   0.000000
    13  H    1.087904   1.802225   0.000000
    14  H    1.085159   1.780717   1.781357   0.000000
    15  C    2.425349   2.616022   2.642457   3.372125   0.000000
    16  H    2.654460   2.988211   2.404215   3.645660   1.087851
    17  H    2.617662   2.336671   2.967138   3.607368   1.086439
    18  H    3.366518   3.597473   3.636940   4.194287   1.087251
    19  C    2.463322   2.642414   3.403094   2.688098   2.454938
    20  H    3.380879   3.631190   4.190695   3.652272   2.674689
    21  H    2.665015   2.981975   3.652160   2.429969   3.378460
    22  C    3.100685   2.668908   4.093371   3.421618   3.066094
    23  O    2.915833   2.119720   3.762215   3.461032   2.954730
    24  O    4.224786   3.835948   5.255641   4.368702   4.136744
    25  N    5.311029   6.151562   5.789886   4.712548   6.020571
    26  H    5.885185   6.809684   6.210712   5.310363   6.552257
    27  H    6.026370   6.777375   6.607066   5.430257   6.615647
                   16         17         18         19         20
    16  H    0.000000
    17  H    1.802894   0.000000
    18  H    1.782587   1.784395   0.000000
    19  C    3.397751   2.649461   2.655520   0.000000
    20  H    3.647779   3.026403   2.413104   1.088301   0.000000
    21  H    4.194951   3.624856   3.638708   1.086219   1.771430
    22  C    4.074239   2.646122   3.349935   1.576774   2.182557
    23  O    3.804443   2.182483   3.506451   2.423413   3.148502
    24  O    5.190436   3.759062   4.200833   2.309329   2.549163
    25  N    6.429873   6.761026   5.997301   4.527563   4.450118
    26  H    6.827810   7.380900   6.512976   5.334107   5.226993
    27  H    7.132644   7.298482   6.495046   4.901568   4.704598
                   21         22         23         24         25
    21  H    0.000000
    22  C    2.168792   0.000000
    23  O    3.073373   1.244950   0.000000
    24  O    2.605856   1.228569   2.258875   0.000000
    25  N    3.789765   5.912073   6.825374   6.080378   0.000000
    26  H    4.669465   6.785163   7.643078   7.023568   1.010715
    27  H    4.138395   6.173190   7.197936   6.141325   1.009583
                   26         27
    26  H    0.000000
    27  H    1.627961   0.000000
 Stoichiometry    C7H16N2O2
 Framework group  C1[X(C7H16N2O2)]
 Deg. of freedom    75
 Full point group                 C1      NOp   1
 Largest Abelian subgroup         C1      NOp   1
 Largest concise Abelian subgroup C1      NOp   1
                         Standard orientation:                         
 ---------------------------------------------------------------------
 Center     Atomic      Atomic             Coordinates (Angstroms)
 Number     Number       Type             X           Y           Z
 ---------------------------------------------------------------------
      1          6           0        2.718460    0.577860   -0.433169
      2          1           0        1.981985    1.357962   -0.620295
      3          1           0        3.044902    0.213301   -1.416457
      4          6           0        2.075290   -0.579368    0.331357
      5          1           0        1.743186   -0.215525    1.302242
      6          1           0        2.847611   -1.319621    0.548692
      7          6           0        0.956903   -1.295496   -0.427715
      8          1           0        1.058633   -1.119904   -1.498824
      9          1           0        1.006137   -2.371899   -0.267799
     10          7           0       -0.456870   -0.909438   -0.079047
     11          6           0       -0.793937   -1.346069    1.308651
     12          1           0       -1.830348   -1.068581    1.481992
     13          1           0       -0.643897   -2.421270    1.379125
     14          1           0       -0.146853   -0.832013    2.011927
     15          6           0       -1.364450   -1.617886   -1.032919
     16          1           0       -1.191837   -2.688474   -0.946518
     17          1           0       -2.383478   -1.346960   -0.771136
     18          1           0       -1.130894   -1.282265   -2.040354
     19          6           0       -0.659821    0.586266   -0.213206
     20          1           0       -0.352331    0.850594   -1.223147
     21          1           0        0.008974    1.062372    0.498066
     22          6           0       -2.107996    1.157779    0.036550
     23          8           0       -2.984541    0.369092    0.435977
     24          8           0       -2.136866    2.361459   -0.207790
     25          7           0        3.795160    1.153816    0.361129
     26          1           0        4.652361    0.626443    0.268250
     27          1           0        3.992380    2.102266    0.076869
 ---------------------------------------------------------------------
 Rotational constants (GHZ):           1.5513248           0.6283126           0.5081834
 Standard basis: 6-311+G(2d,2p) (5D, 7F)
 There are   463 symmetry adapted cartesian basis functions of A   symmetry.
 There are   441 symmetry adapted basis functions of A   symmetry.
   441 basis functions,   638 primitive gaussians,   463 cartesian basis functions
    44 alpha electrons       44 beta electrons
       nuclear repulsion energy       681.1560778587 Hartrees.
 NAtoms=   27 NActive=   27 NUniq=   27 SFac= 1.00D+00 NAtFMM=   60 NAOKFM=F Big=F
 Integral buffers will be    131072 words long.
 Raffenetti 2 integral format.
 Two-electron integral symmetry is turned on.
 Nuclear repulsion after empirical dispersion term =      681.1345917185 Hartrees.
 One-electron integrals computed using PRISM.
 NBasis=   441 RedAO= T EigKep=  1.19D-05  NBF=   441
 NBsUse=   441 1.00D-06 EigRej= -1.00D+00 NBFU=   441
 Lowest energy guess from the checkpoint file:  "aminopropyl_betaine_h.chk"
 B after Tr=    -0.000000    0.000000   -0.000000
         Rot=    0.999999   -0.000896    0.001267    0.000339 Ang=  -0.18 deg.
 B after Tr=    -0.000000   -0.000000   -0.000000
         Rot=    0.999796   -0.019785   -0.001388   -0.003704 Ang=  -2.31 deg.
 Requested convergence on RMS density matrix=1.00D-08 within  32 cycles.
 Requested convergence on MAX density matrix=1.00D-06.
 Requested convergence on             energy=1.00D-06.
 No special actions if energy rises.
 SCF Done:  E(RwB97XD) =  -536.304153216     A.U. after   12 cycles
            NFock= 12  Conv=0.83D-08     -V/T= 2.0040
 QCSCF skips out because SCF is already converged.
 Calling FoFJK, ICntrl=      2127 FMM=F ISym2X=0 I1Cent= 0 IOpClX= 0 NMat=1 NMatS=1 NMatT=0.
 ***** Axes restored to original set *****
 -------------------------------------------------------------------
 Center     Atomic                   Forces (Hartrees/Bohr)
 Number     Number              X              Y              Z
 -------------------------------------------------------------------
      1        6           0.000546200   -0.000426754    0.000738734
      2        1          -0.000400356   -0.000014212    0.000294001
      3        1           0.000118644    0.000378604   -0.000058494
      4        6          -0.000804818   -0.001090975   -0.000481681
      5        1          -0.000283591    0.000041656    0.000283004
      6        1           0.000281275    0.000276215   -0.000131058
      7        6           0.000297237    0.000204321    0.000135114
      8        1           0.000064625    0.000079249   -0.000033947
      9        1           0.000218956    0.000093789    0.000075763
     10        7          -0.000193846    0.000163995    0.000067854
     11        6           0.000125144   -0.000577138    0.000015493
     12        1          -0.000081954    0.000489482    0.000113689
     13        1           0.000164595   -0.000066309   -0.000027948
     14        1           0.000219364    0.000149525   -0.000003902
     15        6          -0.000032654    0.001216260    0.000684800
     16        1          -0.000329270    0.000057489    0.000054670
     17        1          -0.000198787   -0.000156572    0.000144041
     18        1          -0.000128327    0.000011483    0.000021546
     19        6          -0.000471364    0.000252950   -0.000395379
     20        1           0.000015283    0.000105512    0.000122448
     21        1           0.000041889    0.000067050    0.000141372
     22        6          -0.001658998    0.000376622   -0.000126316
     23        8           0.001710387   -0.001425465   -0.000880638
     24        8           0.001189612   -0.000365108   -0.000083515
     25        7          -0.000060224    0.000884612   -0.000800047
     26        1          -0.000568333   -0.000233379    0.000294216
     27        1           0.000219311   -0.000492902   -0.000163819
 -------------------------------------------------------------------
 Cartesian Forces:  Max     0.001710387 RMS     0.000495770

 GradGradGradGradGradGradGradGradGradGradGradGradGradGradGradGradGradGrad
 Berny optimization.
 Using GEDIIS/GDIIS optimizer.
 FormGI is forming the generalized inverse of G from B-inverse, IUseBI=4.
 Internal  Forces:  Max     0.003345256 RMS     0.000592301
 Search for a local minimum.
 Step number   4 out of a maximum of  150
 All quantities printed in internal units (Hartrees-Bohrs-Radians)
 Mixed Optimization -- En-DIIS/RFO-DIIS
 Update second derivatives using D2CorX and points    1    2    4
 DE= -2.45D-04 DEPred=-8.71D-04 R= 2.81D-01
 Trust test= 2.81D-01 RLast= 2.17D-01 DXMaxT set to 2.52D-01
 ITU=  0 -1  1  0
 Use linear search instead of GDIIS.
     Eigenvalues ---    0.00194   0.00272   0.00309   0.00357   0.00413
     Eigenvalues ---    0.00433   0.00470   0.00620   0.03191   0.03309
     Eigenvalues ---    0.03541   0.03904   0.04432   0.04466   0.04701
     Eigenvalues ---    0.04730   0.04962   0.05183   0.05341   0.05534
     Eigenvalues ---    0.05990   0.06029   0.06149   0.06172   0.08085
     Eigenvalues ---    0.08677   0.09015   0.09525   0.09896   0.12220
     Eigenvalues ---    0.12610   0.12697   0.13244   0.14383   0.14831
     Eigenvalues ---    0.15700   0.16000   0.16000   0.16000   0.16000
     Eigenvalues ---    0.16006   0.16031   0.16364   0.19909   0.22086
     Eigenvalues ---    0.22746   0.23740   0.25068   0.25445   0.28552
     Eigenvalues ---    0.29638   0.30508   0.31409   0.31981   0.32881
     Eigenvalues ---    0.33094   0.34482   0.34802   0.34835   0.34926
     Eigenvalues ---    0.34960   0.35003   0.35027   0.35073   0.35089
     Eigenvalues ---    0.35137   0.35172   0.35215   0.35257   0.35332
     Eigenvalues ---    0.36342   0.47660   0.47691   0.85660   0.92194
 RFO step:  Lambda=-5.75811871D-04 EMin= 1.94494122D-03
 Quartic linear search produced a step of -0.22204.
 Iteration  1 RMS(Cart)=  0.05366290 RMS(Int)=  0.00144431
 Iteration  2 RMS(Cart)=  0.00196645 RMS(Int)=  0.00006161
 Iteration  3 RMS(Cart)=  0.00000382 RMS(Int)=  0.00006154
 Iteration  4 RMS(Cart)=  0.00000000 RMS(Int)=  0.00006154
 Variable       Old X    -DE/DX   Delta X   Delta X   Delta X     New X
                                 (Linear)    (Quad)   (Total)
    R1        2.05795   0.00021  -0.00007   0.00071   0.00064   2.05859
    R2        2.07554  -0.00002  -0.00036   0.00327   0.00291   2.07845
    R3        2.88909  -0.00013  -0.00249   0.01043   0.00794   2.89702
    R4        2.75273  -0.00064   0.00431  -0.02384  -0.01953   2.73319
    R5        2.05737   0.00035   0.00023  -0.00067  -0.00044   2.05692
    R6        2.06291  -0.00003  -0.00039   0.00241   0.00202   2.06493
    R7        2.89061  -0.00100  -0.00048  -0.00008  -0.00056   2.89006
    R8        2.06011   0.00006  -0.00002   0.00024   0.00022   2.06033
    R9        2.05854  -0.00008  -0.00002   0.00004   0.00001   2.05855
   R10        2.84676  -0.00029  -0.00044   0.00145   0.00102   2.84778
   R11        2.82194  -0.00002   0.00004  -0.00029  -0.00025   2.82169
   R12        2.82542  -0.00066  -0.00021  -0.00046  -0.00067   2.82475
   R13        2.86362  -0.00102  -0.00025  -0.00115  -0.00141   2.86221
   R14        2.05381   0.00023   0.00003   0.00038   0.00040   2.05421
   R15        2.05584   0.00008  -0.00002   0.00027   0.00025   2.05609
   R16        2.05065   0.00019   0.00012  -0.00021  -0.00009   2.05056
   R17        2.05574  -0.00010   0.00000  -0.00019  -0.00018   2.05556
   R18        2.05307   0.00018   0.00002   0.00026   0.00028   2.05335
   R19        2.05461  -0.00005  -0.00002  -0.00002  -0.00004   2.05457
   R20        2.05659  -0.00008  -0.00004  -0.00003  -0.00007   2.05652
   R21        2.05266   0.00015   0.00001   0.00033   0.00034   2.05300
   R22        2.97967  -0.00185  -0.00035  -0.00380  -0.00415   2.97552
   R23        2.35262  -0.00060  -0.00019   0.00048   0.00029   2.35290
   R24        2.32166  -0.00033  -0.00022   0.00079   0.00057   2.32223
   R25        1.90997  -0.00038  -0.00069   0.00474   0.00405   1.91402
   R26        1.90783  -0.00038  -0.00063   0.00424   0.00361   1.91144
    A1        1.85973   0.00012  -0.00003  -0.00025  -0.00030   1.85943
    A2        1.92159  -0.00034  -0.00129   0.00187   0.00058   1.92217
    A3        1.88634  -0.00003  -0.00066   0.00429   0.00360   1.88994
    A4        1.89810  -0.00000   0.00019  -0.00252  -0.00230   1.89579
    A5        1.98201  -0.00038   0.00030   0.00872   0.00900   1.99101
    A6        1.91512   0.00060   0.00135  -0.01168  -0.01032   1.90480
    A7        1.89791   0.00012   0.00109  -0.00761  -0.00653   1.89138
    A8        1.89147  -0.00008   0.00033  -0.00079  -0.00046   1.89101
    A9        1.99742  -0.00031  -0.00336   0.01611   0.01275   2.01017
   A10        1.83889   0.00001   0.00121  -0.00581  -0.00461   1.83428
   A11        1.95623  -0.00005  -0.00044   0.00220   0.00177   1.95800
   A12        1.87402   0.00033   0.00154  -0.00591  -0.00438   1.86964
   A13        1.92190   0.00043   0.00060  -0.00155  -0.00095   1.92095
   A14        1.93554  -0.00005  -0.00071   0.00285   0.00214   1.93769
   A15        2.03905  -0.00108  -0.00086   0.00006  -0.00081   2.03825
   A16        1.87463  -0.00011   0.00019   0.00023   0.00042   1.87504
   A17        1.84804   0.00018   0.00015  -0.00089  -0.00075   1.84729
   A18        1.83555   0.00069   0.00072  -0.00077  -0.00004   1.83551
   A19        1.93049  -0.00055  -0.00020   0.00065   0.00044   1.93093
   A20        1.87610   0.00085   0.00033   0.00437   0.00470   1.88080
   A21        1.93708   0.00016   0.00030   0.00014   0.00045   1.93752
   A22        1.89368   0.00006   0.00006  -0.00056  -0.00051   1.89317
   A23        1.91840   0.00045   0.00022  -0.00098  -0.00077   1.91762
   A24        1.90700  -0.00098  -0.00071  -0.00359  -0.00431   1.90269
   A25        1.86378  -0.00009   0.00008  -0.00068  -0.00061   1.86317
   A26        1.89446   0.00001   0.00001   0.00044   0.00045   1.89492
   A27        1.90619  -0.00032  -0.00021  -0.00105  -0.00126   1.90493
   A28        1.95360   0.00026   0.00019   0.00150   0.00168   1.95529
   A29        1.92232   0.00003   0.00001  -0.00078  -0.00078   1.92154
   A30        1.92193   0.00009  -0.00008   0.00050   0.00042   1.92235
   A31        1.89581   0.00024   0.00011   0.00050   0.00061   1.89642
   A32        1.87284  -0.00005  -0.00042   0.00140   0.00098   1.87381
   A33        1.89071   0.00014   0.00006   0.00079   0.00085   1.89155
   A34        1.95531  -0.00025   0.00000  -0.00211  -0.00211   1.95320
   A35        1.92122  -0.00003   0.00012   0.00016   0.00029   1.92151
   A36        1.92599  -0.00002   0.00012  -0.00060  -0.00048   1.92551
   A37        1.85881   0.00129  -0.00006   0.00320   0.00313   1.86194
   A38        1.86732   0.00069   0.00109  -0.00228  -0.00118   1.86614
   A39        2.05639  -0.00335  -0.00129  -0.00600  -0.00730   2.04909
   A40        1.90418  -0.00041   0.00002   0.00175   0.00177   1.90595
   A41        1.89490   0.00046  -0.00011  -0.00164  -0.00175   1.89314
   A42        1.87853   0.00141   0.00043   0.00537   0.00579   1.88432
   A43        2.05766  -0.00257  -0.00119  -0.00234  -0.00394   2.05372
   A44        1.92324  -0.00010  -0.00040   0.00125   0.00044   1.92368
   A45        2.30223   0.00267   0.00149   0.00046   0.00153   2.30377
   A46        1.95031  -0.00034  -0.00059   0.00545   0.00485   1.95516
   A47        1.94154   0.00014  -0.00139   0.01037   0.00898   1.95052
   A48        1.87406   0.00011   0.00302  -0.01710  -0.01409   1.85997
    D1       -1.10065   0.00005  -0.00397   0.02372   0.01975  -1.08090
    D2       -3.09110   0.00002  -0.00614   0.03488   0.02873  -3.06237
    D3        1.10162  -0.00015  -0.00618   0.03260   0.02640   1.12803
    D4       -3.13223   0.00009  -0.00333   0.02442   0.02111  -3.11112
    D5        1.16050   0.00006  -0.00550   0.03558   0.03009   1.19059
    D6       -0.92996  -0.00010  -0.00554   0.03331   0.02777  -0.90220
    D7        0.97341   0.00017  -0.00474   0.02294   0.01820   0.99161
    D8       -1.01705   0.00014  -0.00691   0.03410   0.02718  -0.98987
    D9       -3.10751  -0.00002  -0.00695   0.03182   0.02485  -3.08266
   D10       -2.75125  -0.00027   0.00930  -0.07571  -0.06642  -2.81767
   D11       -0.65687  -0.00027   0.01179  -0.08668  -0.07491  -0.73178
   D12       -0.69191  -0.00037   0.00901  -0.06791  -0.05887  -0.75077
   D13        1.40247  -0.00037   0.01150  -0.07888  -0.06735   1.33512
   D14        1.43628  -0.00020   0.01048  -0.07373  -0.06326   1.37302
   D15       -2.75253  -0.00019   0.01296  -0.08470  -0.07175  -2.82428
   D16        0.37691   0.00006   0.00199   0.01582   0.01781   0.39472
   D17        2.44940   0.00017   0.00217   0.01690   0.01906   2.46847
   D18       -1.73128   0.00025   0.00193   0.01823   0.02015  -1.71113
   D19        2.54853  -0.00006   0.00045   0.02024   0.02070   2.56923
   D20       -1.66217   0.00004   0.00063   0.02132   0.02195  -1.64022
   D21        0.44033   0.00013   0.00039   0.02264   0.02304   0.46338
   D22       -1.72327   0.00012   0.00260   0.01089   0.01349  -1.70978
   D23        0.34921   0.00023   0.00277   0.01197   0.01474   0.36396
   D24        2.45172   0.00032   0.00254   0.01329   0.01583   2.46755
   D25       -1.18010   0.00020   0.00457   0.01190   0.01648  -1.16363
   D26        3.03852  -0.00007   0.00442   0.00960   0.01403   3.05254
   D27        0.95406   0.00050   0.00491   0.01119   0.01610   0.97016
   D28        2.95631   0.00021   0.00425   0.01459   0.01883   2.97514
   D29        0.89175  -0.00006   0.00409   0.01229   0.01639   0.90813
   D30       -1.19271   0.00052   0.00459   0.01388   0.01846  -1.17425
   D31        0.97461  -0.00003   0.00366   0.01504   0.01870   0.99331
   D32       -1.08995  -0.00030   0.00350   0.01274   0.01625  -1.07370
   D33        3.10878   0.00027   0.00400   0.01433   0.01833   3.12710
   D34       -3.10887  -0.00043  -0.00176  -0.00573  -0.00749  -3.11637
   D35       -0.99973  -0.00016  -0.00149  -0.00410  -0.00559  -1.00532
   D36        1.09598  -0.00024  -0.00170  -0.00385  -0.00555   1.09043
   D37       -1.05506   0.00032  -0.00145  -0.00039  -0.00184  -1.05690
   D38        1.05409   0.00059  -0.00118   0.00124   0.00007   1.05415
   D39       -3.13339   0.00051  -0.00139   0.00149   0.00010  -3.13329
   D40        1.02925  -0.00057  -0.00215  -0.00567  -0.00783   1.02142
   D41        3.13839  -0.00030  -0.00188  -0.00404  -0.00592   3.13247
   D42       -1.04908  -0.00038  -0.00209  -0.00379  -0.00588  -1.05497
   D43        1.01260   0.00002  -0.00021   0.00116   0.00096   1.01355
   D44        3.12976  -0.00018  -0.00039  -0.00026  -0.00065   3.12911
   D45       -1.07403  -0.00016  -0.00045   0.00023  -0.00022  -1.07426
   D46       -1.07559   0.00016  -0.00018  -0.00176  -0.00194  -1.07753
   D47        1.04157  -0.00004  -0.00036  -0.00319  -0.00355   1.03802
   D48        3.12097  -0.00002  -0.00043  -0.00270  -0.00312   3.11784
   D49        3.11616   0.00016  -0.00006   0.00186   0.00180   3.11796
   D50       -1.04986  -0.00004  -0.00024   0.00044   0.00019  -1.04967
   D51        1.02953  -0.00002  -0.00031   0.00093   0.00062   1.03015
   D52        0.95177   0.00023  -0.00115  -0.09074  -0.09189   0.85988
   D53       -1.08287  -0.00025  -0.00167  -0.09322  -0.09489  -1.17776
   D54        3.08341  -0.00039  -0.00223  -0.09441  -0.09664   2.98677
   D55        3.09295  -0.00004  -0.00106  -0.09050  -0.09156   3.00139
   D56        1.05831  -0.00053  -0.00158  -0.09299  -0.09456   0.96374
   D57       -1.05860  -0.00067  -0.00213  -0.09417  -0.09631  -1.15491
   D58       -1.11409  -0.00030  -0.00129  -0.09395  -0.09524  -1.20933
   D59        3.13445  -0.00078  -0.00181  -0.09644  -0.09824   3.03621
   D60        1.01755  -0.00092  -0.00236  -0.09762  -0.09999   0.91756
   D61        0.09951  -0.00043  -0.01575   0.00830  -0.00747   0.09204
   D62       -3.05158  -0.00011  -0.00720  -0.05088  -0.05809  -3.10966
   D63        2.21261  -0.00071  -0.01684   0.00697  -0.00987   2.20274
   D64       -0.93848  -0.00039  -0.00829  -0.05221  -0.06049  -0.99896
   D65       -2.01161  -0.00018  -0.01664   0.01111  -0.00554  -2.01714
   D66        1.12049   0.00015  -0.00809  -0.04807  -0.05615   1.06434
         Item               Value     Threshold  Converged?
 Maximum Force            0.003345     0.000450     NO 
 RMS     Force            0.000592     0.000300     NO 
 Maximum Displacement     0.349375     0.001800     NO 
 RMS     Displacement     0.053683     0.001200     NO 
 Predicted change in Energy=-3.496615D-04
 GradGradGradGradGradGradGradGradGradGradGradGradGradGradGradGradGradGrad

                          Input orientation:                          
 ---------------------------------------------------------------------
 Center     Atomic      Atomic             Coordinates (Angstroms)
 Number     Number       Type             X           Y           Z
 ---------------------------------------------------------------------
      1          6           0        1.287764    0.529772   -0.359946
      2          1           0        0.581907    1.354333   -0.452517
      3          1           0        1.580037    0.251488   -1.383100
      4          6           0        0.607712   -0.675416    0.299796
      5          1           0        0.292448   -0.385971    1.300601
      6          1           0        1.359431   -1.453699    0.452166
      7          6           0       -0.531451   -1.301299   -0.506118
      8          1           0       -0.420720   -1.056226   -1.562710
      9          1           0       -0.520322   -2.387174   -0.420075
     10          7           0       -1.932600   -0.890579   -0.133191
     11          6           0       -2.280687   -1.386537    1.231515
     12          1           0       -3.305497   -1.079634    1.424465
     13          1           0       -2.169205   -2.468754    1.245785
     14          1           0       -1.612785   -0.932503    1.956242
     15          6           0       -2.868198   -1.515743   -1.117179
     16          1           0       -2.732881   -2.594678   -1.088970
     17          1           0       -3.876695   -1.226073   -0.834874
     18          1           0       -2.629103   -1.135051   -2.107118
     19          6           0       -2.090499    0.614723   -0.189718
     20          1           0       -1.689517    0.935067   -1.149360
     21          1           0       -1.479512    1.026956    0.608418
     22          6           0       -3.545522    1.197020   -0.037644
     23          8           0       -4.464392    0.397214    0.219785
     24          8           0       -3.525701    2.421521   -0.139275
     25          7           0        2.388863    0.966030    0.470218
     26          1           0        3.206320    0.378975    0.356156
     27          1           0        2.677319    1.909057    0.245250
 ---------------------------------------------------------------------
                    Distance matrix (angstroms):
                    1          2          3          4          5
     1  C    0.000000
     2  H    1.089360   0.000000
     3  H    1.099869   1.754571   0.000000
     4  C    1.533039   2.164837   2.153301   0.000000
     5  H    2.141647   2.487140   3.044091   1.088476   0.000000
     6  H    2.144485   3.050908   2.514862   1.092714   1.731571
     7  C    2.585291   2.880073   2.763806   1.529352   2.186519
     8  H    2.623157   2.837003   2.396957   2.161392   3.025954
     9  H    3.432399   3.900620   3.507344   2.172738   2.761545
    10  N    3.526976   3.385904   3.899386   2.585915   2.694666
    11  C    4.351877   4.306133   4.942118   3.117152   2.761689
    12  H    5.183856   4.955721   5.789884   4.091635   3.666295
    13  H    4.849759   5.006879   5.326121   3.438346   3.225015
    14  H    3.989506   3.981006   4.769397   2.782177   2.087696
    15  C    4.693566   4.536777   4.793810   3.846546   4.136632
    16  H    5.143856   5.194958   5.175755   4.095339   4.443091
    17  H    5.475416   5.165639   5.679759   4.658390   4.758967
    18  H    4.600663   4.386950   4.490384   4.059737   4.550728
    19  C    3.383616   2.785291   3.876718   3.030581   2.983433
    20  H    3.106709   2.412622   3.348418   3.157683   3.416962
    21  H    2.973674   2.341412   3.732069   2.711055   2.369666
    22  C    4.889760   4.151210   5.382903   4.568285   4.361969
    23  O    5.782816   5.180078   6.255046   5.184898   4.940553
    24  O    5.176569   4.255521   5.685483   5.183522   4.953132
    25  N    1.446344   2.065746   2.144658   2.428145   2.629144
    26  H    2.053386   2.914244   2.384546   2.804939   3.157178
    27  H    2.049280   2.277135   2.569647   3.311457   3.473978
                    6          7          8          9         10
     6  H    0.000000
     7  C    2.125316   0.000000
     8  H    2.717839   1.090279   0.000000
     9  H    2.272807   1.089336   1.756974   0.000000
    10  N    3.390755   1.506979   2.087282   2.077650   0.000000
    11  C    3.723218   2.467076   3.372874   2.613027   1.493172
    12  H    4.779838   3.386978   4.152795   3.587366   2.084917
    13  H    3.756520   2.667275   3.597232   2.345327   2.109074
    14  H    3.371640   2.714500   3.717439   2.992728   2.114183
    15  C    4.509938   2.424824   2.529783   2.599590   1.494793
    16  H    4.519287   2.618940   2.817331   2.320754   2.111379
    17  H    5.396786   3.362201   3.535867   3.575675   2.093900
    18  H    4.749724   2.644047   2.275862   2.976724   2.107432
    19  C    4.073377   2.490358   2.732278   3.395572   1.514616
    20  H    4.191321   2.599271   2.397072   3.596687   2.103490
    21  H    3.773282   2.749869   3.189747   3.692442   2.105282
    22  C    5.596855   3.942803   4.143348   4.705798   2.639832
    23  O    6.115292   4.345102   4.651996   4.870106   2.862337
    24  O    6.263517   4.791607   4.874608   5.677561   3.675325
    25  N    2.629666   3.823904   4.014483   4.527688   4.741956
    26  H    2.603634   4.187812   4.347099   4.705526   5.315988
    27  H    3.617702   4.600776   4.653973   5.396773   5.406712
                   11         12         13         14         15
    11  C    0.000000
    12  H    1.087040   0.000000
    13  H    1.088037   1.803536   0.000000
    14  H    1.085112   1.780368   1.781690   0.000000
    15  C    2.424506   2.615603   2.642049   3.370779   0.000000
    16  H    2.654946   2.990085   2.405134   3.645650   1.087753
    17  H    2.615904   2.335021   2.964611   3.605801   1.086587
    18  H    3.366172   3.596201   3.637612   4.193426   1.087231
    19  C    2.461934   2.636788   3.402160   2.688357   2.450283
    20  H    3.377557   3.646229   4.189607   3.624702   2.719705
    21  H    2.618220   2.904802   3.619654   2.381988   3.372159
    22  C    3.144096   2.716345   4.120599   3.499418   2.997207
    23  O    2.995653   2.230554   3.812392   3.593758   2.827493
    24  O    4.234434   3.840815   5.260538   4.393167   4.109824
    25  N    5.283828   6.125445   5.759794   4.671818   6.026253
    26  H    5.830140   6.758150   6.147948   5.244428   6.531496
    27  H    6.034524   6.790943   6.607200   5.422817   6.658696
                   16         17         18         19         20
    16  H    0.000000
    17  H    1.801653   0.000000
    18  H    1.782668   1.784202   0.000000
    19  C    3.394343   2.644853   2.651080   0.000000
    20  H    3.681216   3.090821   2.466883   1.088264   0.000000
    21  H    4.191455   3.592452   3.656497   1.086399   1.772661
    22  C    4.017791   2.572281   3.249785   1.574575   2.179285
    23  O    3.696267   2.023055   3.336255   2.418754   3.140664
    24  O    5.166501   3.729878   4.162391   2.308001   2.569317
    25  N    6.429773   6.765042   6.019733   4.541324   4.388300
    26  H    6.797434   7.359608   6.512461   5.330089   5.152187
    27  H    7.164778   7.345121   6.554261   4.959495   4.686454
                   21         22         23         24         25
    21  H    0.000000
    22  C    2.171340   0.000000
    23  O    3.075243   1.245103   0.000000
    24  O    2.586648   1.228871   2.260062   0.000000
    25  N    3.871322   5.960554   6.881379   6.121438   0.000000
    26  H    4.737144   6.812609   7.671946   7.052486   1.012857
    27  H    4.264884   6.269831   7.300024   6.236020   1.011492
                   26         27
    26  H    0.000000
    27  H    1.622742   0.000000
 Stoichiometry    C7H16N2O2
 Framework group  C1[X(C7H16N2O2)]
 Deg. of freedom    75
 Full point group                 C1      NOp   1
 Largest Abelian subgroup         C1      NOp   1
 Largest concise Abelian subgroup C1      NOp   1
                         Standard orientation:                         
 ---------------------------------------------------------------------
 Center     Atomic      Atomic             Coordinates (Angstroms)
 Number     Number       Type             X           Y           Z
 ---------------------------------------------------------------------
      1          6           0        2.711807    0.617069   -0.433635
      2          1           0        1.976780    1.415184   -0.530864
      3          1           0        2.982389    0.314414   -1.455837
      4          6           0        2.091736   -0.586605    0.285314
      5          1           0        1.797152   -0.274277    1.285539
      6          1           0        2.872844   -1.335043    0.439373
      7          6           0        0.950206   -1.274900   -0.464405
      8          1           0        1.021225   -1.061649   -1.531264
      9          1           0        0.999584   -2.356411   -0.343796
     10          7           0       -0.451926   -0.896888   -0.061765
     11          6           0       -0.742620   -1.358091    1.328325
     12          1           0       -1.770747   -1.077769    1.542877
     13          1           0       -0.595252   -2.435133    1.374011
     14          1           0       -0.068662   -0.859181    2.017046
     15          6           0       -1.395433   -1.583891   -0.995698
     16          1           0       -1.223945   -2.656433   -0.936929
     17          1           0       -2.404027   -1.317296   -0.691828
     18          1           0       -1.198644   -1.228860   -2.004309
     19          6           0       -0.660834    0.599907   -0.161866
     20          1           0       -0.299429    0.900820   -1.143272
     21          1           0       -0.040168    1.057685    0.603298
     22          6           0       -2.129020    1.140261    0.016276
     23          8           0       -3.013009    0.320566    0.327634
     24          8           0       -2.152501    2.360721   -0.125329
     25          7           0        3.822267    1.115532    0.347596
     26          1           0        4.654808    0.551366    0.227293
     27          1           0        4.072726    2.059281    0.083543
 ---------------------------------------------------------------------
 Rotational constants (GHZ):           1.5814007           0.6237118           0.5056925
 Standard basis: 6-311+G(2d,2p) (5D, 7F)
 There are   463 symmetry adapted cartesian basis functions of A   symmetry.
 There are   441 symmetry adapted basis functions of A   symmetry.
   441 basis functions,   638 primitive gaussians,   463 cartesian basis functions
    44 alpha electrons       44 beta electrons
       nuclear repulsion energy       681.5651131250 Hartrees.
 NAtoms=   27 NActive=   27 NUniq=   27 SFac= 1.00D+00 NAtFMM=   60 NAOKFM=F Big=F
 Integral buffers will be    131072 words long.
 Raffenetti 2 integral format.
 Two-electron integral symmetry is turned on.
 Nuclear repulsion after empirical dispersion term =      681.5436112964 Hartrees.
 One-electron integrals computed using PRISM.
 NBasis=   441 RedAO= T EigKep=  1.22D-05  NBF=   441
 NBsUse=   441 1.00D-06 EigRej= -1.00D+00 NBFU=   441
 Initial guess from the checkpoint file:  "aminopropyl_betaine_h.chk"
 B after Tr=     0.000000   -0.000000   -0.000000
         Rot=    0.999968   -0.007489   -0.002882   -0.000699 Ang=  -0.92 deg.
 ExpMin= 4.38D-02 ExpMax= 8.59D+03 ExpMxC= 1.30D+03 IAcc=2 IRadAn=         4 AccDes= 0.00D+00
 Harris functional with IExCor= 4639 and IRadAn=       4 diagonalized for initial guess.
 HarFok:  IExCor= 4639 AccDes= 0.00D+00 IRadAn=         4 IDoV= 1 UseB2=F ITyADJ=14
 ICtDFT=  3500011 ScaDFX=  1.000000  1.000000  1.000000  1.000000
 FoFCou: FMM=F IPFlag=           0 FMFlag=      100000 FMFlg1=           0
         NFxFlg=           0 DoJE=T BraDBF=F KetDBF=T FulRan=T
         wScrn=  0.000000 ICntrl=       500 IOpCl=  0 I1Cent=   200000004 NGrid=           0
         NMat0=    1 NMatS0=      1 NMatT0=    0 NMatD0=    1 NMtDS0=    0 NMtDT0=    0
 Petite list used in FoFCou.
 Requested convergence on RMS density matrix=1.00D-08 within  32 cycles.
 Requested convergence on MAX density matrix=1.00D-06.
 Requested convergence on             energy=1.00D-06.
 No special actions if energy rises.
 SCF Done:  E(RwB97XD) =  -536.303571586     A.U. after   13 cycles
            NFock= 13  Conv=0.35D-08     -V/T= 2.0040
 QCSCF skips out because SCF is already converged.
 Calling FoFJK, ICntrl=      2127 FMM=F ISym2X=0 I1Cent= 0 IOpClX= 0 NMat=1 NMatS=1 NMatT=0.
 ***** Axes restored to original set *****
 -------------------------------------------------------------------
 Center     Atomic                   Forces (Hartrees/Bohr)
 Number     Number              X              Y              Z
 -------------------------------------------------------------------
      1        6          -0.004518776   -0.004638759   -0.002209233
      2        1          -0.000209012   -0.000168345    0.000486095
      3        1           0.000230218    0.000562687    0.000431388
      4        6          -0.000129616   -0.000371165   -0.000488837
      5        1          -0.000613418   -0.000020730    0.000434569
      6        1           0.000228142    0.000864912   -0.000631020
      7        6          -0.000165140    0.001154602    0.000069361
      8        1          -0.000156489   -0.000224472    0.000056965
      9        1           0.000412890    0.000148066    0.000314830
     10        7          -0.000289881    0.000035447   -0.000613071
     11        6          -0.000455854    0.001489666   -0.001117822
     12        1          -0.000140284   -0.000531560    0.000014615
     13        1          -0.000605428    0.000219244    0.000177028
     14        1           0.000022470   -0.000130511    0.000194299
     15        6           0.000618615   -0.002915997   -0.001444336
     16        1           0.000832567   -0.000265033   -0.000170199
     17        1           0.000481416    0.000368034   -0.000189730
     18        1           0.000157281    0.000143412    0.000005940
     19        6          -0.000296146   -0.000172802   -0.002346627
     20        1           0.000210679   -0.000196958   -0.000023305
     21        1          -0.000015229    0.000590024   -0.000193848
     22        6           0.000573418    0.002317853    0.009483915
     23        8          -0.000095956    0.000306203   -0.001109780
     24        8           0.000076668   -0.001091922   -0.003352175
     25        7           0.007617373    0.004112434    0.001737789
     26        1          -0.002305267   -0.000300773    0.000388463
     27        1          -0.001465240   -0.001283556    0.000094723
 -------------------------------------------------------------------
 Cartesian Forces:  Max     0.009483915 RMS     0.001830987

 GradGradGradGradGradGradGradGradGradGradGradGradGradGradGradGradGradGrad
 Berny optimization.
 Using GEDIIS/GDIIS optimizer.
 FormGI is forming the generalized inverse of G from B-inverse, IUseBI=4.
 Internal  Forces:  Max     0.004965522 RMS     0.001087815
 Search for a local minimum.
 Step number   5 out of a maximum of  150
 All quantities printed in internal units (Hartrees-Bohrs-Radians)
 Mixed Optimization -- RFO/linear search
 Update second derivatives using D2CorX and points    1    2    5    4
 DE=  5.82D-04 DEPred=-3.50D-04 R=-1.66D+00
 Trust test=-1.66D+00 RLast= 3.65D-01 DXMaxT set to 1.26D-01
 ITU= -1  0 -1  1  0
 Use linear search instead of GDIIS.
     Eigenvalues ---    0.00228   0.00281   0.00321   0.00371   0.00433
     Eigenvalues ---    0.00454   0.00572   0.01235   0.03195   0.03236
     Eigenvalues ---    0.03738   0.03890   0.04468   0.04494   0.04703
     Eigenvalues ---    0.04772   0.04976   0.05222   0.05455   0.05558
     Eigenvalues ---    0.06009   0.06076   0.06152   0.06254   0.08390
     Eigenvalues ---    0.08790   0.09012   0.09425   0.09831   0.12515
     Eigenvalues ---    0.12639   0.12706   0.13594   0.14444   0.15388
     Eigenvalues ---    0.15850   0.16000   0.16000   0.16000   0.16004
     Eigenvalues ---    0.16005   0.16063   0.16787   0.20850   0.22328
     Eigenvalues ---    0.22681   0.24031   0.25173   0.25447   0.27867
     Eigenvalues ---    0.29550   0.29980   0.31547   0.31862   0.32995
     Eigenvalues ---    0.33404   0.34003   0.34755   0.34808   0.34894
     Eigenvalues ---    0.34950   0.34989   0.35018   0.35073   0.35097
     Eigenvalues ---    0.35138   0.35167   0.35244   0.35260   0.35344
     Eigenvalues ---    0.35465   0.47567   0.47689   0.85590   0.92172
 RFO step:  Lambda=-3.04831298D-04 EMin= 2.27676563D-03
 Quartic linear search produced a step of -0.73298.
 Iteration  1 RMS(Cart)=  0.04886860 RMS(Int)=  0.00155314
 Iteration  2 RMS(Cart)=  0.00207102 RMS(Int)=  0.00000641
 Iteration  3 RMS(Cart)=  0.00000448 RMS(Int)=  0.00000570
 Iteration  4 RMS(Cart)=  0.00000000 RMS(Int)=  0.00000570
 Variable       Old X    -DE/DX   Delta X   Delta X   Delta X     New X
                                 (Linear)    (Quad)   (Total)
    R1        2.05859  -0.00003  -0.00047   0.00059   0.00012   2.05871
    R2        2.07845  -0.00048  -0.00214   0.00059  -0.00155   2.07690
    R3        2.89702  -0.00204  -0.00582   0.00054  -0.00527   2.89175
    R4        2.73319   0.00497   0.01432  -0.00432   0.01000   2.74319
    R5        2.05692   0.00057   0.00033   0.00097   0.00130   2.05822
    R6        2.06493  -0.00055  -0.00148   0.00023  -0.00125   2.06368
    R7        2.89006  -0.00125   0.00041  -0.00357  -0.00316   2.88689
    R8        2.06033  -0.00012  -0.00016   0.00008  -0.00008   2.06025
    R9        2.05855  -0.00012  -0.00001  -0.00025  -0.00026   2.05829
   R10        2.84778  -0.00112  -0.00075  -0.00119  -0.00194   2.84584
   R11        2.82169  -0.00074   0.00019  -0.00083  -0.00065   2.82104
   R12        2.82475   0.00099   0.00049  -0.00067  -0.00018   2.82457
   R13        2.86221   0.00161   0.00103  -0.00158  -0.00055   2.86166
   R14        2.05421  -0.00001  -0.00029   0.00065   0.00035   2.05456
   R15        2.05609  -0.00028  -0.00018   0.00000  -0.00018   2.05591
   R16        2.05056   0.00009   0.00007   0.00040   0.00047   2.05103
   R17        2.05556   0.00036   0.00014   0.00004   0.00018   2.05573
   R18        2.05335  -0.00040  -0.00021   0.00014  -0.00007   2.05328
   R19        2.05457   0.00008   0.00003  -0.00005  -0.00002   2.05455
   R20        2.05652   0.00004   0.00005  -0.00025  -0.00020   2.05632
   R21        2.05300   0.00007  -0.00025   0.00060   0.00035   2.05334
   R22        2.97552   0.00054   0.00304  -0.00635  -0.00331   2.97221
   R23        2.35290  -0.00036  -0.00021  -0.00066  -0.00087   2.35203
   R24        2.32223  -0.00081  -0.00042  -0.00049  -0.00090   2.32133
   R25        1.91402  -0.00173  -0.00297  -0.00010  -0.00307   1.91095
   R26        1.91144  -0.00164  -0.00264  -0.00021  -0.00285   1.90859
    A1        1.85943   0.00042   0.00022   0.00012   0.00035   1.85978
    A2        1.92217  -0.00090  -0.00043  -0.00251  -0.00294   1.91923
    A3        1.88994  -0.00059  -0.00264   0.00085  -0.00177   1.88817
    A4        1.89579  -0.00027   0.00169   0.00001   0.00169   1.89748
    A5        1.99101  -0.00102  -0.00660   0.00023  -0.00636   1.98465
    A6        1.90480   0.00226   0.00757   0.00112   0.00869   1.91348
    A7        1.89138   0.00079   0.00479  -0.00233   0.00245   1.89383
    A8        1.89101  -0.00002   0.00034  -0.00080  -0.00045   1.89056
    A9        2.01017  -0.00167  -0.00934   0.00070  -0.00865   2.00152
   A10        1.83428  -0.00004   0.00338   0.00095   0.00434   1.83861
   A11        1.95800   0.00012  -0.00130  -0.00107  -0.00239   1.95562
   A12        1.86964   0.00094   0.00321   0.00269   0.00590   1.87554
   A13        1.92095   0.00063   0.00070   0.00159   0.00228   1.92323
   A14        1.93769  -0.00014  -0.00157  -0.00078  -0.00234   1.93535
   A15        2.03825  -0.00128   0.00059  -0.00551  -0.00492   2.03332
   A16        1.87504  -0.00015  -0.00031   0.00148   0.00117   1.87622
   A17        1.84729   0.00005   0.00055  -0.00086  -0.00031   1.84698
   A18        1.83551   0.00096   0.00003   0.00463   0.00465   1.84016
   A19        1.93093   0.00138  -0.00032   0.00053   0.00021   1.93113
   A20        1.88080  -0.00158  -0.00344   0.00405   0.00061   1.88141
   A21        1.93752  -0.00078  -0.00033  -0.00092  -0.00126   1.93627
   A22        1.89317  -0.00014   0.00037   0.00047   0.00085   1.89401
   A23        1.91762  -0.00131   0.00057  -0.00287  -0.00230   1.91532
   A24        1.90269   0.00247   0.00316  -0.00112   0.00204   1.90474
   A25        1.86317   0.00019   0.00044  -0.00043   0.00001   1.86318
   A26        1.89492   0.00034  -0.00033   0.00114   0.00081   1.89573
   A27        1.90493   0.00030   0.00092  -0.00140  -0.00048   1.90446
   A28        1.95529  -0.00058  -0.00123   0.00102  -0.00022   1.95507
   A29        1.92154  -0.00005   0.00057  -0.00066  -0.00008   1.92146
   A30        1.92235  -0.00016  -0.00031   0.00027  -0.00004   1.92231
   A31        1.89642  -0.00052  -0.00045   0.00034  -0.00011   1.89631
   A32        1.87381  -0.00010  -0.00072  -0.00017  -0.00089   1.87292
   A33        1.89155  -0.00030  -0.00062   0.00035  -0.00027   1.89128
   A34        1.95320   0.00066   0.00155  -0.00062   0.00092   1.95412
   A35        1.92151   0.00014  -0.00021   0.00044   0.00023   1.92174
   A36        1.92551   0.00008   0.00035  -0.00030   0.00005   1.92556
   A37        1.86194  -0.00206  -0.00230   0.00374   0.00145   1.86340
   A38        1.86614   0.00026   0.00086   0.00146   0.00231   1.86845
   A39        2.04909   0.00361   0.00535  -0.00963  -0.00427   2.04482
   A40        1.90595   0.00028  -0.00130   0.00098  -0.00031   1.90564
   A41        1.89314   0.00083   0.00129   0.00286   0.00416   1.89730
   A42        1.88432  -0.00301  -0.00425   0.00106  -0.00318   1.88114
   A43        2.05372   0.00096   0.00289  -0.00813  -0.00526   2.04846
   A44        1.92368  -0.00102  -0.00032  -0.00131  -0.00165   1.92203
   A45        2.30377   0.00027  -0.00112   0.00995   0.00880   2.31257
   A46        1.95516  -0.00125  -0.00356  -0.00135  -0.00490   1.95025
   A47        1.95052  -0.00096  -0.00658   0.00253  -0.00405   1.94646
   A48        1.85997   0.00142   0.01033  -0.00121   0.00911   1.86908
    D1       -1.08090   0.00017  -0.01448   0.01538   0.00090  -1.08000
    D2       -3.06237  -0.00017  -0.02106   0.01585  -0.00520  -3.06757
    D3        1.12803  -0.00027  -0.01935   0.01254  -0.00681   1.12122
    D4       -3.11112   0.00033  -0.01547   0.01663   0.00115  -3.10997
    D5        1.19059  -0.00002  -0.02206   0.01711  -0.00495   1.18564
    D6       -0.90220  -0.00012  -0.02035   0.01379  -0.00656  -0.90875
    D7        0.99161   0.00029  -0.01334   0.01560   0.00225   0.99386
    D8       -0.98987  -0.00005  -0.01992   0.01608  -0.00384  -0.99371
    D9       -3.08266  -0.00015  -0.01822   0.01276  -0.00545  -3.08811
   D10       -2.81767  -0.00022   0.04868  -0.05497  -0.00628  -2.82395
   D11       -0.73178   0.00008   0.05491  -0.05570  -0.00079  -0.73257
   D12       -0.75077  -0.00072   0.04315  -0.05409  -0.01095  -0.76172
   D13        1.33512  -0.00042   0.04937  -0.05482  -0.00546   1.32966
   D14        1.37302  -0.00010   0.04637  -0.05309  -0.00672   1.36629
   D15       -2.82428   0.00020   0.05259  -0.05382  -0.00123  -2.82551
   D16        0.39472  -0.00002  -0.01305   0.04247   0.02941   0.42414
   D17        2.46847   0.00011  -0.01397   0.04484   0.03086   2.49932
   D18       -1.71113   0.00033  -0.01477   0.04633   0.03156  -1.67957
   D19        2.56923  -0.00019  -0.01517   0.03892   0.02375   2.59298
   D20       -1.64022  -0.00007  -0.01609   0.04129   0.02519  -1.61502
   D21        0.46338   0.00015  -0.01689   0.04278   0.02590   0.48927
   D22       -1.70978   0.00038  -0.00989   0.04109   0.03121  -1.67858
   D23        0.36396   0.00051  -0.01081   0.04346   0.03265   0.39661
   D24        2.46755   0.00073  -0.01160   0.04495   0.03335   2.50090
   D25       -1.16363   0.00041  -0.01208   0.03745   0.02537  -1.13826
   D26        3.05254   0.00073  -0.01028   0.03414   0.02386   3.07641
   D27        0.97016  -0.00085  -0.01180   0.03353   0.02173   0.99189
   D28        2.97514   0.00039  -0.01381   0.03971   0.02590   3.00105
   D29        0.90813   0.00072  -0.01201   0.03641   0.02440   0.93253
   D30       -1.17425  -0.00087  -0.01353   0.03579   0.02226  -1.15199
   D31        0.99331   0.00013  -0.01370   0.03643   0.02272   1.01603
   D32       -1.07370   0.00046  -0.01191   0.03313   0.02122  -1.05249
   D33        3.12710  -0.00112  -0.01343   0.03251   0.01908  -3.13700
   D34       -3.11637   0.00026   0.00549  -0.01674  -0.01125  -3.12762
   D35       -1.00532  -0.00013   0.00409  -0.01515  -0.01106  -1.01637
   D36        1.09043   0.00005   0.00407  -0.01497  -0.01091   1.07953
   D37       -1.05690  -0.00094   0.00135  -0.01123  -0.00988  -1.06678
   D38        1.05415  -0.00133  -0.00005  -0.00964  -0.00968   1.04447
   D39       -3.13329  -0.00114  -0.00008  -0.00946  -0.00953   3.14037
   D40        1.02142   0.00121   0.00574  -0.01398  -0.00824   1.01318
   D41        3.13247   0.00082   0.00434  -0.01238  -0.00804   3.12443
   D42       -1.05497   0.00101   0.00431  -0.01221  -0.00789  -1.06286
   D43        1.01355   0.00008  -0.00070  -0.00335  -0.00405   1.00950
   D44        3.12911   0.00051   0.00048  -0.00401  -0.00353   3.12557
   D45       -1.07426   0.00039   0.00016  -0.00427  -0.00411  -1.07837
   D46       -1.07753  -0.00060   0.00142  -0.00655  -0.00512  -1.08265
   D47        1.03802  -0.00017   0.00261  -0.00721  -0.00460   1.03342
   D48        3.11784  -0.00029   0.00229  -0.00747  -0.00518   3.11266
   D49        3.11796  -0.00037  -0.00132  -0.00271  -0.00403   3.11393
   D50       -1.04967   0.00006  -0.00014  -0.00337  -0.00351  -1.05318
   D51        1.03015  -0.00006  -0.00045  -0.00364  -0.00409   1.02607
   D52        0.85988   0.00016   0.06735   0.01581   0.08317   0.94305
   D53       -1.17776   0.00072   0.06955   0.01213   0.08168  -1.09609
   D54        2.98677   0.00205   0.07083   0.01605   0.08689   3.07366
   D55        3.00139   0.00048   0.06711   0.01389   0.08100   3.08239
   D56        0.96374   0.00104   0.06931   0.01020   0.07951   1.04326
   D57       -1.15491   0.00237   0.07059   0.01413   0.08473  -1.07018
   D58       -1.20933   0.00103   0.06981   0.01209   0.08190  -1.12743
   D59        3.03621   0.00159   0.07201   0.00840   0.08041   3.11662
   D60        0.91756   0.00291   0.07329   0.01233   0.08562   1.00318
   D61        0.09204  -0.00075   0.00548  -0.00193   0.00355   0.09560
   D62       -3.10966   0.00244   0.04258   0.00610   0.04869  -3.06097
   D63        2.20274  -0.00028   0.00724  -0.00141   0.00582   2.20856
   D64       -0.99896   0.00290   0.04434   0.00662   0.05096  -0.94801
   D65       -2.01714  -0.00116   0.00406   0.00191   0.00596  -2.01119
   D66        1.06434   0.00202   0.04116   0.00994   0.05109   1.11543
         Item               Value     Threshold  Converged?
 Maximum Force            0.004966     0.000450     NO 
 RMS     Force            0.001088     0.000300     NO 
 Maximum Displacement     0.305439     0.001800     NO 
 RMS     Displacement     0.049190     0.001200     NO 
 Predicted change in Energy=-2.633834D-04
 GradGradGradGradGradGradGradGradGradGradGradGradGradGradGradGradGradGrad

                          Input orientation:                          
 ---------------------------------------------------------------------
 Center     Atomic      Atomic             Coordinates (Angstroms)
 Number     Number       Type             X           Y           Z
 ---------------------------------------------------------------------
      1          6           0        1.261697    0.526867   -0.332138
      2          1           0        0.539534    1.339120   -0.406770
      3          1           0        1.557876    0.275642   -1.360279
      4          6           0        0.604104   -0.700160    0.303183
      5          1           0        0.282971   -0.437788    1.310312
      6          1           0        1.367880   -1.469540    0.434633
      7          6           0       -0.528306   -1.314024   -0.518170
      8          1           0       -0.406777   -1.064183   -1.572414
      9          1           0       -0.522854   -2.400124   -0.436235
     10          7           0       -1.927393   -0.891721   -0.154694
     11          6           0       -2.278845   -1.360763    1.218268
     12          1           0       -3.298953   -1.036439    1.408680
     13          1           0       -2.182516   -2.443950    1.250522
     14          1           0       -1.602666   -0.903973    1.933902
     15          6           0       -2.864706   -1.529558   -1.128723
     16          1           0       -2.731066   -2.608271   -1.084797
     17          1           0       -3.872081   -1.233176   -0.849532
     18          1           0       -2.625542   -1.163529   -2.124150
     19          6           0       -2.076558    0.613102   -0.234905
     20          1           0       -1.751795    0.908067   -1.230701
     21          1           0       -1.401561    1.039962    0.501866
     22          6           0       -3.509379    1.207414    0.025088
     23          8           0       -4.401192    0.415683    0.381416
     24          8           0       -3.503600    2.421522   -0.161610
     25          7           0        2.363569    0.975365    0.499707
     26          1           0        3.186474    0.401519    0.372739
     27          1           0        2.628199    1.925759    0.283406
 ---------------------------------------------------------------------
                    Distance matrix (angstroms):
                    1          2          3          4          5
     1  C    0.000000
     2  H    1.089424   0.000000
     3  H    1.099049   1.754191   0.000000
     4  C    1.530248   2.160293   2.151506   0.000000
     5  H    2.141520   2.484270   3.044080   1.089162   0.000000
     6  H    2.141227   3.046750   2.510671   1.092052   1.734461
     7  C    2.574412   2.862143   2.754694   1.527678   2.183874
     8  H    2.617925   2.833743   2.387466   2.161541   3.029560
     9  H    3.429684   3.887349   3.513263   2.169481   2.747825
    10  N    3.494879   3.335554   3.868239   2.579695   2.690355
    11  C    4.301435   4.227691   4.903789   3.095992   2.724565
    12  H    5.125808   4.865503   5.742602   4.070511   3.632938
    13  H    4.815929   4.946493   5.310649   3.421038   3.179133
    14  H    3.922603   3.885772   4.715097   2.751475   2.040054
    15  C    4.678742   4.509920   4.782426   3.843292   4.129010
    16  H    5.132031   5.170922   5.175700   4.085429   4.419498
    17  H    5.451709   5.125923   5.658783   4.652858   4.749950
    18  H    4.602105   4.385243   4.489510   4.066604   4.558693
    19  C    3.340784   2.720400   3.819614   3.033173   3.009890
    20  H    3.167627   2.472823   3.372043   3.238743   3.522548
    21  H    2.837565   2.164016   3.579111   2.662741   2.382221
    22  C    4.832590   4.074009   5.335215   4.542788   4.329020
    23  O    5.708751   5.087705   6.209960   5.128763   4.851046
    24  O    5.130970   4.192688   5.626735   5.180170   4.967930
    25  N    1.451633   2.069087   2.144365   2.437566   2.642531
    26  H    2.053614   2.914279   2.381497   2.808411   3.164460
    27  H    2.050152   2.276622   2.563236   3.315540   3.484392
                    6          7          8          9         10
     6  H    0.000000
     7  C    2.127801   0.000000
     8  H    2.709605   1.090239   0.000000
     9  H    2.280191   1.089200   1.757588   0.000000
    10  N    3.397059   1.505955   2.086132   2.080211   0.000000
    11  C    3.731557   2.466128   3.373500   2.627005   1.492830
    12  H    4.787032   3.386191   4.153598   3.601399   2.084768
    13  H    3.771003   2.672343   3.609152   2.366760   2.109297
    14  H    3.375176   2.708329   3.708109   3.003667   2.113725
    15  C    4.512479   2.424458   2.540640   2.592624   1.494698
    16  H    4.517381   2.616924   2.832719   2.310878   2.111284
    17  H    5.400198   3.361126   3.543932   3.570701   2.093132
    18  H    4.752729   2.645793   2.288493   2.966399   2.107142
    19  C    4.080420   2.488199   2.718526   3.396183   1.514323
    20  H    4.261305   2.634827   2.411558   3.617402   2.104249
    21  H    3.737904   2.710037   3.117637   3.672377   2.106887
    22  C    5.578662   3.942027   4.163930   4.706005   2.634648
    23  O    6.069521   4.335942   4.686450   4.861978   2.848930
    24  O    6.263161   4.788926   4.871430   5.675257   3.669067
    25  N    2.640681   3.826267   4.016001   4.538871   4.725104
    26  H    2.609977   4.187648   4.340894   4.718343   5.301160
    27  H    3.624822   4.593718   4.647032   5.400026   5.374342
                   11         12         13         14         15
    11  C    0.000000
    12  H    1.087228   0.000000
    13  H    1.087940   1.803477   0.000000
    14  H    1.085361   1.780673   1.781787   0.000000
    15  C    2.424890   2.621097   2.638618   3.371020   0.000000
    16  H    2.657985   3.001762   2.404500   3.645608   1.087847
    17  H    2.613518   2.338098   2.954798   3.606401   1.086551
    18  H    3.366133   3.598683   3.636503   4.193021   1.087221
    19  C    2.459425   2.629944   3.400483   2.688831   2.451750
    20  H    3.379766   3.625070   4.192613   3.649718   2.681601
    21  H    2.654494   2.955309   3.648016   2.422819   3.376691
    22  C    3.087624   2.644519   4.073660   3.425942   3.039391
    23  O    2.891442   2.092572   3.722280   3.461712   2.902632
    24  O    4.208297   3.803312   5.235665   4.366192   4.117587
    25  N    5.246506   6.077643   5.737798   4.617342   6.021734
    26  H    5.804331   6.723218   6.139483   5.203595   6.526885
    27  H    5.979488   6.721011   6.570590   5.350863   6.641184
                   16         17         18         19         20
    16  H    0.000000
    17  H    1.802262   0.000000
    18  H    1.782882   1.784197   0.000000
    19  C    3.395281   2.647718   2.650858   0.000000
    20  H    3.653066   3.037405   2.419338   1.088157   0.000000
    21  H    4.194602   3.618964   3.639981   1.086583   1.772526
    22  C    4.049329   2.617822   3.319904   1.572826   2.180761
    23  O    3.752785   2.124601   3.453217   2.413038   3.140171
    24  O    5.171837   3.737089   4.180328   2.304823   2.549966
    25  N    6.427161   6.751402   6.029156   4.515043   4.464869
    26  H    6.797097   7.347746   6.516392   5.302216   5.216714
    27  H    7.152002   7.315467   6.553001   4.911868   4.744740
                   21         22         23         24         25
    21  H    0.000000
    22  C    2.167546   0.000000
    23  O    3.066271   1.244643   0.000000
    24  O    2.601437   1.228393   2.263612   0.000000
    25  N    3.765685   5.896663   6.788905   6.078847   0.000000
    26  H    4.634042   6.753131   7.587684   7.008782   1.011233
    27  H    4.131746   6.184870   7.190429   6.167883   1.009982
                   26         27
    26  H    0.000000
    27  H    1.625718   0.000000
 Stoichiometry    C7H16N2O2
 Framework group  C1[X(C7H16N2O2)]
 Deg. of freedom    75
 Full point group                 C1      NOp   1
 Largest Abelian subgroup         C1      NOp   1
 Largest concise Abelian subgroup C1      NOp   1
                         Standard orientation:                         
 ---------------------------------------------------------------------
 Center     Atomic      Atomic             Coordinates (Angstroms)
 Number     Number       Type             X           Y           Z
 ---------------------------------------------------------------------
      1          6           0        2.680019    0.611638   -0.413975
      2          1           0        1.928329    1.394386   -0.509442
      3          1           0        2.959226    0.319202   -1.435950
      4          6           0        2.081573   -0.603349    0.298295
      5          1           0        1.776526   -0.301679    1.299402
      6          1           0        2.874749   -1.339050    0.447273
      7          6           0        0.951274   -1.295396   -0.461505
      8          1           0        1.037863   -1.094864   -1.529639
      9          1           0        0.996643   -2.375214   -0.326261
     10          7           0       -0.452263   -0.902641   -0.082392
     11          6           0       -0.753022   -1.313698    1.320861
     12          1           0       -1.778795   -1.014694    1.521981
     13          1           0       -0.618192   -2.390048    1.403952
     14          1           0       -0.075674   -0.799080    1.994935
     15          6           0       -1.390589   -1.619726   -0.998610
     16          1           0       -1.218349   -2.689770   -0.905073
     17          1           0       -2.400467   -1.343727   -0.707809
     18          1           0       -1.189071   -1.296311   -2.016865
     19          6           0       -0.655779    0.590391   -0.232767
     20          1           0       -0.366270    0.845732   -1.250152
     21          1           0        0.021955    1.076155    0.463918
     22          6           0       -2.101584    1.148512    0.035433
     23          8           0       -2.956132    0.346144    0.453872
     24          8           0       -2.142794    2.351221   -0.211023
     25          7           0        3.785837    1.138123    0.365267
     26          1           0        4.624865    0.586610    0.245022
     27          1           0        4.011709    2.084814    0.095411
 ---------------------------------------------------------------------
 Rotational constants (GHZ):           1.5632016           0.6336449           0.5126640
 Standard basis: 6-311+G(2d,2p) (5D, 7F)
 There are   463 symmetry adapted cartesian basis functions of A   symmetry.
 There are   441 symmetry adapted basis functions of A   symmetry.
   441 basis functions,   638 primitive gaussians,   463 cartesian basis functions
    44 alpha electrons       44 beta electrons
       nuclear repulsion energy       682.9868208457 Hartrees.
 NAtoms=   27 NActive=   27 NUniq=   27 SFac= 1.00D+00 NAtFMM=   60 NAOKFM=F Big=F
 Integral buffers will be    131072 words long.
 Raffenetti 2 integral format.
 Two-electron integral symmetry is turned on.
 Nuclear repulsion after empirical dispersion term =      682.9653109580 Hartrees.
 One-electron integrals computed using PRISM.
 NBasis=   441 RedAO= T EigKep=  1.20D-05  NBF=   441
 NBsUse=   441 1.00D-06 EigRej= -1.00D+00 NBFU=   441
 Lowest energy guess from the checkpoint file:  "aminopropyl_betaine_h.chk"
 B after Tr=    -0.000000   -0.000000   -0.000000
         Rot=    0.999995   -0.000482   -0.003026   -0.000614 Ang=  -0.36 deg.
 B after Tr=    -0.000000   -0.000000   -0.000000
         Rot=    0.999975    0.007109   -0.000099    0.000041 Ang=   0.81 deg.
 Requested convergence on RMS density matrix=1.00D-08 within  32 cycles.
 Requested convergence on MAX density matrix=1.00D-06.
 Requested convergence on             energy=1.00D-06.
 No special actions if energy rises.
 SCF Done:  E(RwB97XD) =  -536.304218423     A.U. after   12 cycles
            NFock= 12  Conv=0.70D-08     -V/T= 2.0039
 QCSCF skips out because SCF is already converged.
 Calling FoFJK, ICntrl=      2127 FMM=F ISym2X=0 I1Cent= 0 IOpClX= 0 NMat=1 NMatS=1 NMatT=0.
 ***** Axes restored to original set *****
 -------------------------------------------------------------------
 Center     Atomic                   Forces (Hartrees/Bohr)
 Number     Number              X              Y              Z
 -------------------------------------------------------------------
      1        6          -0.001301388   -0.001692232   -0.001237637
      2        1           0.000792258   -0.000122178    0.000057080
      3        1           0.000029278    0.000296935    0.000013104
      4        6           0.000326042    0.000823133   -0.000427767
      5        1           0.000070129   -0.000331256   -0.000048201
      6        1          -0.000052953    0.000160866   -0.000442833
      7        6          -0.000158083    0.000574380    0.000024126
      8        1           0.000129836   -0.000257617   -0.000100934
      9        1          -0.000045450    0.000021022    0.000415902
     10        7          -0.000060689   -0.000064573    0.000303478
     11        6           0.000155371   -0.000624865    0.000819741
     12        1           0.000183501   -0.000253935   -0.000181378
     13        1           0.000216298   -0.000037310   -0.000068398
     14        1          -0.000408270   -0.000232005    0.000007281
     15        6           0.000232629   -0.000065922   -0.000229336
     16        1          -0.000023402    0.000031000    0.000001241
     17        1           0.000199289   -0.000103615    0.000043311
     18        1           0.000148283   -0.000034958   -0.000085028
     19        6          -0.000087717   -0.000306595    0.000006956
     20        1           0.000252176   -0.000088174    0.000057301
     21        1          -0.000495709   -0.000195920    0.000050898
     22        6           0.001141981    0.000579973    0.000336748
     23        8          -0.001539087    0.001177849   -0.000393089
     24        8          -0.000956380   -0.000188626    0.000018947
     25        7           0.002574679    0.001742721    0.000998413
     26        1          -0.000815627   -0.000354679    0.000237884
     27        1          -0.000506997   -0.000453417   -0.000177813
 -------------------------------------------------------------------
 Cartesian Forces:  Max     0.002574679 RMS     0.000604779

 GradGradGradGradGradGradGradGradGradGradGradGradGradGradGradGradGradGrad
 Berny optimization.
 Using GEDIIS/GDIIS optimizer.
 FormGI is forming the generalized inverse of G from B-inverse, IUseBI=4.
 Internal  Forces:  Max     0.003685549 RMS     0.000715899
 Search for a local minimum.
 Step number   6 out of a maximum of  150
 All quantities printed in internal units (Hartrees-Bohrs-Radians)
 Mixed Optimization -- En-DIIS/RFO-DIIS
 Update second derivatives using D2CorX and points    1    2    5    4    6
 DE= -6.52D-05 DEPred=-2.63D-04 R= 2.48D-01
 Trust test= 2.48D-01 RLast= 2.75D-01 DXMaxT set to 1.26D-01
 ITU=  0 -1  0 -1  1  0
 Use linear search instead of GDIIS.
     Eigenvalues ---    0.00183   0.00259   0.00346   0.00399   0.00433
     Eigenvalues ---    0.00447   0.00539   0.01479   0.03229   0.03415
     Eigenvalues ---    0.03797   0.03921   0.04442   0.04683   0.04791
     Eigenvalues ---    0.04960   0.05078   0.05234   0.05490   0.05545
     Eigenvalues ---    0.06006   0.06075   0.06166   0.06238   0.08608
     Eigenvalues ---    0.08703   0.09017   0.09527   0.09798   0.12583
     Eigenvalues ---    0.12612   0.12740   0.13652   0.14520   0.15719
     Eigenvalues ---    0.15836   0.16000   0.16000   0.16004   0.16004
     Eigenvalues ---    0.16041   0.16099   0.16797   0.21007   0.22569
     Eigenvalues ---    0.23483   0.24203   0.25108   0.25446   0.29511
     Eigenvalues ---    0.29891   0.30598   0.31826   0.32884   0.33307
     Eigenvalues ---    0.34258   0.34736   0.34804   0.34809   0.34949
     Eigenvalues ---    0.35000   0.35017   0.35073   0.35094   0.35110
     Eigenvalues ---    0.35140   0.35202   0.35254   0.35322   0.36139
     Eigenvalues ---    0.42997   0.47681   0.47872   0.85634   0.92166
 RFO step:  Lambda=-1.51341023D-04 EMin= 1.82543592D-03
 Quartic linear search produced a step of -0.41557.
 Iteration  1 RMS(Cart)=  0.02821450 RMS(Int)=  0.00029771
 Iteration  2 RMS(Cart)=  0.00040322 RMS(Int)=  0.00000249
 Iteration  3 RMS(Cart)=  0.00000014 RMS(Int)=  0.00000249
 Variable       Old X    -DE/DX   Delta X   Delta X   Delta X     New X
                                 (Linear)    (Quad)   (Total)
    R1        2.05871  -0.00062  -0.00032  -0.00026  -0.00057   2.05814
    R2        2.07690  -0.00007  -0.00057   0.00116   0.00060   2.07750
    R3        2.89175  -0.00008  -0.00111   0.00101  -0.00009   2.89166
    R4        2.74319   0.00184   0.00396  -0.00398  -0.00002   2.74317
    R5        2.05822  -0.00015  -0.00035   0.00033  -0.00003   2.05819
    R6        2.06368  -0.00020  -0.00032   0.00036   0.00004   2.06372
    R7        2.88689   0.00030   0.00155  -0.00203  -0.00048   2.88641
    R8        2.06025   0.00005  -0.00006   0.00013   0.00007   2.06032
    R9        2.05829   0.00001   0.00010  -0.00013  -0.00003   2.05826
   R10        2.84584   0.00102   0.00038   0.00055   0.00093   2.84677
   R11        2.82104   0.00086   0.00037   0.00026   0.00063   2.82167
   R12        2.82457  -0.00010   0.00035  -0.00038  -0.00002   2.82455
   R13        2.86166   0.00113   0.00081   0.00054   0.00136   2.86302
   R14        2.05456  -0.00028  -0.00031   0.00017  -0.00015   2.05442
   R15        2.05591   0.00006  -0.00003   0.00005   0.00002   2.05593
   R16        2.05103  -0.00035  -0.00016  -0.00016  -0.00032   2.05071
   R17        2.05573  -0.00003   0.00000   0.00004   0.00004   2.05577
   R18        2.05328  -0.00020  -0.00009  -0.00018  -0.00026   2.05302
   R19        2.05455   0.00010   0.00002   0.00009   0.00011   2.05466
   R20        2.05632  -0.00000   0.00011  -0.00021  -0.00009   2.05622
   R21        2.05334  -0.00035  -0.00029   0.00010  -0.00018   2.05316
   R22        2.97221   0.00182   0.00310  -0.00179   0.00131   2.97352
   R23        2.35203   0.00024   0.00024  -0.00028  -0.00004   2.35200
   R24        2.32133  -0.00019   0.00014  -0.00038  -0.00024   2.32109
   R25        1.91095  -0.00049  -0.00041   0.00063   0.00022   1.91117
   R26        1.90859  -0.00052  -0.00031   0.00041   0.00009   1.90868
    A1        1.85978  -0.00005  -0.00002  -0.00057  -0.00059   1.85919
    A2        1.91923   0.00046   0.00098  -0.00051   0.00047   1.91969
    A3        1.88817  -0.00048  -0.00076  -0.00028  -0.00104   1.88712
    A4        1.89748  -0.00010   0.00025  -0.00090  -0.00064   1.89684
    A5        1.98465  -0.00011  -0.00110   0.00423   0.00314   1.98778
    A6        1.91348   0.00029   0.00068  -0.00200  -0.00133   1.91216
    A7        1.89383   0.00030   0.00170   0.00069   0.00238   1.89621
    A8        1.89056  -0.00072   0.00038  -0.00465  -0.00427   1.88629
    A9        2.00152   0.00072  -0.00170   0.00418   0.00247   2.00399
   A10        1.83861   0.00016   0.00011  -0.00037  -0.00025   1.83836
   A11        1.95562  -0.00028   0.00025   0.00166   0.00190   1.95752
   A12        1.87554  -0.00027  -0.00063  -0.00219  -0.00282   1.87273
   A13        1.92323  -0.00132  -0.00055  -0.00098  -0.00154   1.92169
   A14        1.93535  -0.00076   0.00008  -0.00176  -0.00167   1.93367
   A15        2.03332   0.00369   0.00238   0.00330   0.00569   2.03901
   A16        1.87622   0.00056  -0.00066   0.00008  -0.00058   1.87564
   A17        1.84698  -0.00069   0.00044  -0.00002   0.00042   1.84740
   A18        1.84016  -0.00163  -0.00192  -0.00073  -0.00264   1.83752
   A19        1.93113   0.00009  -0.00027   0.00125   0.00098   1.93212
   A20        1.88141  -0.00072  -0.00221  -0.00235  -0.00456   1.87685
   A21        1.93627   0.00022   0.00034   0.00017   0.00050   1.93677
   A22        1.89401   0.00002  -0.00014  -0.00022  -0.00036   1.89365
   A23        1.91532   0.00025   0.00128   0.00050   0.00177   1.91709
   A24        1.90474   0.00012   0.00094   0.00060   0.00154   1.90628
   A25        1.86318  -0.00010   0.00025  -0.00066  -0.00041   1.86277
   A26        1.89573  -0.00028  -0.00053   0.00006  -0.00046   1.89527
   A27        1.90446   0.00053   0.00072   0.00067   0.00139   1.90585
   A28        1.95507   0.00008  -0.00061   0.00019  -0.00042   1.95465
   A29        1.92146  -0.00008   0.00036  -0.00025   0.00010   1.92156
   A30        1.92231  -0.00012  -0.00016   0.00000  -0.00016   1.92215
   A31        1.89631   0.00002  -0.00021   0.00001  -0.00020   1.89612
   A32        1.87292  -0.00006  -0.00004   0.00007   0.00003   1.87296
   A33        1.89128  -0.00006  -0.00024  -0.00003  -0.00027   1.89101
   A34        1.95412  -0.00001   0.00049  -0.00029   0.00020   1.95432
   A35        1.92174  -0.00001  -0.00022   0.00008  -0.00014   1.92160
   A36        1.92556   0.00012   0.00018   0.00017   0.00035   1.92591
   A37        1.86340  -0.00103  -0.00191   0.00090  -0.00101   1.86238
   A38        1.86845  -0.00111  -0.00047  -0.00122  -0.00168   1.86676
   A39        2.04482   0.00367   0.00481   0.00085   0.00566   2.05048
   A40        1.90564   0.00049  -0.00060  -0.00025  -0.00085   1.90478
   A41        1.89730  -0.00118  -0.00100   0.00047  -0.00053   1.89677
   A42        1.88114  -0.00092  -0.00108  -0.00082  -0.00190   1.87924
   A43        2.04846   0.00224   0.00383  -0.00199   0.00184   2.05030
   A44        1.92203  -0.00004   0.00050  -0.00107  -0.00057   1.92146
   A45        2.31257  -0.00219  -0.00430   0.00299  -0.00131   2.31126
   A46        1.95025  -0.00051   0.00002  -0.00024  -0.00022   1.95004
   A47        1.94646  -0.00056  -0.00205   0.00254   0.00050   1.94696
   A48        1.86908   0.00063   0.00207  -0.00174   0.00032   1.86941
    D1       -1.08000  -0.00008  -0.00858   0.01041   0.00183  -1.07817
    D2       -3.06757  -0.00006  -0.00978   0.01288   0.00310  -3.06447
    D3        1.12122   0.00034  -0.00814   0.01632   0.00818   1.12940
    D4       -3.10997  -0.00021  -0.00925   0.01190   0.00264  -3.10733
    D5        1.18564  -0.00019  -0.01045   0.01436   0.00392   1.18956
    D6       -0.90875   0.00021  -0.00881   0.01780   0.00899  -0.89976
    D7        0.99386  -0.00021  -0.00850   0.00853   0.00003   0.99388
    D8       -0.99371  -0.00019  -0.00970   0.01100   0.00130  -0.99241
    D9       -3.08811   0.00021  -0.00806   0.01444   0.00638  -3.08173
   D10       -2.82395   0.00008   0.03021  -0.05839  -0.02818  -2.85213
   D11       -0.73257   0.00016   0.03146  -0.05904  -0.02758  -0.76015
   D12       -0.76172  -0.00037   0.02901  -0.05673  -0.02771  -0.78944
   D13        1.32966  -0.00029   0.03026  -0.05737  -0.02711   1.30255
   D14        1.36629  -0.00035   0.02908  -0.05643  -0.02735   1.33894
   D15       -2.82551  -0.00027   0.03033  -0.05708  -0.02675  -2.85226
   D16        0.42414  -0.00026  -0.01962   0.00951  -0.01012   0.41402
   D17        2.49932  -0.00088  -0.02075   0.00788  -0.01287   2.48645
   D18       -1.67957  -0.00095  -0.02149   0.00793  -0.01356  -1.69313
   D19        2.59298   0.00050  -0.01847   0.01519  -0.00328   2.58969
   D20       -1.61502  -0.00012  -0.01959   0.01356  -0.00603  -1.62106
   D21        0.48927  -0.00019  -0.02034   0.01361  -0.00673   0.48255
   D22       -1.67858   0.00039  -0.01857   0.01434  -0.00424  -1.68282
   D23        0.39661  -0.00024  -0.01970   0.01270  -0.00699   0.38962
   D24        2.50090  -0.00031  -0.02044   0.01276  -0.00768   2.49322
   D25       -1.13826  -0.00063  -0.01739  -0.01652  -0.03391  -1.17217
   D26        3.07641  -0.00027  -0.01575  -0.01555  -0.03129   3.04512
   D27        0.99189  -0.00010  -0.01572  -0.01492  -0.03064   0.96125
   D28        3.00105  -0.00081  -0.01859  -0.01741  -0.03601   2.96504
   D29        0.93253  -0.00045  -0.01695  -0.01644  -0.03339   0.89914
   D30       -1.15199  -0.00028  -0.01692  -0.01581  -0.03273  -1.18472
   D31        1.01603  -0.00045  -0.01721  -0.01719  -0.03440   0.98163
   D32       -1.05249  -0.00009  -0.01557  -0.01621  -0.03178  -1.08427
   D33       -3.13700   0.00008  -0.01554  -0.01558  -0.03113   3.11505
   D34       -3.12762   0.00063   0.00779   0.00099   0.00878  -3.11884
   D35       -1.01637   0.00051   0.00692   0.00088   0.00779  -1.00858
   D36        1.07953   0.00050   0.00684   0.00131   0.00815   1.08767
   D37       -1.06678  -0.00018   0.00487  -0.00128   0.00359  -1.06318
   D38        1.04447  -0.00030   0.00400  -0.00139   0.00260   1.04707
   D39        3.14037  -0.00031   0.00392  -0.00096   0.00296  -3.13986
   D40        1.01318   0.00012   0.00668  -0.00039   0.00628   1.01947
   D41        3.12443  -0.00000   0.00580  -0.00051   0.00529   3.12972
   D42       -1.06286  -0.00001   0.00572  -0.00008   0.00565  -1.05721
   D43        1.00950  -0.00006   0.00129  -0.00237  -0.00108   1.00842
   D44        3.12557  -0.00009   0.00174  -0.00267  -0.00093   3.12464
   D45       -1.07837  -0.00002   0.00180  -0.00245  -0.00065  -1.07901
   D46       -1.08265   0.00023   0.00294  -0.00240   0.00054  -1.08212
   D47        1.03342   0.00020   0.00339  -0.00270   0.00069   1.03411
   D48        3.11266   0.00027   0.00345  -0.00248   0.00097   3.11364
   D49        3.11393  -0.00015   0.00093  -0.00321  -0.00229   3.11164
   D50       -1.05318  -0.00018   0.00138  -0.00352  -0.00214  -1.05532
   D51        1.02607  -0.00011   0.00144  -0.00330  -0.00186   1.02421
   D52        0.94305  -0.00090   0.00363  -0.01978  -0.01616   0.92689
   D53       -1.09609  -0.00042   0.00549  -0.01934  -0.01385  -1.10993
   D54        3.07366  -0.00079   0.00405  -0.01788  -0.01382   3.05984
   D55        3.08239  -0.00047   0.00439  -0.01775  -0.01337   3.06903
   D56        1.04326   0.00002   0.00625  -0.01731  -0.01105   1.03220
   D57       -1.07018  -0.00036   0.00481  -0.01584  -0.01103  -1.08121
   D58       -1.12743  -0.00023   0.00555  -0.01737  -0.01182  -1.13926
   D59        3.11662   0.00026   0.00741  -0.01692  -0.00951   3.10711
   D60        1.00318  -0.00011   0.00597  -0.01546  -0.00948   0.99369
   D61        0.09560  -0.00039   0.00163   0.00587   0.00749   0.10309
   D62       -3.06097   0.00019   0.00390   0.00152   0.00543  -3.05554
   D63        2.20856  -0.00012   0.00168   0.00803   0.00972   2.21828
   D64       -0.94801   0.00046   0.00396   0.00369   0.00765  -0.94035
   D65       -2.01119  -0.00069  -0.00017   0.00754   0.00736  -2.00383
   D66        1.11543  -0.00011   0.00210   0.00320   0.00530   1.12073
         Item               Value     Threshold  Converged?
 Maximum Force            0.003686     0.000450     NO 
 RMS     Force            0.000716     0.000300     NO 
 Maximum Displacement     0.122712     0.001800     NO 
 RMS     Displacement     0.028175     0.001200     NO 
 Predicted change in Energy=-1.474552D-04
 GradGradGradGradGradGradGradGradGradGradGradGradGradGradGradGradGradGrad

                          Input orientation:                          
 ---------------------------------------------------------------------
 Center     Atomic      Atomic             Coordinates (Angstroms)
 Number     Number       Type             X           Y           Z
 ---------------------------------------------------------------------
      1          6           0        1.269568    0.528887   -0.352016
      2          1           0        0.554119    1.345140   -0.441744
      3          1           0        1.560350    0.253997   -1.375971
      4          6           0        0.604021   -0.679724    0.309658
      5          1           0        0.284786   -0.396231    1.311638
      6          1           0        1.366002   -1.448222    0.456012
      7          6           0       -0.528018   -1.310662   -0.498692
      8          1           0       -0.407148   -1.078737   -1.557135
      9          1           0       -0.516911   -2.395155   -0.398315
     10          7           0       -1.931330   -0.893404   -0.143742
     11          6           0       -2.299227   -1.383335    1.217934
     12          1           0       -3.324304   -1.068788    1.397299
     13          1           0       -2.196166   -2.466234    1.236489
     14          1           0       -1.637297   -0.932560    1.950251
     15          6           0       -2.853155   -1.521322   -1.138750
     16          1           0       -2.715858   -2.600040   -1.107511
     17          1           0       -3.865148   -1.232349   -0.869204
     18          1           0       -2.601643   -1.141078   -2.125835
     19          6           0       -2.081252    0.612910   -0.206163
     20          1           0       -1.731077    0.921647   -1.189034
     21          1           0       -1.424171    1.028487    0.552779
     22          6           0       -3.518281    1.209938    0.027227
     23          8           0       -4.421082    0.420297    0.359652
     24          8           0       -3.504050    2.425339   -0.149509
     25          7           0        2.375016    0.985704    0.470489
     26          1           0        3.185201    0.388059    0.374327
     27          1           0        2.663569    1.920257    0.218470
 ---------------------------------------------------------------------
                    Distance matrix (angstroms):
                    1          2          3          4          5
     1  C    0.000000
     2  H    1.089122   0.000000
     3  H    1.099365   1.753817   0.000000
     4  C    1.530198   2.160364   2.151219   0.000000
     5  H    2.143218   2.485813   3.045177   1.089148   0.000000
     6  H    2.138029   3.044338   2.508283   1.092073   1.734303
     7  C    2.576193   2.868371   2.753008   1.527424   2.184978
     8  H    2.616896   2.836074   2.383285   2.160229   3.028935
     9  H    3.426905   3.890862   3.505543   2.168045   2.749974
    10  N    3.508852   3.358176   3.876435   2.584422   2.697496
    11  C    4.342538   4.282604   4.930064   3.122320   2.767721
    12  H    5.168784   4.924561   5.770670   4.094640   3.672221
    13  H    4.848238   4.990702   5.323158   3.448431   3.231978
    14  H    3.985740   3.963819   4.764096   2.789082   2.095204
    15  C    4.671097   4.506877   4.763093   3.841645   4.137258
    16  H    5.122946   5.167247   5.148159   4.088713   4.439924
    17  H    5.452957   5.133819   5.648191   4.654952   4.762050
    18  H    4.574001   4.356177   4.453169   4.052253   4.549999
    19  C    3.355045   2.745331   3.841684   3.024511   2.986674
    20  H    3.139861   2.441293   3.363657   3.203615   3.471868
    21  H    2.885218   2.236734   3.636933   2.662829   2.350792
    22  C    4.850892   4.101543   5.354931   4.543563   4.323519
    23  O    5.736006   5.123495   6.230375   5.144337   4.870133
    24  O    5.140522   4.209628   5.645094   5.169961   4.944845
    25  N    1.451624   2.068097   2.146740   2.436379   2.643168
    26  H    2.053548   2.916260   2.391999   2.794072   3.147391
    27  H    2.050513   2.283948   2.556513   3.318125   3.495675
                    6          7          8          9         10
     6  H    0.000000
     7  C    2.125487   0.000000
     8  H    2.708014   1.090275   0.000000
     9  H    2.274186   1.089185   1.757233   0.000000
    10  N    3.397047   1.506446   2.086902   2.078616   0.000000
    11  C    3.744147   2.467644   3.372499   2.610113   1.493165
    12  H    4.798850   3.387109   4.151937   3.586773   2.084693
    13  H    3.786097   2.670003   3.595840   2.344682   2.109258
    14  H    3.393886   2.714918   3.719729   2.984998   2.114898
    15  C    4.511086   2.420808   2.520690   2.601896   1.494685
    16  H    4.520273   2.611474   2.801190   2.319548   2.111147
    17  H    5.400715   3.358548   3.529108   3.575548   2.093043
    18  H    4.743678   2.641264   2.267843   2.983813   2.106978
    19  C    4.070663   2.489626   2.736680   3.395960   1.515043
    20  H    4.232535   2.628141   2.426895   3.619476   2.104079
    21  H    3.732093   2.716670   3.150629   3.667291   2.106185
    22  C    5.577266   3.946098   4.174612   4.710203   2.640396
    23  O    6.082022   4.346139   4.693915   4.872765   2.859734
    24  O    6.252082   4.789196   4.883724   5.676449   3.672538
    25  N    2.634827   3.826253   4.014176   4.533020   4.738454
    26  H    2.586133   4.175621   4.334399   4.695625   5.299947
    27  H    3.617562   4.597759   4.645002   5.396171   5.400091
                   11         12         13         14         15
    11  C    0.000000
    12  H    1.087150   0.000000
    13  H    1.087950   1.803167   0.000000
    14  H    1.085191   1.780535   1.781558   0.000000
    15  C    2.424837   2.618839   2.639366   3.371480   0.000000
    16  H    2.657376   2.998169   2.404645   3.646052   1.087869
    17  H    2.613627   2.335872   2.956672   3.605900   1.086412
    18  H    3.366145   3.597213   3.636712   4.193795   1.087281
    19  C    2.461821   2.635219   3.402290   2.689924   2.453671
    20  H    3.380715   3.631711   4.192518   3.647189   2.688807
    21  H    2.650479   2.953351   3.643694   2.417447   3.377098
    22  C    3.103054   2.665955   4.089565   3.438956   3.043301
    23  O    2.914105   2.120615   3.748487   3.479897   2.910926
    24  O    4.222262   3.825421   5.249670   4.378269   4.120485
    25  N    5.293352   6.128798   5.779129   4.687013   6.017358
    26  H    5.824815   6.748521   6.152189   5.242524   6.511289
    27  H    6.044998   6.795488   6.625307   5.443811   6.642345
                   16         17         18         19         20
    16  H    0.000000
    17  H    1.802287   0.000000
    18  H    1.782863   1.784348   0.000000
    19  C    3.396793   2.650828   2.651871   0.000000
    20  H    3.657693   3.048975   2.426997   1.088107   0.000000
    21  H    4.194189   3.618256   3.642585   1.086486   1.771869
    22  C    4.055546   2.624628   3.317104   1.573520   2.180941
    23  O    3.766005   2.133164   3.453389   2.414964   3.144186
    24  O    5.176239   3.745268   4.176066   2.304878   2.546593
    25  N    6.423756   6.756787   6.002602   4.522738   4.429234
    26  H    6.778428   7.340267   6.486651   5.303118   5.186387
    27  H    7.150492   7.331173   6.526101   4.939918   4.721356
                   21         22         23         24         25
    21  H    0.000000
    22  C    2.166662   0.000000
    23  O    3.064093   1.244624   0.000000
    24  O    2.601980   1.228266   2.262827   0.000000
    25  N    3.800319   5.914196   6.820478   6.084436   0.000000
    26  H    4.657071   6.762591   7.606366   7.012203   1.011349
    27  H    4.197218   6.225463   7.243072   6.199196   1.010032
                   26         27
    26  H    0.000000
    27  H    1.626045   0.000000
 Stoichiometry    C7H16N2O2
 Framework group  C1[X(C7H16N2O2)]
 Deg. of freedom    75
 Full point group                 C1      NOp   1
 Largest Abelian subgroup         C1      NOp   1
 Largest concise Abelian subgroup C1      NOp   1
                         Standard orientation:                         
 ---------------------------------------------------------------------
 Center     Atomic      Atomic             Coordinates (Angstroms)
 Number     Number       Type             X           Y           Z
 ---------------------------------------------------------------------
      1          6           0        2.692311    0.607626   -0.419499
      2          1           0        1.948945    1.396071   -0.528814
      3          1           0        2.970377    0.296846   -1.436700
      4          6           0        2.080470   -0.590826    0.309109
      5          1           0        1.773232   -0.273331    1.304622
      6          1           0        2.869965   -1.327600    0.471853
      7          6           0        0.952889   -1.292508   -0.445363
      8          1           0        1.043948   -1.104129   -1.515372
      9          1           0        1.001397   -2.370579   -0.297932
     10          7           0       -0.455521   -0.904449   -0.077707
     11          6           0       -0.778671   -1.344788    1.311975
     12          1           0       -1.809463   -1.055133    1.500291
     13          1           0       -0.640043   -2.421995    1.375556
     14          1           0       -0.116573   -0.841232    2.008895
     15          6           0       -1.377053   -1.604766   -1.023444
     16          1           0       -1.204085   -2.676153   -0.948143
     17          1           0       -2.392049   -1.336228   -0.744231
     18          1           0       -1.158784   -1.260988   -2.031590
     19          6           0       -0.655677    0.592114   -0.202569
     20          1           0       -0.336403    0.867795   -1.205585
     21          1           0        0.003278    1.061552    0.522592
     22          6           0       -2.106178    1.153211    0.036565
     23          8           0       -2.975631    0.350982    0.423306
     24          8           0       -2.135228    2.359403   -0.193423
     25          7           0        3.799286    1.135236    0.357319
     26          1           0        4.626307    0.559810    0.269291
     27          1           0        4.051919    2.066321    0.058285
 ---------------------------------------------------------------------
 Rotational constants (GHZ):           1.5613978           0.6306333           0.5100307
 Standard basis: 6-311+G(2d,2p) (5D, 7F)
 There are   463 symmetry adapted cartesian basis functions of A   symmetry.
 There are   441 symmetry adapted basis functions of A   symmetry.
   441 basis functions,   638 primitive gaussians,   463 cartesian basis functions
    44 alpha electrons       44 beta electrons
       nuclear repulsion energy       682.1840016474 Hartrees.
 NAtoms=   27 NActive=   27 NUniq=   27 SFac= 1.00D+00 NAtFMM=   60 NAOKFM=F Big=F
 Integral buffers will be    131072 words long.
 Raffenetti 2 integral format.
 Two-electron integral symmetry is turned on.
 Nuclear repulsion after empirical dispersion term =      682.1624751274 Hartrees.
 One-electron integrals computed using PRISM.
 NBasis=   441 RedAO= T EigKep=  1.19D-05  NBF=   441
 NBsUse=   441 1.00D-06 EigRej= -1.00D+00 NBFU=   441
 Initial guess from the checkpoint file:  "aminopropyl_betaine_h.chk"
 B after Tr=    -0.000000    0.000000    0.000000
         Rot=    0.999994   -0.002888    0.001546    0.000792 Ang=  -0.39 deg.
 ExpMin= 4.38D-02 ExpMax= 8.59D+03 ExpMxC= 1.30D+03 IAcc=2 IRadAn=         4 AccDes= 0.00D+00
 Harris functional with IExCor= 4639 and IRadAn=       4 diagonalized for initial guess.
 HarFok:  IExCor= 4639 AccDes= 0.00D+00 IRadAn=         4 IDoV= 1 UseB2=F ITyADJ=14
 ICtDFT=  3500011 ScaDFX=  1.000000  1.000000  1.000000  1.000000
 FoFCou: FMM=F IPFlag=           0 FMFlag=      100000 FMFlg1=           0
         NFxFlg=           0 DoJE=T BraDBF=F KetDBF=T FulRan=T
         wScrn=  0.000000 ICntrl=       500 IOpCl=  0 I1Cent=   200000004 NGrid=           0
         NMat0=    1 NMatS0=      1 NMatT0=    0 NMatD0=    1 NMtDS0=    0 NMtDT0=    0
 Petite list used in FoFCou.
 Requested convergence on RMS density matrix=1.00D-08 within  32 cycles.
 Requested convergence on MAX density matrix=1.00D-06.
 Requested convergence on             energy=1.00D-06.
 No special actions if energy rises.
 SCF Done:  E(RwB97XD) =  -536.304376968     A.U. after   12 cycles
            NFock= 12  Conv=0.66D-08     -V/T= 2.0039
 QCSCF skips out because SCF is already converged.
 Calling FoFJK, ICntrl=      2127 FMM=F ISym2X=0 I1Cent= 0 IOpClX= 0 NMat=1 NMatS=1 NMatT=0.
 ***** Axes restored to original set *****
 -------------------------------------------------------------------
 Center     Atomic                   Forces (Hartrees/Bohr)
 Number     Number              X              Y              Z
 -------------------------------------------------------------------
      1        6          -0.001896686   -0.001604730   -0.001036067
      2        1           0.000232435    0.000142933    0.000184047
      3        1           0.000270959    0.000254809    0.000196874
      4        6           0.000554890    0.000355460   -0.000007237
      5        1          -0.000312982   -0.000215535    0.000142269
      6        1          -0.000081806   -0.000007661   -0.000220635
      7        6          -0.000075153    0.000387461   -0.000089236
      8        1           0.000070099   -0.000109315    0.000032695
      9        1           0.000026125   -0.000014630    0.000174185
     10        7           0.000112239    0.000105609   -0.000120229
     11        6           0.000076254   -0.000207795    0.000139988
     12        1           0.000077792   -0.000017373   -0.000040689
     13        1           0.000053104    0.000009235   -0.000032754
     14        1           0.000185286    0.000025893   -0.000002916
     15        6          -0.000097267    0.000145691   -0.000008671
     16        1          -0.000022381    0.000015412   -0.000012233
     17        1           0.000044328   -0.000041916    0.000005466
     18        1          -0.000028769    0.000002518    0.000016633
     19        6           0.000258503   -0.000230636   -0.000227352
     20        1           0.000083066   -0.000147299   -0.000030295
     21        1           0.000014698   -0.000022040   -0.000000925
     22        6           0.000654728    0.000037943    0.000746824
     23        8          -0.000682896    0.000354802   -0.000410013
     24        8          -0.000643086   -0.000018439   -0.000177540
     25        7           0.002527599    0.001508385    0.000807069
     26        1          -0.000809240   -0.000275279    0.000127635
     27        1          -0.000591837   -0.000433503   -0.000156891
 -------------------------------------------------------------------
 Cartesian Forces:  Max     0.002527599 RMS     0.000516513

 GradGradGradGradGradGradGradGradGradGradGradGradGradGradGradGradGradGrad
 Berny optimization.
 Using GEDIIS/GDIIS optimizer.
 FormGI is forming the generalized inverse of G from B-inverse, IUseBI=4.
 Internal  Forces:  Max     0.001548865 RMS     0.000259432
 Search for a local minimum.
 Step number   7 out of a maximum of  150
 All quantities printed in internal units (Hartrees-Bohrs-Radians)
 Mixed Optimization -- En-DIIS/RFO-DIIS
 Swapping is turned off.
 Update second derivatives using D2CorX and points    1    2    5    4    6
                                                      7
 DE= -1.59D-04 DEPred=-1.47D-04 R= 1.08D+00
 TightC=F SS=  1.41D+00  RLast= 1.32D-01 DXNew= 2.1213D-01 3.9539D-01
 Trust test= 1.08D+00 RLast= 1.32D-01 DXMaxT set to 2.12D-01
 ITU=  1  0 -1  0 -1  1  0
     Eigenvalues ---    0.00184   0.00247   0.00345   0.00382   0.00433
     Eigenvalues ---    0.00445   0.00590   0.01465   0.03215   0.03393
     Eigenvalues ---    0.03794   0.03915   0.04467   0.04678   0.04789
     Eigenvalues ---    0.04968   0.05159   0.05242   0.05478   0.05574
     Eigenvalues ---    0.06011   0.06079   0.06169   0.06242   0.08620
     Eigenvalues ---    0.08851   0.09053   0.09625   0.09902   0.12491
     Eigenvalues ---    0.12653   0.12769   0.13697   0.14527   0.15762
     Eigenvalues ---    0.15923   0.15991   0.16000   0.16003   0.16005
     Eigenvalues ---    0.16018   0.16117   0.17298   0.21107   0.22484
     Eigenvalues ---    0.23527   0.24926   0.25443   0.27202   0.29420
     Eigenvalues ---    0.29844   0.30648   0.31863   0.32878   0.33375
     Eigenvalues ---    0.34528   0.34694   0.34802   0.34813   0.34952
     Eigenvalues ---    0.34998   0.35024   0.35073   0.35096   0.35105
     Eigenvalues ---    0.35148   0.35200   0.35255   0.35326   0.37325
     Eigenvalues ---    0.39736   0.47472   0.47689   0.85656   0.92182
 En-DIIS/RFO-DIIS/Sim-DIIS IScMMF=       -3 using points:     7    6
 RFO step:  Lambda=-6.67213396D-05.
 DidBck=F Rises=F RFO-DIIS coefs:    1.33320   -0.33320
 Iteration  1 RMS(Cart)=  0.00971757 RMS(Int)=  0.00011312
 Iteration  2 RMS(Cart)=  0.00011374 RMS(Int)=  0.00000148
 Iteration  3 RMS(Cart)=  0.00000002 RMS(Int)=  0.00000148
 Variable       Old X    -DE/DX   Delta X   Delta X   Delta X     New X
                                 (Linear)    (Quad)   (Total)
    R1        2.05814  -0.00006  -0.00019  -0.00003  -0.00022   2.05792
    R2        2.07750  -0.00017   0.00020  -0.00017   0.00003   2.07752
    R3        2.89166  -0.00049  -0.00003  -0.00110  -0.00113   2.89052
    R4        2.74317   0.00155  -0.00001   0.00231   0.00231   2.74548
    R5        2.05819   0.00017  -0.00001   0.00061   0.00060   2.05879
    R6        2.06372  -0.00008   0.00001  -0.00002  -0.00001   2.06371
    R7        2.88641  -0.00018  -0.00016  -0.00115  -0.00131   2.88511
    R8        2.06032  -0.00005   0.00002  -0.00015  -0.00013   2.06019
    R9        2.05826   0.00003  -0.00001   0.00007   0.00006   2.05832
   R10        2.84677  -0.00011   0.00031  -0.00058  -0.00027   2.84650
   R11        2.82167   0.00002   0.00021  -0.00032  -0.00011   2.82156
   R12        2.82455   0.00001  -0.00001   0.00023   0.00022   2.82476
   R13        2.86302   0.00001   0.00045  -0.00019   0.00027   2.86328
   R14        2.05442  -0.00009  -0.00005  -0.00010  -0.00015   2.05427
   R15        2.05593  -0.00000   0.00001  -0.00006  -0.00006   2.05587
   R16        2.05071   0.00012  -0.00011   0.00043   0.00032   2.05103
   R17        2.05577  -0.00002   0.00001   0.00000   0.00002   2.05579
   R18        2.05302  -0.00005  -0.00009  -0.00017  -0.00026   2.05276
   R19        2.05466  -0.00002   0.00004  -0.00007  -0.00003   2.05463
   R20        2.05622   0.00001  -0.00003  -0.00007  -0.00010   2.05613
   R21        2.05316   0.00000  -0.00006   0.00023   0.00017   2.05333
   R22        2.97352   0.00078   0.00044   0.00194   0.00237   2.97590
   R23        2.35200   0.00016  -0.00001   0.00005   0.00004   2.35204
   R24        2.32109   0.00000  -0.00008  -0.00015  -0.00023   2.32086
   R25        1.91117  -0.00050   0.00007  -0.00073  -0.00066   1.91052
   R26        1.90868  -0.00053   0.00003  -0.00087  -0.00084   1.90784
    A1        1.85919   0.00011  -0.00020   0.00090   0.00070   1.85989
    A2        1.91969   0.00010   0.00016   0.00190   0.00205   1.92175
    A3        1.88712  -0.00037  -0.00035  -0.00247  -0.00282   1.88430
    A4        1.89684  -0.00001  -0.00021   0.00069   0.00048   1.89732
    A5        1.98778  -0.00037   0.00105  -0.00239  -0.00134   1.98644
    A6        1.91216   0.00052  -0.00044   0.00147   0.00103   1.91319
    A7        1.89621   0.00037   0.00079   0.00263   0.00342   1.89963
    A8        1.88629   0.00002  -0.00142  -0.00022  -0.00165   1.88465
    A9        2.00399  -0.00022   0.00082  -0.00013   0.00069   2.00468
   A10        1.83836   0.00003  -0.00008   0.00105   0.00097   1.83934
   A11        1.95752  -0.00020   0.00063  -0.00193  -0.00130   1.95622
   A12        1.87273   0.00002  -0.00094  -0.00133  -0.00227   1.87046
   A13        1.92169   0.00003  -0.00051   0.00183   0.00131   1.92300
   A14        1.93367  -0.00012  -0.00056  -0.00226  -0.00281   1.93086
   A15        2.03901   0.00001   0.00189  -0.00122   0.00068   2.03969
   A16        1.87564   0.00002  -0.00019   0.00058   0.00039   1.87603
   A17        1.84740   0.00008   0.00014   0.00192   0.00206   1.84946
   A18        1.83752  -0.00002  -0.00088  -0.00067  -0.00155   1.83598
   A19        1.93212  -0.00037   0.00033  -0.00299  -0.00266   1.92945
   A20        1.87685   0.00016  -0.00152   0.00131  -0.00021   1.87665
   A21        1.93677   0.00012   0.00017   0.00033   0.00049   1.93726
   A22        1.89365   0.00013  -0.00012   0.00131   0.00118   1.89484
   A23        1.91709   0.00021   0.00059   0.00008   0.00066   1.91776
   A24        1.90628  -0.00026   0.00051   0.00005   0.00056   1.90684
   A25        1.86277   0.00001  -0.00014   0.00017   0.00004   1.86281
   A26        1.89527  -0.00005  -0.00015  -0.00012  -0.00028   1.89499
   A27        1.90585  -0.00015   0.00046  -0.00119  -0.00073   1.90512
   A28        1.95465   0.00005  -0.00014   0.00027   0.00013   1.95478
   A29        1.92156   0.00009   0.00003   0.00093   0.00097   1.92253
   A30        1.92215   0.00004  -0.00005  -0.00012  -0.00017   1.92198
   A31        1.89612   0.00003  -0.00006   0.00006  -0.00000   1.89611
   A32        1.87296  -0.00001   0.00001   0.00005   0.00006   1.87302
   A33        1.89101   0.00002  -0.00009   0.00004  -0.00004   1.89097
   A34        1.95432  -0.00002   0.00007   0.00005   0.00011   1.95443
   A35        1.92160  -0.00001  -0.00005   0.00003  -0.00002   1.92158
   A36        1.92591  -0.00000   0.00012  -0.00023  -0.00011   1.92580
   A37        1.86238  -0.00022  -0.00034  -0.00137  -0.00171   1.86067
   A38        1.86676  -0.00015  -0.00056  -0.00042  -0.00098   1.86578
   A39        2.05048   0.00041   0.00189   0.00066   0.00255   2.05302
   A40        1.90478   0.00006  -0.00028  -0.00013  -0.00042   1.90436
   A41        1.89677  -0.00011  -0.00018   0.00020   0.00002   1.89678
   A42        1.87924  -0.00000  -0.00063   0.00101   0.00038   1.87962
   A43        2.05030   0.00065   0.00061   0.00111   0.00173   2.05202
   A44        1.92146   0.00037  -0.00019   0.00110   0.00091   1.92237
   A45        2.31126  -0.00100  -0.00044  -0.00220  -0.00263   2.30863
   A46        1.95004  -0.00056  -0.00007  -0.00328  -0.00335   1.94668
   A47        1.94696  -0.00063   0.00017  -0.00286  -0.00270   1.94426
   A48        1.86941   0.00066   0.00011   0.00329   0.00340   1.87280
    D1       -1.07817   0.00019   0.00061   0.00199   0.00259  -1.07558
    D2       -3.06447  -0.00004   0.00103  -0.00046   0.00057  -3.06390
    D3        1.12940   0.00006   0.00272   0.00147   0.00420   1.13359
    D4       -3.10733  -0.00000   0.00088  -0.00055   0.00033  -3.10700
    D5        1.18956  -0.00023   0.00130  -0.00299  -0.00169   1.18787
    D6       -0.89976  -0.00013   0.00300  -0.00106   0.00194  -0.89782
    D7        0.99388   0.00012   0.00001   0.00100   0.00101   0.99489
    D8       -0.99241  -0.00011   0.00043  -0.00144  -0.00101  -0.99342
    D9       -3.08173  -0.00001   0.00212   0.00049   0.00262  -3.07912
   D10       -2.85213   0.00005  -0.00939  -0.02943  -0.03882  -2.89095
   D11       -0.76015   0.00007  -0.00919  -0.02944  -0.03862  -0.79877
   D12       -0.78944  -0.00028  -0.00923  -0.03144  -0.04067  -0.83011
   D13        1.30255  -0.00026  -0.00903  -0.03144  -0.04047   1.26207
   D14        1.33894  -0.00016  -0.00911  -0.03110  -0.04022   1.29873
   D15       -2.85226  -0.00013  -0.00891  -0.03111  -0.04002  -2.89228
   D16        0.41402  -0.00002  -0.00337   0.01247   0.00910   0.42312
   D17        2.48645  -0.00005  -0.00429   0.01294   0.00866   2.49511
   D18       -1.69313  -0.00015  -0.00452   0.00932   0.00480  -1.68833
   D19        2.58969   0.00014  -0.00109   0.01434   0.01325   2.60294
   D20       -1.62106   0.00011  -0.00201   0.01481   0.01280  -1.60825
   D21        0.48255   0.00000  -0.00224   0.01119   0.00895   0.49150
   D22       -1.68282   0.00008  -0.00141   0.01379   0.01238  -1.67044
   D23        0.38962   0.00005  -0.00233   0.01426   0.01193   0.40155
   D24        2.49322  -0.00006  -0.00256   0.01064   0.00808   2.50130
   D25       -1.17217   0.00008  -0.01130   0.01599   0.00469  -1.16748
   D26        3.04512   0.00004  -0.01043   0.01530   0.00488   3.04999
   D27        0.96125   0.00018  -0.01021   0.01424   0.00403   0.96528
   D28        2.96504  -0.00002  -0.01200   0.01290   0.00090   2.96595
   D29        0.89914  -0.00007  -0.01112   0.01222   0.00109   0.90024
   D30       -1.18472   0.00007  -0.01091   0.01116   0.00025  -1.18447
   D31        0.98163  -0.00007  -0.01146   0.01173   0.00026   0.98189
   D32       -1.08427  -0.00012  -0.01059   0.01104   0.00045  -1.08381
   D33        3.11505   0.00002  -0.01037   0.00998  -0.00039   3.11466
   D34       -3.11884  -0.00001   0.00293  -0.00548  -0.00255  -3.12139
   D35       -1.00858   0.00002   0.00260  -0.00513  -0.00253  -1.01111
   D36        1.08767  -0.00005   0.00271  -0.00605  -0.00333   1.08434
   D37       -1.06318   0.00005   0.00120  -0.00482  -0.00362  -1.06681
   D38        1.04707   0.00008   0.00087  -0.00447  -0.00360   1.04347
   D39       -3.13986   0.00001   0.00099  -0.00539  -0.00440   3.13892
   D40        1.01947  -0.00006   0.00209  -0.00393  -0.00183   1.01763
   D41        3.12972  -0.00003   0.00176  -0.00358  -0.00181   3.12791
   D42       -1.05721  -0.00010   0.00188  -0.00450  -0.00261  -1.05983
   D43        1.00842  -0.00013  -0.00036  -0.00473  -0.00509   1.00332
   D44        3.12464  -0.00014  -0.00031  -0.00461  -0.00492   3.11972
   D45       -1.07901  -0.00014  -0.00022  -0.00483  -0.00504  -1.08406
   D46       -1.08212   0.00015   0.00018  -0.00264  -0.00246  -1.08458
   D47        1.03411   0.00014   0.00023  -0.00252  -0.00229   1.03182
   D48        3.11364   0.00014   0.00032  -0.00273  -0.00241   3.11123
   D49        3.11164  -0.00003  -0.00076  -0.00354  -0.00430   3.10735
   D50       -1.05532  -0.00004  -0.00071  -0.00341  -0.00413  -1.05945
   D51        1.02421  -0.00004  -0.00062  -0.00363  -0.00425   1.01996
   D52        0.92689   0.00000  -0.00538   0.00024  -0.00515   0.92174
   D53       -1.10993   0.00012  -0.00461   0.00127  -0.00334  -1.11327
   D54        3.05984  -0.00003  -0.00461  -0.00016  -0.00476   3.05507
   D55        3.06903  -0.00024  -0.00445  -0.00327  -0.00773   3.06130
   D56        1.03220  -0.00013  -0.00368  -0.00224  -0.00592   1.02628
   D57       -1.08121  -0.00028  -0.00368  -0.00367  -0.00734  -1.08855
   D58       -1.13926  -0.00011  -0.00394  -0.00160  -0.00554  -1.14480
   D59        3.10711  -0.00000  -0.00317  -0.00057  -0.00374   3.10337
   D60        0.99369  -0.00015  -0.00316  -0.00200  -0.00516   0.98853
   D61        0.10309  -0.00029   0.00250  -0.00448  -0.00199   0.10110
   D62       -3.05554   0.00029   0.00181  -0.00362  -0.00181  -3.05736
   D63        2.21828  -0.00038   0.00324  -0.00569  -0.00245   2.21583
   D64       -0.94035   0.00020   0.00255  -0.00482  -0.00227  -0.94262
   D65       -2.00383  -0.00037   0.00245  -0.00518  -0.00273  -2.00656
   D66        1.12073   0.00021   0.00177  -0.00432  -0.00255   1.11817
         Item               Value     Threshold  Converged?
 Maximum Force            0.001549     0.000450     NO 
 RMS     Force            0.000259     0.000300     YES
 Maximum Displacement     0.040063     0.001800     NO 
 RMS     Displacement     0.009719     0.001200     NO 
 Predicted change in Energy=-3.373629D-05
 GradGradGradGradGradGradGradGradGradGradGradGradGradGradGradGradGradGrad

                          Input orientation:                          
 ---------------------------------------------------------------------
 Center     Atomic      Atomic             Coordinates (Angstroms)
 Number     Number       Type             X           Y           Z
 ---------------------------------------------------------------------
      1          6           0        1.265077    0.534597   -0.347135
      2          1           0        0.550404    1.352421   -0.426746
      3          1           0        1.552323    0.268279   -1.374363
      4          6           0        0.604176   -0.679419    0.307881
      5          1           0        0.286848   -0.407151    1.313917
      6          1           0        1.368683   -1.447444    0.443097
      7          6           0       -0.528071   -1.307988   -0.500716
      8          1           0       -0.406973   -1.077677   -1.559416
      9          1           0       -0.516762   -2.392314   -0.398241
     10          7           0       -1.931302   -0.892370   -0.144139
     11          6           0       -2.292484   -1.382108    1.219338
     12          1           0       -3.316715   -1.067892    1.403578
     13          1           0       -2.188879   -2.464933    1.237347
     14          1           0       -1.626208   -0.931113    1.947819
     15          6           0       -2.853679   -1.523914   -1.136510
     16          1           0       -2.710718   -2.601956   -1.107058
     17          1           0       -3.866011   -1.240394   -0.863031
     18          1           0       -2.607758   -1.141252   -2.124052
     19          6           0       -2.084214    0.613729   -0.207889
     20          1           0       -1.730844    0.920911   -1.190046
     21          1           0       -1.428960    1.030235    0.552254
     22          6           0       -3.522925    1.212031    0.020294
     23          8           0       -4.429025    0.424362    0.348467
     24          8           0       -3.508285    2.427460   -0.155365
     25          7           0        2.374961    0.987764    0.473570
     26          1           0        3.170974    0.369382    0.395528
     27          1           0        2.682879    1.909574    0.200220
 ---------------------------------------------------------------------
                    Distance matrix (angstroms):
                    1          2          3          4          5
     1  C    0.000000
     2  H    1.089005   0.000000
     3  H    1.099378   1.754190   0.000000
     4  C    1.529598   2.161236   2.151060   0.000000
     5  H    2.145440   2.489068   3.047044   1.089466   0.000000
     6  H    2.136279   3.043921   2.506111   1.092070   1.735196
     7  C    2.575673   2.871647   2.752439   1.526733   2.183688
     8  H    2.620078   2.846909   2.384258   2.160517   3.031013
     9  H    3.427007   3.893931   3.508944   2.165438   2.741924
    10  N    3.506320   3.358246   3.872493   2.584244   2.698435
    11  C    4.334033   4.274255   4.922764   3.116916   2.759065
    12  H    5.160018   4.915548   5.762798   4.089603   3.664736
    13  H    4.841237   4.984483   5.318653   3.442837   3.220179
    14  H    3.971732   3.948510   4.751684   2.779814   2.082343
    15  C    4.671696   4.512743   4.762498   3.841380   4.136987
    16  H    5.120780   5.170574   5.146185   4.084938   4.434375
    17  H    5.453881   5.139821   5.647646   4.654923   4.762314
    18  H    4.578729   4.367293   4.455905   4.055134   4.553820
    19  C    3.353118   2.744954   3.834631   3.027489   2.996668
    20  H    3.136125   2.443956   3.352475   3.202681   3.479175
    21  H    2.883122   2.231620   3.630493   2.667636   2.364361
    22  C    4.849627   4.100190   5.347324   4.548984   4.337001
    23  O    5.737492   5.124155   6.226478   5.152970   4.884974
    24  O    5.138549   4.207411   5.635403   5.174904   4.959520
    25  N    1.452845   2.067015   2.146916   2.437751   2.648053
    26  H    2.052142   2.917171   2.400576   2.774188   3.124840
    27  H    2.049468   2.291496   2.539944   3.321969   3.514043
                    6          7          8          9         10
     6  H    0.000000
     7  C    2.123184   0.000000
     8  H    2.701804   1.090208   0.000000
     9  H    2.270580   1.089216   1.757456   0.000000
    10  N    3.397477   1.506301   2.088283   2.077336   0.000000
    11  C    3.743122   2.465204   3.371840   2.605814   1.493105
    12  H    4.797868   3.385339   4.152834   3.583349   2.084612
    13  H    3.784490   2.667896   3.594656   2.340171   2.108981
    14  H    3.391189   2.709846   3.716008   2.978252   2.114444
    15  C    4.508808   2.420601   2.522766   2.600066   1.494801
    16  H    4.514132   2.608821   2.799159   2.315127   2.111252
    17  H    5.399154   3.358227   3.532191   3.572173   2.093091
    18  H    4.743005   2.643505   2.272952   2.985942   2.107034
    19  C    4.073661   2.490045   2.738726   3.395503   1.515184
    20  H    4.228869   2.624849   2.425577   3.616409   2.102878
    21  H    3.738665   2.718021   3.153871   3.667342   2.105641
    22  C    5.583852   3.948556   4.177009   4.712058   2.643635
    23  O    6.093114   4.351964   4.698195   4.878222   2.866194
    24  O    6.257624   4.791087   4.886254   5.677889   3.675360
    25  N    2.635102   3.827180   4.017243   4.532885   4.739237
    26  H    2.559565   4.159298   4.326372   4.675086   5.283604
    27  H    3.613263   4.599371   4.644047   5.394636   5.409264
                   11         12         13         14         15
    11  C    0.000000
    12  H    1.087072   0.000000
    13  H    1.087919   1.803156   0.000000
    14  H    1.085360   1.781213   1.781564   0.000000
    15  C    2.425916   2.621909   2.638688   3.372119   0.000000
    16  H    2.659899   3.003977   2.405686   3.646937   1.087878
    17  H    2.613872   2.338589   2.953618   3.607388   1.086274
    18  H    3.366848   3.598913   3.636839   4.193773   1.087265
    19  C    2.462462   2.635097   3.402620   2.691353   2.454371
    20  H    3.380010   3.632797   4.191178   3.645153   2.690873
    21  H    2.647655   2.947967   3.641844   2.415243   3.377193
    22  C    3.111471   2.674705   4.096457   3.450501   3.044911
    23  O    2.930283   2.139466   3.762498   3.500146   2.912499
    24  O    4.228568   3.832034   5.255091   4.386982   4.123653
    25  N    5.287486   6.122566   5.773483   4.675987   6.019931
    26  H    5.796185   6.721014   6.121276   5.207097   6.498320
    27  H    6.052108   6.805035   6.629175   5.449022   6.650501
                   16         17         18         19         20
    16  H    0.000000
    17  H    1.802249   0.000000
    18  H    1.782844   1.784154   0.000000
    19  C    3.397299   2.653637   2.650612   0.000000
    20  H    3.657545   3.055670   2.427728   1.088055   0.000000
    21  H    4.193928   3.619117   3.642463   1.086578   1.771637
    22  C    4.059199   2.629137   3.312656   1.574777   2.182024
    23  O    3.772232   2.134508   3.446956   2.417340   3.145435
    24  O    5.180430   3.752587   4.174012   2.306590   2.549421
    25  N    6.422507   6.760246   6.008980   4.526425   4.430544
    26  H    6.758765   7.327654   6.482596   5.295358   5.181317
    27  H    7.152185   7.344437   6.534571   4.956908   4.731938
                   21         22         23         24         25
    21  H    0.000000
    22  C    2.168114   0.000000
    23  O    3.067410   1.244644   0.000000
    24  O    2.603181   1.228144   2.261418   0.000000
    25  N    3.804971   5.919528   6.828418   6.089406   0.000000
    26  H    4.649804   6.757154   7.600344   7.010825   1.011001
    27  H    4.219524   6.247474   7.266843   6.222954   1.009588
                   26         27
    26  H    0.000000
    27  H    1.627443   0.000000
 Stoichiometry    C7H16N2O2
 Framework group  C1[X(C7H16N2O2)]
 Deg. of freedom    75
 Full point group                 C1      NOp   1
 Largest Abelian subgroup         C1      NOp   1
 Largest concise Abelian subgroup C1      NOp   1
                         Standard orientation:                         
 ---------------------------------------------------------------------
 Center     Atomic      Atomic             Coordinates (Angstroms)
 Number     Number       Type             X           Y           Z
 ---------------------------------------------------------------------
      1          6           0        2.687717    0.615664   -0.417275
      2          1           0        1.944303    1.405564   -0.513844
      3          1           0        2.960319    0.315213   -1.439062
      4          6           0        2.083114   -0.590184    0.303874
      5          1           0        1.779772   -0.285679    1.304971
      6          1           0        2.875909   -1.326354    0.452690
      7          6           0        0.954557   -1.289374   -0.450053
      8          1           0        1.043720   -1.100686   -1.520100
      9          1           0        1.004675   -2.367382   -0.302475
     10          7           0       -0.453389   -0.904942   -0.077437
     11          6           0       -0.766776   -1.347496    1.313713
     12          1           0       -1.796544   -1.059308    1.509293
     13          1           0       -0.626410   -2.424601    1.374632
     14          1           0       -0.099653   -0.844264    2.006324
     15          6           0       -1.376330   -1.608103   -1.019868
     16          1           0       -1.196541   -2.678656   -0.948670
     17          1           0       -2.391146   -1.346364   -0.734152
     18          1           0       -1.165955   -1.260167   -2.028247
     19          6           0       -0.658305    0.591260   -0.200611
     20          1           0       -0.337907    0.867563   -1.203041
     21          1           0       -0.000314    1.061046    0.525337
     22          6           0       -2.110770    1.151465    0.036951
     23          8           0       -2.982152    0.349372    0.419675
     24          8           0       -2.141037    2.358106   -0.189852
     25          7           0        3.800106    1.139493    0.356646
     26          1           0        4.614495    0.544665    0.285413
     27          1           0        4.070533    2.058342    0.037501
 ---------------------------------------------------------------------
 Rotational constants (GHZ):           1.5609724           0.6300249           0.5094341
 Standard basis: 6-311+G(2d,2p) (5D, 7F)
 There are   463 symmetry adapted cartesian basis functions of A   symmetry.
 There are   441 symmetry adapted basis functions of A   symmetry.
   441 basis functions,   638 primitive gaussians,   463 cartesian basis functions
    44 alpha electrons       44 beta electrons
       nuclear repulsion energy       681.9829926792 Hartrees.
 NAtoms=   27 NActive=   27 NUniq=   27 SFac= 1.00D+00 NAtFMM=   60 NAOKFM=F Big=F
 Integral buffers will be    131072 words long.
 Raffenetti 2 integral format.
 Two-electron integral symmetry is turned on.
 Nuclear repulsion after empirical dispersion term =      681.9614536740 Hartrees.
 One-electron integrals computed using PRISM.
 NBasis=   441 RedAO= T EigKep=  1.19D-05  NBF=   441
 NBsUse=   441 1.00D-06 EigRej= -1.00D+00 NBFU=   441
 Initial guess from the checkpoint file:  "aminopropyl_betaine_h.chk"
 B after Tr=     0.000000    0.000000    0.000000
         Rot=    1.000000   -0.000448   -0.000434   -0.000709 Ang=  -0.11 deg.
 ExpMin= 4.38D-02 ExpMax= 8.59D+03 ExpMxC= 1.30D+03 IAcc=2 IRadAn=         4 AccDes= 0.00D+00
 Harris functional with IExCor= 4639 and IRadAn=       4 diagonalized for initial guess.
 HarFok:  IExCor= 4639 AccDes= 0.00D+00 IRadAn=         4 IDoV= 1 UseB2=F ITyADJ=14
 ICtDFT=  3500011 ScaDFX=  1.000000  1.000000  1.000000  1.000000
 FoFCou: FMM=F IPFlag=           0 FMFlag=      100000 FMFlg1=           0
         NFxFlg=           0 DoJE=T BraDBF=F KetDBF=T FulRan=T
         wScrn=  0.000000 ICntrl=       500 IOpCl=  0 I1Cent=   200000004 NGrid=           0
         NMat0=    1 NMatS0=      1 NMatT0=    0 NMatD0=    1 NMtDS0=    0 NMtDT0=    0
 Petite list used in FoFCou.
 Requested convergence on RMS density matrix=1.00D-08 within  32 cycles.
 Requested convergence on MAX density matrix=1.00D-06.
 Requested convergence on             energy=1.00D-06.
 No special actions if energy rises.
 SCF Done:  E(RwB97XD) =  -536.304412127     A.U. after   10 cycles
            NFock= 10  Conv=0.86D-08     -V/T= 2.0039
 QCSCF skips out because SCF is already converged.
 Calling FoFJK, ICntrl=      2127 FMM=F ISym2X=0 I1Cent= 0 IOpClX= 0 NMat=1 NMatS=1 NMatT=0.
 ***** Axes restored to original set *****
 -------------------------------------------------------------------
 Center     Atomic                   Forces (Hartrees/Bohr)
 Number     Number              X              Y              Z
 -------------------------------------------------------------------
      1        6          -0.001276826   -0.000874973   -0.000707532
      2        1           0.000076154    0.000088147    0.000073909
      3        1           0.000141929    0.000072537    0.000152132
      4        6           0.000771719    0.000639808    0.000069913
      5        1          -0.000027877   -0.000084312   -0.000076254
      6        1          -0.000073232   -0.000095682   -0.000052369
      7        6          -0.000137170   -0.000036828   -0.000102285
      8        1          -0.000015897   -0.000014667    0.000046196
      9        1           0.000023890   -0.000046457   -0.000003411
     10        7           0.000137214    0.000054335   -0.000077608
     11        6          -0.000190602    0.000176762   -0.000092595
     12        1          -0.000040696   -0.000019232    0.000019004
     13        1          -0.000069197    0.000003080    0.000025991
     14        1          -0.000105758   -0.000030059   -0.000012676
     15        6          -0.000050490    0.000105683    0.000139607
     16        1          -0.000013195    0.000012137    0.000002128
     17        1          -0.000046732    0.000087166   -0.000010265
     18        1          -0.000023657    0.000027593    0.000026366
     19        6           0.000157157   -0.000035538   -0.000192122
     20        1           0.000026606    0.000003494   -0.000064464
     21        1          -0.000077596    0.000027818   -0.000014825
     22        6           0.000113536   -0.000112233    0.000923708
     23        8           0.000073003   -0.000346962   -0.000311238
     24        8          -0.000040558    0.000059245   -0.000343773
     25        7           0.001104431    0.000559507    0.000704996
     26        1          -0.000221408   -0.000133252    0.000010156
     27        1          -0.000214750   -0.000087117   -0.000132688
 -------------------------------------------------------------------
 Cartesian Forces:  Max     0.001276826 RMS     0.000307874

 GradGradGradGradGradGradGradGradGradGradGradGradGradGradGradGradGradGrad
 Berny optimization.
 Using GEDIIS/GDIIS optimizer.
 FormGI is forming the generalized inverse of G from B-inverse, IUseBI=4.
 Internal  Forces:  Max     0.001278259 RMS     0.000198504
 Search for a local minimum.
 Step number   8 out of a maximum of  150
 All quantities printed in internal units (Hartrees-Bohrs-Radians)
 Mixed Optimization -- En-DIIS/RFO-DIIS
 Swapping is turned off.
 Update second derivatives using D2CorX and points    2    5    4    6    7
                                                      8
 DE= -3.52D-05 DEPred=-3.37D-05 R= 1.04D+00
 TightC=F SS=  1.41D+00  RLast= 1.06D-01 DXNew= 3.5676D-01 3.1822D-01
 Trust test= 1.04D+00 RLast= 1.06D-01 DXMaxT set to 3.18D-01
 ITU=  1  1  0 -1  0 -1  1  0
     Eigenvalues ---    0.00125   0.00234   0.00342   0.00384   0.00433
     Eigenvalues ---    0.00445   0.00615   0.01538   0.03229   0.03362
     Eigenvalues ---    0.03887   0.03952   0.04431   0.04683   0.04770
     Eigenvalues ---    0.05021   0.05176   0.05247   0.05553   0.05907
     Eigenvalues ---    0.06063   0.06088   0.06203   0.06239   0.08388
     Eigenvalues ---    0.08928   0.09002   0.09460   0.09950   0.12400
     Eigenvalues ---    0.12658   0.12795   0.13661   0.14525   0.14981
     Eigenvalues ---    0.15874   0.15999   0.16001   0.16004   0.16009
     Eigenvalues ---    0.16022   0.16106   0.17847   0.20798   0.22304
     Eigenvalues ---    0.24394   0.24979   0.25441   0.27336   0.29674
     Eigenvalues ---    0.30100   0.30774   0.32359   0.32918   0.33562
     Eigenvalues ---    0.34028   0.34801   0.34813   0.34939   0.34960
     Eigenvalues ---    0.35005   0.35028   0.35073   0.35096   0.35128
     Eigenvalues ---    0.35153   0.35205   0.35292   0.35535   0.35810
     Eigenvalues ---    0.46216   0.47686   0.48789   0.85691   0.92271
 En-DIIS/RFO-DIIS/Sim-DIIS IScMMF=       -3 using points:     8    7    6
 RFO step:  Lambda=-5.00012605D-05.
 DidBck=F Rises=F RFO-DIIS coefs:    1.62790   -0.29938   -0.32851
 Iteration  1 RMS(Cart)=  0.01059781 RMS(Int)=  0.00015249
 Iteration  2 RMS(Cart)=  0.00015622 RMS(Int)=  0.00000287
 Iteration  3 RMS(Cart)=  0.00000005 RMS(Int)=  0.00000287
 Variable       Old X    -DE/DX   Delta X   Delta X   Delta X     New X
                                 (Linear)    (Quad)   (Total)
    R1        2.05792   0.00001  -0.00033   0.00020  -0.00013   2.05779
    R2        2.07752  -0.00012   0.00021  -0.00026  -0.00005   2.07747
    R3        2.89052  -0.00051  -0.00074  -0.00102  -0.00176   2.88876
    R4        2.74548   0.00094   0.00144   0.00104   0.00249   2.74796
    R5        2.05879  -0.00008   0.00037  -0.00020   0.00017   2.05896
    R6        2.06371   0.00001   0.00001   0.00011   0.00011   2.06383
    R7        2.88511   0.00026  -0.00098   0.00070  -0.00028   2.88483
    R8        2.06019  -0.00005  -0.00006  -0.00011  -0.00017   2.06002
    R9        2.05832   0.00005   0.00003   0.00010   0.00013   2.05845
   R10        2.84650   0.00015   0.00013   0.00021   0.00034   2.84683
   R11        2.82156   0.00000   0.00014  -0.00021  -0.00007   2.82149
   R12        2.82476  -0.00012   0.00013  -0.00031  -0.00018   2.82458
   R13        2.86328  -0.00042   0.00061  -0.00160  -0.00099   2.86230
   R14        2.05427   0.00004  -0.00014   0.00019   0.00005   2.05432
   R15        2.05587  -0.00001  -0.00003  -0.00003  -0.00006   2.05581
   R16        2.05103  -0.00009   0.00010  -0.00013  -0.00003   2.05100
   R17        2.05579  -0.00001   0.00002  -0.00004  -0.00002   2.05578
   R18        2.05276   0.00006  -0.00025   0.00023  -0.00002   2.05274
   R19        2.05463  -0.00002   0.00002  -0.00007  -0.00005   2.05458
   R20        2.05613   0.00007  -0.00009   0.00012   0.00003   2.05616
   R21        2.05333  -0.00005   0.00005   0.00001   0.00006   2.05340
   R22        2.97590  -0.00025   0.00192  -0.00180   0.00012   2.97602
   R23        2.35204   0.00008   0.00001   0.00000   0.00002   2.35205
   R24        2.32086   0.00011  -0.00022   0.00008  -0.00014   2.32071
   R25        1.91052  -0.00009  -0.00034  -0.00001  -0.00035   1.91017
   R26        1.90784  -0.00011  -0.00050  -0.00003  -0.00052   1.90732
    A1        1.85989   0.00004   0.00024   0.00075   0.00099   1.86088
    A2        1.92175   0.00009   0.00144   0.00068   0.00212   1.92387
    A3        1.88430  -0.00011  -0.00211  -0.00026  -0.00238   1.88193
    A4        1.89732   0.00003   0.00009   0.00032   0.00041   1.89773
    A5        1.98644  -0.00011   0.00019  -0.00123  -0.00104   1.98540
    A6        1.91319   0.00005   0.00021  -0.00018   0.00003   1.91321
    A7        1.89963   0.00014   0.00293  -0.00019   0.00273   1.90235
    A8        1.88465   0.00012  -0.00244   0.00162  -0.00082   1.88383
    A9        2.00468  -0.00023   0.00124  -0.00095   0.00029   2.00497
   A10        1.83934  -0.00002   0.00053   0.00017   0.00070   1.84004
   A11        1.95622   0.00001  -0.00019  -0.00057  -0.00078   1.95544
   A12        1.87046  -0.00001  -0.00235   0.00013  -0.00222   1.86824
   A13        1.92300  -0.00011   0.00032  -0.00059  -0.00029   1.92271
   A14        1.93086  -0.00004  -0.00232   0.00092  -0.00139   1.92947
   A15        2.03969   0.00026   0.00229  -0.00040   0.00189   2.04157
   A16        1.87603   0.00003   0.00006  -0.00008  -0.00002   1.87601
   A17        1.84946  -0.00009   0.00143  -0.00090   0.00052   1.84998
   A18        1.83598  -0.00007  -0.00184   0.00106  -0.00077   1.83520
   A19        1.92945   0.00016  -0.00135   0.00256   0.00121   1.93066
   A20        1.87665   0.00002  -0.00163   0.00215   0.00053   1.87717
   A21        1.93726   0.00012   0.00047   0.00173   0.00221   1.93947
   A22        1.89484  -0.00007   0.00063  -0.00155  -0.00093   1.89391
   A23        1.91776  -0.00014   0.00100  -0.00240  -0.00140   1.91636
   A24        1.90684  -0.00011   0.00086  -0.00253  -0.00168   1.90516
   A25        1.86281   0.00000  -0.00011  -0.00015  -0.00026   1.86255
   A26        1.89499   0.00005  -0.00033   0.00053   0.00020   1.89519
   A27        1.90512   0.00008  -0.00000   0.00019   0.00019   1.90531
   A28        1.95478  -0.00006  -0.00006  -0.00041  -0.00047   1.95431
   A29        1.92253  -0.00005   0.00064  -0.00039   0.00026   1.92279
   A30        1.92198  -0.00002  -0.00016   0.00024   0.00008   1.92206
   A31        1.89611   0.00003  -0.00007   0.00035   0.00029   1.89640
   A32        1.87302  -0.00004   0.00005  -0.00025  -0.00020   1.87282
   A33        1.89097  -0.00002  -0.00012  -0.00008  -0.00020   1.89076
   A34        1.95443   0.00003   0.00014   0.00020   0.00034   1.95477
   A35        1.92158   0.00002  -0.00006   0.00028   0.00022   1.92180
   A36        1.92580  -0.00002   0.00005  -0.00050  -0.00046   1.92535
   A37        1.86067   0.00034  -0.00141   0.00195   0.00054   1.86121
   A38        1.86578   0.00041  -0.00117   0.00163   0.00046   1.86624
   A39        2.05302  -0.00128   0.00346  -0.00732  -0.00386   2.04916
   A40        1.90436  -0.00014  -0.00054   0.00135   0.00080   1.90517
   A41        1.89678   0.00041  -0.00016   0.00166   0.00149   1.89828
   A42        1.87962   0.00029  -0.00039   0.00118   0.00079   1.88041
   A43        2.05202  -0.00047   0.00169  -0.00283  -0.00115   2.05087
   A44        1.92237   0.00021   0.00039   0.00060   0.00098   1.92335
   A45        2.30863   0.00028  -0.00208   0.00237   0.00027   2.30890
   A46        1.94668  -0.00021  -0.00218  -0.00085  -0.00303   1.94365
   A47        1.94426  -0.00033  -0.00153  -0.00127  -0.00281   1.94146
   A48        1.87280   0.00026   0.00224   0.00020   0.00244   1.87524
    D1       -1.07558   0.00009   0.00223  -0.00241  -0.00019  -1.07577
    D2       -3.06390  -0.00002   0.00138  -0.00336  -0.00198  -3.06587
    D3        1.13359   0.00004   0.00532  -0.00407   0.00125   1.13485
    D4       -3.10700  -0.00004   0.00108  -0.00388  -0.00281  -3.10981
    D5        1.18787  -0.00015   0.00023  -0.00482  -0.00459   1.18328
    D6       -0.89782  -0.00008   0.00417  -0.00554  -0.00136  -0.89919
    D7        0.99489   0.00004   0.00064  -0.00244  -0.00180   0.99309
    D8       -0.99342  -0.00007  -0.00021  -0.00338  -0.00358  -0.99701
    D9       -3.07912  -0.00001   0.00374  -0.00409  -0.00035  -3.07947
   D10       -2.89095   0.00003  -0.03363  -0.00124  -0.03488  -2.92583
   D11       -0.79877  -0.00001  -0.03331  -0.00242  -0.03573  -0.83450
   D12       -0.83011  -0.00005  -0.03464  -0.00122  -0.03586  -0.86597
   D13        1.26207  -0.00009  -0.03432  -0.00240  -0.03672   1.22536
   D14        1.29873  -0.00005  -0.03424  -0.00180  -0.03604   1.26269
   D15       -2.89228  -0.00008  -0.03392  -0.00298  -0.03689  -2.92917
   D16        0.42312   0.00001   0.00239   0.00298   0.00537   0.42849
   D17        2.49511  -0.00004   0.00121   0.00309   0.00430   2.49940
   D18       -1.68833   0.00002  -0.00144   0.00496   0.00352  -1.68481
   D19        2.60294   0.00002   0.00724   0.00145   0.00869   2.61164
   D20       -1.60825  -0.00003   0.00606   0.00156   0.00762  -1.60064
   D21        0.49150   0.00003   0.00341   0.00344   0.00684   0.49834
   D22       -1.67044  -0.00000   0.00638   0.00143   0.00781  -1.66263
   D23        0.40155  -0.00005   0.00519   0.00154   0.00673   0.40828
   D24        2.50130   0.00001   0.00255   0.00341   0.00596   2.50726
   D25       -1.16748  -0.00007  -0.00820  -0.00257  -0.01077  -1.17825
   D26        3.04999  -0.00010  -0.00722  -0.00342  -0.01064   3.03936
   D27        0.96528  -0.00005  -0.00753  -0.00267  -0.01020   0.95509
   D28        2.96595  -0.00004  -0.01126  -0.00082  -0.01208   2.95387
   D29        0.90024  -0.00006  -0.01028  -0.00166  -0.01195   0.88829
   D30       -1.18447  -0.00002  -0.01060  -0.00091  -0.01151  -1.19598
   D31        0.98189  -0.00000  -0.01114  -0.00081  -0.01194   0.96995
   D32       -1.08381  -0.00003  -0.01016  -0.00165  -0.01181  -1.09562
   D33        3.11466   0.00001  -0.01047  -0.00090  -0.01137   3.10329
   D34       -3.12139   0.00004   0.00128  -0.00191  -0.00063  -3.12202
   D35       -1.01111   0.00000   0.00097  -0.00219  -0.00122  -1.01233
   D36        1.08434   0.00005   0.00058  -0.00148  -0.00089   1.08345
   D37       -1.06681   0.00012  -0.00110   0.00124   0.00015  -1.06666
   D38        1.04347   0.00008  -0.00141   0.00096  -0.00044   1.04302
   D39        3.13892   0.00013  -0.00179   0.00168  -0.00012   3.13880
   D40        1.01763  -0.00013   0.00091  -0.00419  -0.00328   1.01435
   D41        3.12791  -0.00017   0.00060  -0.00447  -0.00387   3.12404
   D42       -1.05983  -0.00012   0.00021  -0.00375  -0.00354  -1.06336
   D43        1.00332   0.00003  -0.00355   0.00253  -0.00102   1.00231
   D44        3.11972   0.00006  -0.00340   0.00283  -0.00057   3.11915
   D45       -1.08406   0.00001  -0.00338   0.00205  -0.00133  -1.08539
   D46       -1.08458  -0.00014  -0.00137  -0.00087  -0.00224  -1.08682
   D47        1.03182  -0.00011  -0.00121  -0.00058  -0.00179   1.03002
   D48        3.11123  -0.00017  -0.00119  -0.00136  -0.00255   3.10867
   D49        3.10735   0.00014  -0.00345   0.00444   0.00099   3.10833
   D50       -1.05945   0.00016  -0.00329   0.00473   0.00144  -1.05801
   D51        1.01996   0.00011  -0.00328   0.00395   0.00068   1.02064
   D52        0.92174   0.00005  -0.00854   0.01102   0.00249   0.92423
   D53       -1.11327  -0.00015  -0.00665   0.00772   0.00107  -1.11220
   D54        3.05507  -0.00001  -0.00753   0.00979   0.00226   3.05733
   D55        3.06130   0.00024  -0.00924   0.01378   0.00454   3.06584
   D56        1.02628   0.00004  -0.00735   0.01048   0.00313   1.02941
   D57       -1.08855   0.00019  -0.00823   0.01255   0.00431  -1.08424
   D58       -1.14480   0.00001  -0.00736   0.00892   0.00155  -1.14324
   D59        3.10337  -0.00019  -0.00547   0.00561   0.00014   3.10351
   D60        0.98853  -0.00004  -0.00636   0.00768   0.00133   0.98986
   D61        0.10110  -0.00023   0.00121  -0.00506  -0.00385   0.09725
   D62       -3.05736   0.00025   0.00065   0.00222   0.00287  -3.05449
   D63        2.21583  -0.00034   0.00166  -0.00631  -0.00466   2.21117
   D64       -0.94262   0.00013   0.00109   0.00097   0.00206  -0.94057
   D65       -2.00656  -0.00013   0.00071  -0.00316  -0.00245  -2.00901
   D66        1.11817   0.00035   0.00014   0.00412   0.00426   1.12244
         Item               Value     Threshold  Converged?
 Maximum Force            0.001278     0.000450     NO 
 RMS     Force            0.000199     0.000300     YES
 Maximum Displacement     0.066788     0.001800     NO 
 RMS     Displacement     0.010591     0.001200     NO 
 Predicted change in Energy=-2.387138D-05
 GradGradGradGradGradGradGradGradGradGradGradGradGradGradGradGradGradGrad

                          Input orientation:                          
 ---------------------------------------------------------------------
 Center     Atomic      Atomic             Coordinates (Angstroms)
 Number     Number       Type             X           Y           Z
 ---------------------------------------------------------------------
      1          6           0        1.264494    0.537070   -0.351440
      2          1           0        0.550571    1.355256   -0.433095
      3          1           0        1.551904    0.266940   -1.377598
      4          6           0        0.606743   -0.674440    0.309183
      5          1           0        0.290873   -0.401656    1.315637
      6          1           0        1.372466   -1.441596    0.442929
      7          6           0       -0.525855   -1.308131   -0.494635
      8          1           0       -0.403734   -1.086590   -1.554995
      9          1           0       -0.514139   -2.391631   -0.383150
     10          7           0       -1.930026   -0.891278   -0.142472
     11          6           0       -2.299172   -1.383798    1.217824
     12          1           0       -3.323485   -1.067224    1.397677
     13          1           0       -2.199187   -2.466971    1.233370
     14          1           0       -1.635212   -0.936915    1.950912
     15          6           0       -2.849934   -1.518091   -1.139975
     16          1           0       -2.708585   -2.596430   -1.114163
     17          1           0       -3.862669   -1.233832   -0.868807
     18          1           0       -2.600459   -1.131833   -2.125191
     19          6           0       -2.083627    0.614394   -0.202126
     20          1           0       -1.729263    0.925122   -1.182827
     21          1           0       -1.430812    1.029498    0.560925
     22          6           0       -3.525283    1.205645    0.026304
     23          8           0       -4.428348    0.411162    0.346347
     24          8           0       -3.517573    2.421262   -0.147956
     25          7           0        2.375758    0.995879    0.466589
     26          1           0        3.158933    0.358957    0.414460
     27          1           0        2.702137    1.902055    0.164877
 ---------------------------------------------------------------------
                    Distance matrix (angstroms):
                    1          2          3          4          5
     1  C    0.000000
     2  H    1.088936   0.000000
     3  H    1.099352   1.754761   0.000000
     4  C    1.528665   2.161897   2.150525   0.000000
     5  H    2.146693   2.492437   3.048071   1.089557   0.000000
     6  H    2.134900   3.043897   2.503121   1.092130   1.735782
     7  C    2.575000   2.873345   2.752737   1.526587   2.183078
     8  H    2.620650   2.851661   2.384961   2.160114   3.031855
     9  H    3.426635   3.895544   3.510764   2.164358   2.737503
    10  N    3.505540   3.359277   3.871802   2.585771   2.701519
    11  C    4.341894   4.283572   4.928686   3.126206   2.771734
    12  H    5.165532   4.922239   5.766417   4.097046   3.676044
    13  H    4.851079   4.994766   5.325609   3.455507   3.236154
    14  H    3.985192   3.964238   4.762978   2.791152   2.097590
    15  C    4.666262   4.507687   4.755942   3.841930   4.140185
    16  H    5.117219   5.167376   5.140045   4.087954   4.440464
    17  H    5.448997   5.135164   5.641701   4.655774   4.766155
    18  H    4.568293   4.356351   4.444951   4.052349   4.553269
    19  C    3.352341   2.746129   3.836607   3.026652   2.995700
    20  H    3.131193   2.438187   3.352193   3.200252   3.476149
    21  H    2.887831   2.240551   3.638126   2.668034   2.362624
    22  C    4.850943   4.104389   5.350695   4.548448   4.336916
    23  O    5.736830   5.127229   6.225449   5.150928   4.885821
    24  O    5.143905   4.215148   5.643822   5.177097   4.961375
    25  N    1.454160   2.066371   2.147350   2.438063   2.649666
    26  H    2.051152   2.917964   2.408834   2.755479   3.101035
    27  H    2.048556   2.299086   2.525047   3.324128   3.527821
                    6          7          8          9         10
     6  H    0.000000
     7  C    2.121430   0.000000
     8  H    2.696779   1.090118   0.000000
     9  H    2.268095   1.089283   1.757424   0.000000
    10  N    3.398824   1.506480   2.088764   2.076950   0.000000
    11  C    3.752963   2.466352   3.371875   2.600998   1.493067
    12  H    4.806626   3.386091   4.152540   3.580199   2.084404
    13  H    3.799065   2.670009   3.592225   2.336279   2.109074
    14  H    3.402182   2.710936   3.718915   2.969992   2.114534
    15  C    4.510000   2.421134   2.518398   2.606107   1.494703
    16  H    4.518093   2.609184   2.790392   2.322050   2.111370
    17  H    5.400969   3.358549   3.529414   3.576173   2.092849
    18  H    4.740816   2.644575   2.269971   2.995752   2.106780
    19  C    4.072809   2.491650   2.746934   3.395917   1.514662
    20  H    4.226720   2.628539   2.437728   3.621720   2.102844
    21  H    3.738796   2.719864   3.163832   3.665472   2.105555
    22  C    5.582957   3.948039   4.183170   4.709037   2.640154
    23  O    6.090279   4.346570   4.696369   4.869174   2.859529
    24  O    6.259657   4.793635   4.897018   5.678017   3.673317
    25  N    2.635989   3.827763   4.018589   4.533076   4.740474
    26  H    2.536585   4.145274   4.319833   4.657614   5.269798
    27  H    3.609063   4.600020   4.640732   5.392634   5.417943
                   11         12         13         14         15
    11  C    0.000000
    12  H    1.087098   0.000000
    13  H    1.087889   1.802869   0.000000
    14  H    1.085342   1.781380   1.781574   0.000000
    15  C    2.424993   2.620536   2.637539   3.371483   0.000000
    16  H    2.660124   3.004316   2.405651   3.647027   1.087870
    17  H    2.611713   2.335686   2.950755   3.605627   1.086263
    18  H    3.366008   3.596879   3.636419   4.193366   1.087237
    19  C    2.460790   2.631436   3.401296   2.691321   2.452403
    20  H    3.379206   3.629047   4.191077   3.646416   2.688314
    21  H    2.647558   2.945947   3.642510   2.416738   3.375971
    22  C    3.102947   2.662202   4.087010   3.444858   3.038921
    23  O    2.918004   2.124063   3.746949   3.491927   2.902165
    24  O    4.222362   3.820496   5.247955   4.384734   4.116838
    25  N    5.299263   6.132266   5.788730   4.693271   6.017387
    26  H    5.785629   6.709877   6.112767   5.198442   6.484294
    27  H    6.076070   6.829680   6.652295   5.482907   6.650228
                   16         17         18         19         20
    16  H    0.000000
    17  H    1.802438   0.000000
    18  H    1.782951   1.783838   0.000000
    19  C    3.395847   2.650546   2.648510   0.000000
    20  H    3.655833   3.051412   2.424479   1.088072   0.000000
    21  H    4.193564   3.616729   3.640693   1.086612   1.772184
    22  C    4.052584   2.620325   3.308781   1.574842   2.183204
    23  O    3.759825   2.121933   3.439551   2.416576   3.144454
    24  O    5.173515   3.741448   4.168339   2.307360   2.550970
    25  N    6.422928   6.758170   6.000601   4.525354   4.424565
    26  H    6.745278   7.313457   6.468607   5.284871   5.173618
    27  H    7.151799   7.348399   6.524294   4.969537   4.733710
                   21         22         23         24         25
    21  H    0.000000
    22  C    2.168791   0.000000
    23  O    3.068160   1.244652   0.000000
    24  O    2.606548   1.228068   2.261493   0.000000
    25  N    3.807887   5.921159   6.830242   6.094320   0.000000
    26  H    4.640779   6.748799   7.587767   7.010360   1.010817
    27  H    4.242579   6.267770   7.286941   6.249179   1.009311
                   26         27
    26  H    0.000000
    27  H    1.628529   0.000000
 Stoichiometry    C7H16N2O2
 Framework group  C1[X(C7H16N2O2)]
 Deg. of freedom    75
 Full point group                 C1      NOp   1
 Largest Abelian subgroup         C1      NOp   1
 Largest concise Abelian subgroup C1      NOp   1
                         Standard orientation:                         
 ---------------------------------------------------------------------
 Center     Atomic      Atomic             Coordinates (Angstroms)
 Number     Number       Type             X           Y           Z
 ---------------------------------------------------------------------
      1          6           0        2.689335    0.613279   -0.418200
      2          1           0        1.948334    1.404987   -0.517686
      3          1           0        2.963139    0.308840   -1.438456
      4          6           0        2.084462   -0.588744    0.307117
      5          1           0        1.781714   -0.283363    1.308226
      6          1           0        2.876726   -1.325696    0.455333
      7          6           0        0.955530   -1.290374   -0.443680
      8          1           0        1.047899   -1.110335   -1.514853
      9          1           0        1.003856   -2.367305   -0.287406
     10          7           0       -0.453263   -0.902231   -0.077445
     11          6           0       -0.777505   -1.347742    1.310228
     12          1           0       -1.807230   -1.055393    1.499912
     13          1           0       -0.643035   -2.425706    1.368655
     14          1           0       -0.112479   -0.850036    2.008795
     15          6           0       -1.374016   -1.598679   -1.026820
     16          1           0       -1.198147   -2.670112   -0.959278
     17          1           0       -2.389200   -1.334376   -0.744840
     18          1           0       -1.157984   -1.247057   -2.032691
     19          6           0       -0.655601    0.594140   -0.196333
     20          1           0       -0.332273    0.873743   -1.196923
     21          1           0       -0.000068    1.061038    0.533741
     22          6           0       -2.110007    1.150048    0.039886
     23          8           0       -2.980472    0.342521    0.413182
     24          8           0       -2.144437    2.356851   -0.185042
     25          7           0        3.802777    1.140214    0.354568
     26          1           0        4.604393    0.525974    0.311293
     27          1           0        4.093838    2.042371    0.008007
 ---------------------------------------------------------------------
 Rotational constants (GHZ):           1.5651437           0.6295136           0.5094275
 Standard basis: 6-311+G(2d,2p) (5D, 7F)
 There are   463 symmetry adapted cartesian basis functions of A   symmetry.
 There are   441 symmetry adapted basis functions of A   symmetry.
   441 basis functions,   638 primitive gaussians,   463 cartesian basis functions
    44 alpha electrons       44 beta electrons
       nuclear repulsion energy       682.1425715487 Hartrees.
 NAtoms=   27 NActive=   27 NUniq=   27 SFac= 1.00D+00 NAtFMM=   60 NAOKFM=F Big=F
 Integral buffers will be    131072 words long.
 Raffenetti 2 integral format.
 Two-electron integral symmetry is turned on.
 Nuclear repulsion after empirical dispersion term =      682.1210320391 Hartrees.
 One-electron integrals computed using PRISM.
 NBasis=   441 RedAO= T EigKep=  1.18D-05  NBF=   441
 NBsUse=   441 1.00D-06 EigRej= -1.00D+00 NBFU=   441
 Initial guess from the checkpoint file:  "aminopropyl_betaine_h.chk"
 B after Tr=    -0.000000    0.000000   -0.000000
         Rot=    1.000000   -0.000575    0.000417    0.000250 Ang=  -0.09 deg.
 ExpMin= 4.38D-02 ExpMax= 8.59D+03 ExpMxC= 1.30D+03 IAcc=2 IRadAn=         4 AccDes= 0.00D+00
 Harris functional with IExCor= 4639 and IRadAn=       4 diagonalized for initial guess.
 HarFok:  IExCor= 4639 AccDes= 0.00D+00 IRadAn=         4 IDoV= 1 UseB2=F ITyADJ=14
 ICtDFT=  3500011 ScaDFX=  1.000000  1.000000  1.000000  1.000000
 FoFCou: FMM=F IPFlag=           0 FMFlag=      100000 FMFlg1=           0
         NFxFlg=           0 DoJE=T BraDBF=F KetDBF=T FulRan=T
         wScrn=  0.000000 ICntrl=       500 IOpCl=  0 I1Cent=   200000004 NGrid=           0
         NMat0=    1 NMatS0=      1 NMatT0=    0 NMatD0=    1 NMtDS0=    0 NMtDT0=    0
 Petite list used in FoFCou.
 Requested convergence on RMS density matrix=1.00D-08 within  32 cycles.
 Requested convergence on MAX density matrix=1.00D-06.
 Requested convergence on             energy=1.00D-06.
 No special actions if energy rises.
 SCF Done:  E(RwB97XD) =  -536.304420493     A.U. after   11 cycles
            NFock= 11  Conv=0.70D-08     -V/T= 2.0039
 QCSCF skips out because SCF is already converged.
 Calling FoFJK, ICntrl=      2127 FMM=F ISym2X=0 I1Cent= 0 IOpClX= 0 NMat=1 NMatS=1 NMatT=0.
 ***** Axes restored to original set *****
 -------------------------------------------------------------------
 Center     Atomic                   Forces (Hartrees/Bohr)
 Number     Number              X              Y              Z
 -------------------------------------------------------------------
      1        6          -0.000577983   -0.000223261   -0.000308802
      2        1          -0.000123266    0.000027545    0.000002457
      3        1           0.000049939   -0.000052681    0.000102756
      4        6           0.000507962    0.000425490    0.000216479
      5        1           0.000011963    0.000017195   -0.000060624
      6        1          -0.000061596   -0.000116617    0.000069405
      7        6          -0.000290239   -0.000251668   -0.000121086
      8        1          -0.000044933    0.000064150    0.000019325
      9        1          -0.000018961   -0.000020574   -0.000112135
     10        7           0.000007908    0.000112660   -0.000069809
     11        6           0.000144746   -0.000100050    0.000146119
     12        1           0.000009786   -0.000035497    0.000015866
     13        1           0.000003414   -0.000019670    0.000002989
     14        1           0.000084893    0.000014226   -0.000000358
     15        6           0.000055354   -0.000180216   -0.000163314
     16        1           0.000034001   -0.000004038   -0.000008166
     17        1          -0.000024125   -0.000011146    0.000021193
     18        1           0.000016692   -0.000014458   -0.000018459
     19        6           0.000206439   -0.000064950    0.000155679
     20        1          -0.000057633    0.000065765   -0.000012735
     21        1          -0.000008056    0.000082286   -0.000078011
     22        6           0.000212952    0.000091986   -0.000297085
     23        8          -0.000358702    0.000104142    0.000147647
     24        8          -0.000037254    0.000066158    0.000070128
     25        7          -0.000061910   -0.000129653    0.000435568
     26        1           0.000211146   -0.000003235   -0.000089126
     27        1           0.000107461    0.000156112   -0.000065899
 -------------------------------------------------------------------
 Cartesian Forces:  Max     0.000577983 RMS     0.000159445

 GradGradGradGradGradGradGradGradGradGradGradGradGradGradGradGradGradGrad
 Berny optimization.
 Using GEDIIS/GDIIS optimizer.
 FormGI is forming the generalized inverse of G from B-inverse, IUseBI=4.
 Internal  Forces:  Max     0.000781405 RMS     0.000144157
 Search for a local minimum.
 Step number   9 out of a maximum of  150
 All quantities printed in internal units (Hartrees-Bohrs-Radians)
 Mixed Optimization -- En-DIIS/RFO-DIIS
 Swapping is turned off.
 Update second derivatives using D2CorX and points    5    4    6    7    8
                                                      9
 DE= -8.37D-06 DEPred=-2.39D-05 R= 3.50D-01
 Trust test= 3.50D-01 RLast= 9.84D-02 DXMaxT set to 3.18D-01
 ITU=  0  1  1  0 -1  0 -1  1  0
     Eigenvalues ---    0.00155   0.00239   0.00336   0.00381   0.00433
     Eigenvalues ---    0.00449   0.00654   0.01515   0.03262   0.03476
     Eigenvalues ---    0.03909   0.04003   0.04423   0.04678   0.04766
     Eigenvalues ---    0.05043   0.05208   0.05266   0.05553   0.05970
     Eigenvalues ---    0.06068   0.06143   0.06235   0.06290   0.08360
     Eigenvalues ---    0.08948   0.09156   0.09375   0.09959   0.12426
     Eigenvalues ---    0.12668   0.12821   0.13648   0.14540   0.14823
     Eigenvalues ---    0.15879   0.16000   0.16002   0.16005   0.16012
     Eigenvalues ---    0.16022   0.16110   0.17713   0.20563   0.22643
     Eigenvalues ---    0.24524   0.25437   0.26160   0.27732   0.29828
     Eigenvalues ---    0.30035   0.30858   0.32655   0.32945   0.33424
     Eigenvalues ---    0.33757   0.34810   0.34825   0.34952   0.34980
     Eigenvalues ---    0.35021   0.35068   0.35080   0.35102   0.35135
     Eigenvalues ---    0.35163   0.35211   0.35278   0.35316   0.36079
     Eigenvalues ---    0.47683   0.47867   0.51892   0.85788   0.92236
 En-DIIS/RFO-DIIS/Sim-DIIS IScMMF=       -3 using points:     9    8    7    6
 RFO step:  Lambda=-1.44229313D-05.
 DidBck=T Rises=F RFO-DIIS coefs:    0.70937    0.25856   -0.00722    0.03930
 Iteration  1 RMS(Cart)=  0.00589011 RMS(Int)=  0.00002346
 Iteration  2 RMS(Cart)=  0.00002752 RMS(Int)=  0.00000050
 Iteration  3 RMS(Cart)=  0.00000000 RMS(Int)=  0.00000050
 Variable       Old X    -DE/DX   Delta X   Delta X   Delta X     New X
                                 (Linear)    (Quad)   (Total)
    R1        2.05779   0.00010   0.00007   0.00011   0.00018   2.05797
    R2        2.07747  -0.00007  -0.00001  -0.00036  -0.00037   2.07710
    R3        2.88876  -0.00038   0.00055  -0.00155  -0.00100   2.88776
    R4        2.74796   0.00036  -0.00080   0.00212   0.00133   2.74929
    R5        2.05896  -0.00006  -0.00007  -0.00019  -0.00025   2.05871
    R6        2.06383   0.00005  -0.00003   0.00002  -0.00002   2.06381
    R7        2.88483   0.00024   0.00014   0.00087   0.00101   2.88584
    R8        2.06002  -0.00001   0.00005  -0.00007  -0.00001   2.06001
    R9        2.05845   0.00001  -0.00004   0.00006   0.00002   2.05847
   R10        2.84683  -0.00026  -0.00013  -0.00022  -0.00034   2.84649
   R11        2.82149   0.00014  -0.00000   0.00037   0.00037   2.82186
   R12        2.82458   0.00015   0.00005   0.00015   0.00020   2.82478
   R13        2.86230   0.00035   0.00022   0.00034   0.00057   2.86286
   R14        2.05432  -0.00002  -0.00000  -0.00002  -0.00002   2.05430
   R15        2.05581   0.00002   0.00002   0.00003   0.00004   2.05586
   R16        2.05100   0.00006   0.00001  -0.00002  -0.00001   2.05099
   R17        2.05578   0.00001   0.00000  -0.00000  -0.00000   2.05578
   R18        2.05274   0.00003   0.00002   0.00009   0.00011   2.05285
   R19        2.05458   0.00002   0.00001   0.00002   0.00003   2.05461
   R20        2.05616   0.00001  -0.00000   0.00007   0.00007   2.05623
   R21        2.05340  -0.00003  -0.00002  -0.00012  -0.00014   2.05326
   R22        2.97602   0.00025  -0.00016   0.00048   0.00032   2.97634
   R23        2.35205   0.00023  -0.00000   0.00018   0.00017   2.35223
   R24        2.32071   0.00006   0.00006   0.00003   0.00009   2.32080
   R25        1.91017   0.00017   0.00011  -0.00002   0.00009   1.91026
   R26        1.90732   0.00019   0.00018   0.00001   0.00019   1.90751
    A1        1.86088   0.00002  -0.00029   0.00071   0.00042   1.86130
    A2        1.92387  -0.00005  -0.00070   0.00031  -0.00039   1.92348
    A3        1.88193   0.00008   0.00082  -0.00029   0.00053   1.88246
    A4        1.89773   0.00005  -0.00011   0.00038   0.00027   1.89800
    A5        1.98540   0.00002   0.00022  -0.00107  -0.00085   1.98455
    A6        1.91321  -0.00013   0.00001   0.00000   0.00001   1.91323
    A7        1.90235   0.00001  -0.00100   0.00020  -0.00079   1.90156
    A8        1.88383   0.00022   0.00046   0.00145   0.00190   1.88574
    A9        2.00497  -0.00026  -0.00020  -0.00133  -0.00153   2.00344
   A10        1.84004  -0.00005  -0.00023   0.00030   0.00008   1.84012
   A11        1.95544   0.00007   0.00019  -0.00051  -0.00032   1.95512
   A12        1.86824   0.00002   0.00083   0.00011   0.00094   1.86918
   A13        1.92271   0.00018   0.00010  -0.00033  -0.00023   1.92249
   A14        1.92947   0.00014   0.00056   0.00075   0.00131   1.93078
   A15        2.04157  -0.00050  -0.00079  -0.00030  -0.00109   2.04048
   A16        1.87601  -0.00008   0.00002  -0.00008  -0.00006   1.87595
   A17        1.84998   0.00008  -0.00023  -0.00069  -0.00092   1.84906
   A18        1.83520   0.00020   0.00038   0.00064   0.00101   1.83622
   A19        1.93066  -0.00012  -0.00030  -0.00016  -0.00046   1.93020
   A20        1.87717   0.00000   0.00003  -0.00061  -0.00058   1.87659
   A21        1.93947  -0.00012  -0.00068  -0.00029  -0.00097   1.93850
   A22        1.89391   0.00004   0.00025   0.00019   0.00044   1.89434
   A23        1.91636   0.00013   0.00032   0.00060   0.00092   1.91728
   A24        1.90516   0.00007   0.00041   0.00026   0.00067   1.90584
   A25        1.86255   0.00006   0.00009   0.00022   0.00031   1.86286
   A26        1.89519  -0.00000  -0.00003   0.00001  -0.00002   1.89517
   A27        1.90531  -0.00008  -0.00009   0.00007  -0.00001   1.90530
   A28        1.95431  -0.00002   0.00015  -0.00031  -0.00016   1.95415
   A29        1.92279   0.00003  -0.00011   0.00010  -0.00001   1.92277
   A30        1.92206   0.00001  -0.00001  -0.00008  -0.00009   1.92197
   A31        1.89640  -0.00003  -0.00008  -0.00006  -0.00013   1.89627
   A32        1.87282   0.00001   0.00006  -0.00009  -0.00003   1.87279
   A33        1.89076   0.00001   0.00007  -0.00006   0.00001   1.89078
   A34        1.95477   0.00001  -0.00011   0.00019   0.00008   1.95485
   A35        1.92180  -0.00001  -0.00006  -0.00004  -0.00010   1.92170
   A36        1.92535   0.00001   0.00012   0.00004   0.00017   1.92551
   A37        1.86121  -0.00018  -0.00006  -0.00010  -0.00017   1.86105
   A38        1.86624  -0.00013  -0.00004   0.00070   0.00066   1.86691
   A39        2.04916   0.00078   0.00082   0.00081   0.00163   2.05079
   A40        1.90517   0.00006  -0.00019  -0.00032  -0.00050   1.90467
   A41        1.89828  -0.00030  -0.00041  -0.00085  -0.00126   1.89701
   A42        1.88041  -0.00025  -0.00017  -0.00028  -0.00045   1.87996
   A43        2.05087   0.00046   0.00021   0.00062   0.00083   2.05170
   A44        1.92335  -0.00017  -0.00029  -0.00024  -0.00053   1.92282
   A45        2.30890  -0.00029   0.00006  -0.00037  -0.00031   2.30859
   A46        1.94365   0.00005   0.00100  -0.00088   0.00012   1.94377
   A47        1.94146   0.00000   0.00088  -0.00133  -0.00044   1.94101
   A48        1.87524  -0.00008  -0.00083   0.00023  -0.00060   1.87464
    D1       -1.07577   0.00004  -0.00010  -0.00480  -0.00490  -1.08067
    D2       -3.06587  -0.00002   0.00043  -0.00602  -0.00558  -3.07146
    D3        1.13485  -0.00004  -0.00082  -0.00635  -0.00717   1.12768
    D4       -3.10981   0.00001   0.00070  -0.00605  -0.00535  -3.11516
    D5        1.18328  -0.00005   0.00124  -0.00727  -0.00603   1.17725
    D6       -0.89919  -0.00007  -0.00002  -0.00760  -0.00762  -0.90680
    D7        0.99309   0.00004   0.00049  -0.00497  -0.00448   0.98861
    D8       -0.99701  -0.00003   0.00102  -0.00618  -0.00516  -1.00217
    D9       -3.07947  -0.00005  -0.00023  -0.00652  -0.00675  -3.08622
   D10       -2.92583   0.00001   0.01249   0.00105   0.01354  -2.91229
   D11       -0.83450  -0.00006   0.01271  -0.00014   0.01257  -0.82194
   D12       -0.86597   0.00010   0.01282   0.00110   0.01391  -0.85205
   D13        1.22536   0.00003   0.01304  -0.00010   0.01294   1.23830
   D14        1.26269   0.00009   0.01284   0.00085   0.01369   1.27638
   D15       -2.92917   0.00002   0.01306  -0.00034   0.01271  -2.91646
   D16        0.42849   0.00004  -0.00146   0.00065  -0.00081   0.42768
   D17        2.49940   0.00013  -0.00102   0.00081  -0.00021   2.49919
   D18       -1.68481   0.00016  -0.00064   0.00205   0.00141  -1.68340
   D19        2.61164  -0.00009  -0.00282  -0.00060  -0.00342   2.60822
   D20       -1.60064   0.00001  -0.00239  -0.00043  -0.00282  -1.60346
   D21        0.49834   0.00003  -0.00201   0.00081  -0.00120   0.49714
   D22       -1.66263  -0.00010  -0.00250  -0.00044  -0.00294  -1.66557
   D23        0.40828   0.00000  -0.00207  -0.00028  -0.00234   0.40594
   D24        2.50726   0.00002  -0.00169   0.00097  -0.00072   2.50653
   D25       -1.17825   0.00002   0.00431  -0.00091   0.00340  -1.17485
   D26        3.03936   0.00004   0.00416  -0.00068   0.00348   3.04284
   D27        0.95509   0.00002   0.00404  -0.00046   0.00358   0.95867
   D28        2.95387   0.00007   0.00490   0.00027   0.00516   2.95903
   D29        0.88829   0.00008   0.00475   0.00049   0.00524   0.89353
   D30       -1.19598   0.00006   0.00462   0.00072   0.00534  -1.19064
   D31        0.96995   0.00004   0.00481   0.00037   0.00518   0.97514
   D32       -1.09562   0.00005   0.00467   0.00059   0.00526  -1.09036
   D33        3.10329   0.00004   0.00454   0.00082   0.00536   3.10865
   D34       -3.12202  -0.00004  -0.00008   0.00083   0.00075  -3.12127
   D35       -1.01233  -0.00002   0.00013   0.00059   0.00072  -1.01161
   D36        1.08345  -0.00006   0.00005   0.00055   0.00059   1.08404
   D37       -1.06666  -0.00008  -0.00007   0.00011   0.00004  -1.06662
   D38        1.04302  -0.00007   0.00014  -0.00013   0.00001   1.04304
   D39        3.13880  -0.00010   0.00006  -0.00017  -0.00011   3.13869
   D40        1.01435   0.00011   0.00076   0.00090   0.00166   1.01601
   D41        3.12404   0.00012   0.00097   0.00066   0.00163   3.12567
   D42       -1.06336   0.00009   0.00089   0.00062   0.00151  -1.06186
   D43        1.00231  -0.00002   0.00050  -0.00000   0.00050   1.00280
   D44        3.11915  -0.00002   0.00036   0.00014   0.00050   3.11965
   D45       -1.08539   0.00000   0.00057   0.00011   0.00068  -1.08471
   D46       -1.08682   0.00010   0.00071   0.00043   0.00114  -1.08568
   D47        1.03002   0.00010   0.00057   0.00057   0.00113   1.03116
   D48        3.10867   0.00012   0.00078   0.00054   0.00132   3.10999
   D49        3.10833  -0.00012  -0.00006  -0.00057  -0.00063   3.10771
   D50       -1.05801  -0.00013  -0.00020  -0.00043  -0.00063  -1.05864
   D51        1.02064  -0.00010   0.00001  -0.00046  -0.00044   1.02020
   D52        0.92423   0.00002   0.00008  -0.00048  -0.00040   0.92383
   D53       -1.11220   0.00010   0.00034  -0.00040  -0.00006  -1.11227
   D54        3.05733   0.00001   0.00004  -0.00113  -0.00109   3.05625
   D55        3.06584  -0.00013  -0.00055  -0.00046  -0.00101   3.06483
   D56        1.02941  -0.00004  -0.00028  -0.00039  -0.00067   1.02873
   D57       -1.08424  -0.00014  -0.00058  -0.00111  -0.00170  -1.08594
   D58       -1.14324   0.00005   0.00019   0.00029   0.00048  -1.14277
   D59        3.10351   0.00013   0.00045   0.00036   0.00081   3.10432
   D60        0.98986   0.00004   0.00015  -0.00036  -0.00021   0.98965
   D61        0.09725   0.00009   0.00089  -0.00095  -0.00007   0.09718
   D62       -3.05449  -0.00002  -0.00099   0.00021  -0.00078  -3.05527
   D63        2.21117   0.00016   0.00105  -0.00120  -0.00015   2.21102
   D64       -0.94057   0.00005  -0.00083  -0.00004  -0.00086  -0.94143
   D65       -2.00901  -0.00007   0.00051  -0.00220  -0.00169  -2.01070
   D66        1.12244  -0.00018  -0.00137  -0.00103  -0.00240   1.12004
         Item               Value     Threshold  Converged?
 Maximum Force            0.000781     0.000450     NO 
 RMS     Force            0.000144     0.000300     YES
 Maximum Displacement     0.030756     0.001800     NO 
 RMS     Displacement     0.005896     0.001200     NO 
 Predicted change in Energy=-7.213497D-06
 GradGradGradGradGradGradGradGradGradGradGradGradGradGradGradGradGradGrad

                          Input orientation:                          
 ---------------------------------------------------------------------
 Center     Atomic      Atomic             Coordinates (Angstroms)
 Number     Number       Type             X           Y           Z
 ---------------------------------------------------------------------
      1          6           0        1.262441    0.534032   -0.350772
      2          1           0        0.545429    1.349314   -0.435626
      3          1           0        1.555363    0.264465   -1.375309
      4          6           0        0.606858   -0.679061    0.307878
      5          1           0        0.290850   -0.407451    1.314460
      6          1           0        1.372250   -1.446681    0.440791
      7          6           0       -0.526840   -1.310189   -0.497421
      8          1           0       -0.405843   -1.084240   -1.556972
      9          1           0       -0.516088   -2.394185   -0.390654
     10          7           0       -1.929833   -0.892120   -0.142793
     11          6           0       -2.296015   -1.383704    1.218857
     12          1           0       -3.319967   -1.067298    1.400981
     13          1           0       -2.195845   -2.466875    1.234996
     14          1           0       -1.630441   -0.936267    1.950132
     15          6           0       -2.851592   -1.519528   -1.138367
     16          1           0       -2.710849   -2.597917   -1.111364
     17          1           0       -3.863805   -1.234217   -0.866116
     18          1           0       -2.603077   -1.134756   -2.124425
     19          6           0       -2.081167    0.614024   -0.203930
     20          1           0       -1.727833    0.922910   -1.185626
     21          1           0       -1.426464    1.029610    0.557131
     22          6           0       -3.520909    1.210206    0.024903
     23          8           0       -4.426975    0.419735    0.346756
     24          8           0       -3.508673    2.425697   -0.150298
     25          7           0        2.369655    0.997441    0.471391
     26          1           0        3.160022    0.369985    0.412469
     27          1           0        2.685861    1.909892    0.177531
 ---------------------------------------------------------------------
                    Distance matrix (angstroms):
                    1          2          3          4          5
     1  C    0.000000
     2  H    1.089032   0.000000
     3  H    1.099156   1.754955   0.000000
     4  C    1.528137   2.161221   2.150121   0.000000
     5  H    2.145549   2.492757   3.047183   1.089423   0.000000
     6  H    2.135850   3.044557   2.501953   1.092122   1.735720
     7  C    2.573748   2.868194   2.754232   1.527122   2.183224
     8  H    2.618567   2.843329   2.387119   2.160416   3.031262
     9  H    3.426252   3.891352   3.511249   2.165780   2.739649
    10  N    3.502539   3.352118   3.873419   2.585208   2.699986
    11  C    4.336364   4.275571   4.927400   3.122992   2.766601
    12  H    5.160558   4.914715   5.766301   4.094576   3.671632
    13  H    4.845601   4.986869   5.324047   3.451228   3.229736
    14  H    3.978028   3.956025   4.759167   2.787232   2.091670
    15  C    4.665049   4.501539   4.760255   3.841730   4.138601
    16  H    5.116115   5.161453   5.144265   4.086983   4.437675
    17  H    5.447080   5.128479   5.645592   4.655458   4.764411
    18  H    4.568689   4.351521   4.451025   4.053077   4.552990
    19  C    3.347786   2.737396   3.836492   3.026465   2.995895
    20  H    3.128888   2.431468   3.353938   3.201194   3.477840
    21  H    2.880988   2.230725   3.634702   2.667598   2.363866
    22  C    4.845491   4.094697   5.350099   4.548391   4.336967
    23  O    5.733154   5.118694   6.227197   5.152507   4.886569
    24  O    5.136353   4.204255   5.640571   5.175620   4.960708
    25  N    1.454862   2.067437   2.147237   2.438206   2.646869
    26  H    2.051892   2.917952   2.404623   2.762260   3.106467
    27  H    2.048956   2.296010   2.529183   3.322939   3.521188
                    6          7          8          9         10
     6  H    0.000000
     7  C    2.122596   0.000000
     8  H    2.698895   1.090110   0.000000
     9  H    2.270436   1.089294   1.757386   0.000000
    10  N    3.398803   1.506298   2.087908   2.077574   0.000000
    11  C    3.750402   2.465968   3.371595   2.603793   1.493263
    12  H    4.804455   3.385925   4.152335   3.582223   2.084801
    13  H    3.795110   2.669227   3.593170   2.338719   2.109246
    14  H    3.399233   2.710770   3.717703   2.974322   2.114692
    15  C    4.509976   2.420559   2.519205   2.603590   1.494807
    16  H    4.517324   2.608651   2.793355   2.319031   2.111364
    17  H    5.400872   3.358131   3.529487   3.574745   2.092958
    18  H    4.741397   2.643611   2.269888   2.991262   2.106892
    19  C    4.072868   2.490916   2.742541   3.396124   1.514961
    20  H    4.227376   2.627307   2.431914   3.619865   2.103007
    21  H    3.738763   2.719571   3.159028   3.667350   2.106257
    22  C    5.583459   3.948375   4.179766   4.710973   2.641858
    23  O    6.092893   4.349290   4.696341   4.874110   2.862924
    24  O    6.258443   4.792564   4.891415   5.678433   3.674330
    25  N    2.639978   3.827981   4.018836   4.535830   4.736376
    26  H    2.548962   4.152569   4.325374   4.668985   5.273314
    27  H    3.614065   4.598471   4.640255   5.394478   5.409114
                   11         12         13         14         15
    11  C    0.000000
    12  H    1.087088   0.000000
    13  H    1.087912   1.802780   0.000000
    14  H    1.085335   1.781357   1.781534   0.000000
    15  C    2.425617   2.621483   2.638242   3.371977   0.000000
    16  H    2.660137   3.004279   2.405785   3.647070   1.087870
    17  H    2.612934   2.337381   2.952323   3.606653   1.086323
    18  H    3.366570   3.598189   3.636769   4.193738   1.087253
    19  C    2.461991   2.633858   3.402293   2.691940   2.453318
    20  H    3.380065   3.631302   4.191550   3.646780   2.688973
    21  H    2.649168   2.948638   3.643743   2.418002   3.376953
    22  C    3.107131   2.668519   4.091582   3.447857   3.041813
    23  O    2.924712   2.132633   3.754920   3.497164   2.906572
    24  O    4.225715   3.826629   5.251649   4.386612   4.119810
    25  N    5.291222   6.123649   5.781727   4.682592   6.015636
    26  H    5.787402   6.710677   6.116341   5.198003   6.489595
    27  H    6.062279   6.813990   6.641188   5.465638   6.644991
                   16         17         18         19         20
    16  H    0.000000
    17  H    1.802535   0.000000
    18  H    1.782904   1.784004   0.000000
    19  C    3.396542   2.651845   2.649324   0.000000
    20  H    3.656236   3.052485   2.425157   1.088110   0.000000
    21  H    4.194338   3.618173   3.641379   1.086537   1.771838
    22  C    4.055749   2.624251   3.310720   1.575010   2.182439
    23  O    3.765292   2.126916   3.442350   2.417399   3.144320
    24  O    5.176569   3.746129   4.170624   2.307122   2.549836
    25  N    6.422089   6.754646   6.001049   4.518062   4.420482
    26  H    6.752601   7.317266   6.474054   5.282950   5.172113
    27  H    7.148851   7.339806   6.522404   4.954730   4.723666
                   21         22         23         24         25
    21  H    0.000000
    22  C    2.168544   0.000000
    23  O    3.069083   1.244744   0.000000
    24  O    2.604824   1.228114   2.261465   0.000000
    25  N    3.797223   5.911291   6.822276   6.081214   0.000000
    26  H    4.635934   6.744703   7.587444   7.001011   1.010867
    27  H    4.222583   6.247948   7.269226   6.224612   1.009409
                   26         27
    26  H    0.000000
    27  H    1.628293   0.000000
 Stoichiometry    C7H16N2O2
 Framework group  C1[X(C7H16N2O2)]
 Deg. of freedom    75
 Full point group                 C1      NOp   1
 Largest Abelian subgroup         C1      NOp   1
 Largest concise Abelian subgroup C1      NOp   1
                         Standard orientation:                         
 ---------------------------------------------------------------------
 Center     Atomic      Atomic             Coordinates (Angstroms)
 Number     Number       Type             X           Y           Z
 ---------------------------------------------------------------------
      1          6           0        2.685844    0.611896   -0.419209
      2          1           0        1.940956    1.399709   -0.521598
      3          1           0        2.964827    0.308053   -1.438028
      4          6           0        2.084761   -0.591969    0.305091
      5          1           0        1.782250   -0.287585    1.306430
      6          1           0        2.877494   -1.328597    0.452348
      7          6           0        0.954822   -1.292576   -0.446232
      8          1           0        1.045096   -1.108545   -1.516897
      9          1           0        1.003234   -2.370115   -0.294157
     10          7           0       -0.452924   -0.904264   -0.076910
     11          6           0       -0.772904   -1.348356    1.312417
     12          1           0       -1.802377   -1.056972    1.504878
     13          1           0       -0.637161   -2.426129    1.371849
     14          1           0       -0.106367   -0.849155    2.008463
     15          6           0       -1.375388   -1.602611   -1.023388
     16          1           0       -1.199019   -2.673860   -0.954253
     17          1           0       -2.390138   -1.338043   -0.739868
     18          1           0       -1.161255   -1.252799   -2.030314
     19          6           0       -0.654563    0.592334   -0.197920
     20          1           0       -0.333124    0.869870   -1.199736
     21          1           0        0.002804    1.060662    0.529472
     22          6           0       -2.107596    1.151951    0.039103
     23          8           0       -2.980136    0.347747    0.415029
     24          8           0       -2.138826    2.358592   -0.187404
     25          7           0        3.795156    1.144907    0.356646
     26          1           0        4.604065    0.540810    0.305800
     27          1           0        4.074932    2.053464    0.017298
 ---------------------------------------------------------------------
 Rotational constants (GHZ):           1.5610175           0.6308856           0.5099604
 Standard basis: 6-311+G(2d,2p) (5D, 7F)
 There are   463 symmetry adapted cartesian basis functions of A   symmetry.
 There are   441 symmetry adapted basis functions of A   symmetry.
   441 basis functions,   638 primitive gaussians,   463 cartesian basis functions
    44 alpha electrons       44 beta electrons
       nuclear repulsion energy       682.1394227609 Hartrees.
 NAtoms=   27 NActive=   27 NUniq=   27 SFac= 1.00D+00 NAtFMM=   60 NAOKFM=F Big=F
 Integral buffers will be    131072 words long.
 Raffenetti 2 integral format.
 Two-electron integral symmetry is turned on.
 Nuclear repulsion after empirical dispersion term =      682.1178752375 Hartrees.
 One-electron integrals computed using PRISM.
 NBasis=   441 RedAO= T EigKep=  1.19D-05  NBF=   441
 NBsUse=   441 1.00D-06 EigRej= -1.00D+00 NBFU=   441
 Initial guess from the checkpoint file:  "aminopropyl_betaine_h.chk"
 B after Tr=    -0.000000   -0.000000    0.000000
         Rot=    1.000000    0.000388   -0.000164   -0.000051 Ang=   0.05 deg.
 ExpMin= 4.38D-02 ExpMax= 8.59D+03 ExpMxC= 1.30D+03 IAcc=2 IRadAn=         4 AccDes= 0.00D+00
 Harris functional with IExCor= 4639 and IRadAn=       4 diagonalized for initial guess.
 HarFok:  IExCor= 4639 AccDes= 0.00D+00 IRadAn=         4 IDoV= 1 UseB2=F ITyADJ=14
 ICtDFT=  3500011 ScaDFX=  1.000000  1.000000  1.000000  1.000000
 FoFCou: FMM=F IPFlag=           0 FMFlag=      100000 FMFlg1=           0
         NFxFlg=           0 DoJE=T BraDBF=F KetDBF=T FulRan=T
         wScrn=  0.000000 ICntrl=       500 IOpCl=  0 I1Cent=   200000004 NGrid=           0
         NMat0=    1 NMatS0=      1 NMatT0=    0 NMatD0=    1 NMtDS0=    0 NMtDT0=    0
 Petite list used in FoFCou.
 Requested convergence on RMS density matrix=1.00D-08 within  32 cycles.
 Requested convergence on MAX density matrix=1.00D-06.
 Requested convergence on             energy=1.00D-06.
 No special actions if energy rises.
 SCF Done:  E(RwB97XD) =  -536.304427499     A.U. after   10 cycles
            NFock= 10  Conv=0.71D-08     -V/T= 2.0039
 QCSCF skips out because SCF is already converged.
 Calling FoFJK, ICntrl=      2127 FMM=F ISym2X=0 I1Cent= 0 IOpClX= 0 NMat=1 NMatS=1 NMatT=0.
 ***** Axes restored to original set *****
 -------------------------------------------------------------------
 Center     Atomic                   Forces (Hartrees/Bohr)
 Number     Number              X              Y              Z
 -------------------------------------------------------------------
      1        6          -0.000058311   -0.000017638   -0.000114801
      2        1           0.000068926   -0.000024991    0.000019714
      3        1           0.000005867   -0.000004821    0.000010612
      4        6           0.000130620    0.000137034    0.000074575
      5        1           0.000002765    0.000003984    0.000004619
      6        1          -0.000042112   -0.000048733    0.000010062
      7        6          -0.000037709   -0.000046957   -0.000071114
      8        1           0.000031341    0.000001200   -0.000005148
      9        1          -0.000011236    0.000012362   -0.000008352
     10        7           0.000052133    0.000018341    0.000015819
     11        6          -0.000019980    0.000058617   -0.000030776
     12        1          -0.000004680    0.000005044   -0.000001388
     13        1          -0.000012045   -0.000000379   -0.000009681
     14        1           0.000011753    0.000015734   -0.000009147
     15        6          -0.000046768   -0.000008358    0.000008136
     16        1           0.000005914    0.000004274    0.000003723
     17        1          -0.000017038    0.000014983   -0.000002414
     18        1          -0.000006687    0.000000773    0.000004322
     19        6          -0.000022880   -0.000015178    0.000039622
     20        1          -0.000044720    0.000000169   -0.000008214
     21        1          -0.000019605   -0.000016545    0.000003435
     22        6           0.000000242   -0.000098099   -0.000054722
     23        8           0.000024590   -0.000045784    0.000037517
     24        8           0.000017354    0.000052566    0.000008618
     25        7          -0.000205918   -0.000053818    0.000176592
     26        1           0.000111988   -0.000020907   -0.000044562
     27        1           0.000086195    0.000077130   -0.000057048
 -------------------------------------------------------------------
 Cartesian Forces:  Max     0.000205918 RMS     0.000052516

 GradGradGradGradGradGradGradGradGradGradGradGradGradGradGradGradGradGrad
 Berny optimization.
 Using GEDIIS/GDIIS optimizer.
 FormGI is forming the generalized inverse of G from B-inverse, IUseBI=4.
 Internal  Forces:  Max     0.000205135 RMS     0.000044221
 Search for a local minimum.
 Step number  10 out of a maximum of  150
 All quantities printed in internal units (Hartrees-Bohrs-Radians)
 Mixed Optimization -- En-DIIS/RFO-DIIS
 Swapping is turned off.
 Update second derivatives using D2CorX and points    2    5    4    6    7
                                                      8    9   10
 DE= -7.01D-06 DEPred=-7.21D-06 R= 9.71D-01
 TightC=F SS=  1.41D+00  RLast= 4.09D-02 DXNew= 5.3519D-01 1.2277D-01
 Trust test= 9.71D-01 RLast= 4.09D-02 DXMaxT set to 3.18D-01
 ITU=  1  0  1  1  0 -1  0 -1  1  0
     Eigenvalues ---    0.00182   0.00242   0.00288   0.00397   0.00435
     Eigenvalues ---    0.00457   0.00663   0.01552   0.03304   0.03741
     Eigenvalues ---    0.03858   0.03954   0.04446   0.04687   0.04781
     Eigenvalues ---    0.05145   0.05214   0.05257   0.05501   0.05999
     Eigenvalues ---    0.06073   0.06158   0.06236   0.06564   0.08233
     Eigenvalues ---    0.08931   0.09188   0.09286   0.09987   0.12512
     Eigenvalues ---    0.12631   0.12907   0.13670   0.14533   0.15225
     Eigenvalues ---    0.15880   0.15998   0.16001   0.16005   0.16020
     Eigenvalues ---    0.16030   0.16102   0.17795   0.21158   0.22694
     Eigenvalues ---    0.24504   0.25440   0.26486   0.27630   0.28692
     Eigenvalues ---    0.30265   0.31027   0.32759   0.33150   0.33450
     Eigenvalues ---    0.33808   0.34812   0.34865   0.34958   0.35001
     Eigenvalues ---    0.35022   0.35072   0.35093   0.35126   0.35151
     Eigenvalues ---    0.35158   0.35229   0.35289   0.35420   0.36707
     Eigenvalues ---    0.47303   0.47687   0.56225   0.85729   0.92240
 En-DIIS/RFO-DIIS/Sim-DIIS IScMMF=       -3 using points:    10    9    8    7    6
 RFO step:  Lambda=-3.40761594D-06.
 DidBck=F Rises=F RFO-DIIS coefs:    1.19981   -0.41973    0.39293   -0.16816   -0.00485
 Iteration  1 RMS(Cart)=  0.00356131 RMS(Int)=  0.00000341
 Iteration  2 RMS(Cart)=  0.00000590 RMS(Int)=  0.00000043
 Iteration  3 RMS(Cart)=  0.00000000 RMS(Int)=  0.00000043
 Variable       Old X    -DE/DX   Delta X   Delta X   Delta X     New X
                                 (Linear)    (Quad)   (Total)
    R1        2.05797  -0.00007   0.00002  -0.00011  -0.00008   2.05789
    R2        2.07710  -0.00001  -0.00006  -0.00005  -0.00011   2.07700
    R3        2.88776  -0.00003  -0.00001  -0.00031  -0.00031   2.88745
    R4        2.74929   0.00004   0.00012   0.00036   0.00048   2.74977
    R5        2.05871   0.00000   0.00002  -0.00005  -0.00004   2.05867
    R6        2.06381   0.00001  -0.00003   0.00002  -0.00001   2.06381
    R7        2.88584   0.00013   0.00003   0.00042   0.00045   2.88630
    R8        2.06001   0.00001   0.00001  -0.00000   0.00001   2.06002
    R9        2.05847  -0.00001  -0.00001  -0.00000  -0.00002   2.05845
   R10        2.84649   0.00008  -0.00019   0.00026   0.00008   2.84657
   R11        2.82186  -0.00007   0.00007  -0.00009  -0.00001   2.82184
   R12        2.82478   0.00003   0.00012  -0.00004   0.00008   2.82485
   R13        2.86286  -0.00012   0.00038  -0.00046  -0.00008   2.86278
   R14        2.05430   0.00001  -0.00004   0.00004  -0.00000   2.05430
   R15        2.05586  -0.00000   0.00001  -0.00000   0.00001   2.05587
   R16        2.05099   0.00001   0.00006  -0.00005   0.00001   2.05100
   R17        2.05578  -0.00000   0.00001  -0.00002  -0.00001   2.05577
   R18        2.05285   0.00002  -0.00002   0.00007   0.00005   2.05291
   R19        2.05461  -0.00001   0.00001  -0.00001  -0.00000   2.05461
   R20        2.05623  -0.00001  -0.00001   0.00001   0.00000   2.05623
   R21        2.05326  -0.00002  -0.00001  -0.00005  -0.00006   2.05320
   R22        2.97634  -0.00007   0.00045  -0.00048  -0.00003   2.97631
   R23        2.35223   0.00002   0.00004   0.00002   0.00005   2.35228
   R24        2.32080   0.00005   0.00001   0.00004   0.00005   2.32085
   R25        1.91026   0.00010  -0.00002   0.00012   0.00011   1.91037
   R26        1.90751   0.00011   0.00001   0.00013   0.00014   1.90764
    A1        1.86130  -0.00001  -0.00002   0.00022   0.00020   1.86150
    A2        1.92348   0.00005  -0.00019   0.00032   0.00013   1.92361
    A3        1.88246  -0.00001   0.00014  -0.00028  -0.00014   1.88232
    A4        1.89800   0.00002   0.00005   0.00013   0.00018   1.89818
    A5        1.98455   0.00003  -0.00016  -0.00003  -0.00019   1.98436
    A6        1.91323  -0.00009   0.00017  -0.00034  -0.00017   1.91306
    A7        1.90156  -0.00002  -0.00016   0.00027   0.00012   1.90168
    A8        1.88574  -0.00001   0.00025   0.00001   0.00027   1.88600
    A9        2.00344   0.00011  -0.00024   0.00021  -0.00003   2.00341
   A10        1.84012   0.00001   0.00003  -0.00008  -0.00005   1.84007
   A11        1.95512  -0.00003  -0.00011   0.00007  -0.00004   1.95508
   A12        1.86918  -0.00007   0.00027  -0.00053  -0.00026   1.86892
   A13        1.92249  -0.00002   0.00024  -0.00005   0.00019   1.92267
   A14        1.93078  -0.00002   0.00007  -0.00025  -0.00018   1.93060
   A15        2.04048   0.00006  -0.00049   0.00054   0.00005   2.04054
   A16        1.87595   0.00001   0.00006  -0.00013  -0.00008   1.87587
   A17        1.84906   0.00003   0.00006   0.00032   0.00037   1.84943
   A18        1.83622  -0.00006   0.00009  -0.00046  -0.00037   1.83585
   A19        1.93020  -0.00003  -0.00081   0.00061  -0.00021   1.92999
   A20        1.87659   0.00001  -0.00029   0.00039   0.00010   1.87670
   A21        1.93850   0.00010  -0.00059   0.00109   0.00050   1.93900
   A22        1.89434   0.00003   0.00050  -0.00058  -0.00008   1.89426
   A23        1.91728  -0.00006   0.00062  -0.00079  -0.00018   1.91710
   A24        1.90584  -0.00005   0.00061  -0.00075  -0.00014   1.90570
   A25        1.86286  -0.00000   0.00012  -0.00007   0.00006   1.86292
   A26        1.89517  -0.00000  -0.00010   0.00007  -0.00003   1.89514
   A27        1.90530  -0.00003  -0.00016   0.00007  -0.00010   1.90520
   A28        1.95415   0.00000   0.00009  -0.00011  -0.00002   1.95413
   A29        1.92277   0.00001   0.00011  -0.00008   0.00003   1.92280
   A30        1.92197   0.00002  -0.00006   0.00012   0.00005   1.92202
   A31        1.89627  -0.00001  -0.00009   0.00005  -0.00004   1.89623
   A32        1.87279  -0.00000   0.00005  -0.00007  -0.00002   1.87276
   A33        1.89078   0.00000   0.00004  -0.00002   0.00001   1.89079
   A34        1.95485   0.00001  -0.00004   0.00008   0.00005   1.95489
   A35        1.92170   0.00000  -0.00007   0.00007   0.00000   1.92170
   A36        1.92551  -0.00001   0.00012  -0.00012  -0.00000   1.92551
   A37        1.86105   0.00007  -0.00045   0.00056   0.00011   1.86116
   A38        1.86691   0.00005  -0.00015   0.00037   0.00022   1.86713
   A39        2.05079  -0.00021   0.00164  -0.00181  -0.00017   2.05062
   A40        1.90467  -0.00001  -0.00035   0.00052   0.00016   1.90483
   A41        1.89701   0.00005  -0.00058   0.00034  -0.00024   1.89677
   A42        1.87996   0.00005  -0.00021   0.00016  -0.00005   1.87991
   A43        2.05170  -0.00007   0.00073  -0.00064   0.00009   2.05179
   A44        1.92282   0.00002  -0.00017   0.00011  -0.00005   1.92277
   A45        2.30859   0.00005  -0.00058   0.00055  -0.00003   2.30856
   A46        1.94377   0.00001   0.00011  -0.00030  -0.00020   1.94357
   A47        1.94101   0.00001   0.00006  -0.00037  -0.00030   1.94071
   A48        1.87464  -0.00005  -0.00007  -0.00036  -0.00043   1.87422
    D1       -1.08067   0.00001  -0.00048  -0.00140  -0.00188  -1.08256
    D2       -3.07146   0.00001  -0.00057  -0.00146  -0.00202  -3.07348
    D3        1.12768   0.00004  -0.00094  -0.00092  -0.00187   1.12581
    D4       -3.11516  -0.00002  -0.00038  -0.00193  -0.00231  -3.11746
    D5        1.17725  -0.00002  -0.00047  -0.00198  -0.00245   1.17480
    D6       -0.90680   0.00000  -0.00084  -0.00145  -0.00229  -0.90909
    D7        0.98861  -0.00002  -0.00032  -0.00175  -0.00208   0.98653
    D8       -1.00217  -0.00002  -0.00041  -0.00181  -0.00222  -1.00439
    D9       -3.08622   0.00000  -0.00079  -0.00128  -0.00206  -3.08828
   D10       -2.91229   0.00002   0.00352  -0.00071   0.00281  -2.90947
   D11       -0.82194  -0.00002   0.00355  -0.00162   0.00194  -0.82000
   D12       -0.85205   0.00003   0.00350  -0.00064   0.00286  -0.84920
   D13        1.23830  -0.00002   0.00353  -0.00154   0.00198   1.24028
   D14        1.27638   0.00002   0.00357  -0.00073   0.00283   1.27921
   D15       -2.91646  -0.00003   0.00360  -0.00164   0.00196  -2.91450
   D16        0.42768  -0.00000   0.00018  -0.00405  -0.00387   0.42381
   D17        2.49919  -0.00002   0.00045  -0.00441  -0.00396   2.49523
   D18       -1.68340  -0.00008   0.00027  -0.00483  -0.00456  -1.68796
   D19        2.60822   0.00003  -0.00032  -0.00345  -0.00377   2.60445
   D20       -1.60346   0.00001  -0.00005  -0.00380  -0.00386  -1.60732
   D21        0.49714  -0.00004  -0.00023  -0.00423  -0.00446   0.49268
   D22       -1.66557  -0.00001  -0.00018  -0.00382  -0.00401  -1.66958
   D23        0.40594  -0.00003   0.00008  -0.00418  -0.00410   0.40184
   D24        2.50653  -0.00008  -0.00009  -0.00460  -0.00470   2.50183
   D25       -1.17485   0.00006   0.00369   0.00020   0.00390  -1.17095
   D26        3.04284   0.00004   0.00373   0.00033   0.00405   3.04689
   D27        0.95867   0.00003   0.00351   0.00036   0.00387   0.96254
   D28        2.95903   0.00002   0.00367  -0.00035   0.00332   2.96235
   D29        0.89353  -0.00000   0.00370  -0.00022   0.00348   0.89701
   D30       -1.19064  -0.00001   0.00348  -0.00019   0.00330  -1.18734
   D31        0.97514   0.00002   0.00354  -0.00013   0.00341   0.97854
   D32       -1.09036   0.00000   0.00357  -0.00001   0.00357  -1.08680
   D33        3.10865  -0.00000   0.00335   0.00003   0.00338   3.11204
   D34       -3.12127   0.00002  -0.00011   0.00011   0.00000  -3.12127
   D35       -1.01161   0.00002   0.00001  -0.00002  -0.00000  -1.01161
   D36        1.08404   0.00002  -0.00022   0.00021  -0.00001   1.08403
   D37       -1.06662   0.00002  -0.00063   0.00059  -0.00005  -1.06667
   D38        1.04304   0.00002  -0.00051   0.00046  -0.00005   1.04299
   D39        3.13869   0.00003  -0.00074   0.00069  -0.00006   3.13864
   D40        1.01601  -0.00005   0.00076  -0.00113  -0.00037   1.01565
   D41        3.12567  -0.00005   0.00089  -0.00126  -0.00037   3.12530
   D42       -1.06186  -0.00005   0.00065  -0.00103  -0.00038  -1.06224
   D43        1.00280  -0.00004  -0.00056   0.00046  -0.00010   1.00270
   D44        3.11965  -0.00004  -0.00063   0.00055  -0.00008   3.11956
   D45       -1.08471  -0.00004  -0.00045   0.00036  -0.00009  -1.08479
   D46       -1.08568  -0.00002   0.00030  -0.00016   0.00013  -1.08555
   D47        1.03116  -0.00002   0.00023  -0.00007   0.00015   1.03131
   D48        3.10999  -0.00002   0.00041  -0.00026   0.00015   3.11014
   D49        3.10771   0.00006  -0.00110   0.00158   0.00048   3.10819
   D50       -1.05864   0.00006  -0.00117   0.00167   0.00050  -1.05814
   D51        1.02020   0.00006  -0.00098   0.00147   0.00049   1.02069
   D52        0.92383   0.00005  -0.00160   0.00304   0.00145   0.92528
   D53       -1.11227   0.00000  -0.00089   0.00199   0.00110  -1.11117
   D54        3.05625   0.00003  -0.00160   0.00271   0.00110   3.05735
   D55        3.06483   0.00004  -0.00260   0.00400   0.00140   3.06623
   D56        1.02873  -0.00001  -0.00190   0.00295   0.00105   1.02979
   D57       -1.08594   0.00002  -0.00261   0.00367   0.00106  -1.08488
   D58       -1.14277   0.00001  -0.00126   0.00237   0.00111  -1.14166
   D59        3.10432  -0.00004  -0.00056   0.00132   0.00076   3.10508
   D60        0.98965  -0.00001  -0.00127   0.00204   0.00077   0.99041
   D61        0.09718   0.00002   0.00053  -0.00055  -0.00002   0.09716
   D62       -3.05527  -0.00002  -0.00107   0.00141   0.00034  -3.05493
   D63        2.21102   0.00000   0.00062  -0.00081  -0.00019   2.21083
   D64       -0.94143  -0.00004  -0.00098   0.00115   0.00017  -0.94126
   D65       -2.01070   0.00005  -0.00023   0.00008  -0.00016  -2.01085
   D66        1.12004   0.00001  -0.00183   0.00203   0.00020   1.12024
         Item               Value     Threshold  Converged?
 Maximum Force            0.000205     0.000450     YES
 RMS     Force            0.000044     0.000300     YES
 Maximum Displacement     0.013080     0.001800     NO 
 RMS     Displacement     0.003560     0.001200     NO 
 Predicted change in Energy=-1.541651D-06
 GradGradGradGradGradGradGradGradGradGradGradGradGradGradGradGradGradGrad

                          Input orientation:                          
 ---------------------------------------------------------------------
 Center     Atomic      Atomic             Coordinates (Angstroms)
 Number     Number       Type             X           Y           Z
 ---------------------------------------------------------------------
      1          6           0        1.266041    0.532460   -0.350862
      2          1           0        0.550595    1.348695   -0.439160
      3          1           0        1.562285    0.261147   -1.373921
      4          6           0        0.606707   -0.678670    0.307269
      5          1           0        0.289572   -0.405923    1.313168
      6          1           0        1.369921   -1.448156    0.441883
      7          6           0       -0.527197   -1.307787   -0.499767
      8          1           0       -0.406193   -1.079491   -1.558819
      9          1           0       -0.516464   -2.392016   -0.395487
     10          7           0       -1.930268   -0.891000   -0.143770
     11          6           0       -2.293980   -1.382053    1.218725
     12          1           0       -3.318058   -1.066777    1.402089
     13          1           0       -2.192479   -2.465096    1.235468
     14          1           0       -1.627880   -0.933249    1.948691
     15          6           0       -2.852681   -1.520353   -1.137569
     16          1           0       -2.710611   -2.598544   -1.109803
     17          1           0       -3.864869   -1.235952   -0.864163
     18          1           0       -2.605968   -1.136157   -2.124303
     19          6           0       -2.084076    0.614818   -0.205663
     20          1           0       -1.733862    0.923600   -1.188512
     21          1           0       -1.428346    1.032195    0.553484
     22          6           0       -3.524289    1.208681    0.026111
     23          8           0       -4.428335    0.416942    0.350627
     24          8           0       -3.514577    2.424035   -0.150370
     25          7           0        2.371274    0.995475    0.474628
     26          1           0        3.161845    0.368058    0.417069
     27          1           0        2.688405    1.907940    0.181558
 ---------------------------------------------------------------------
                    Distance matrix (angstroms):
                    1          2          3          4          5
     1  C    0.000000
     2  H    1.088989   0.000000
     3  H    1.099100   1.755009   0.000000
     4  C    1.527970   2.161136   2.150066   0.000000
     5  H    2.145472   2.493486   3.047167   1.089402   0.000000
     6  H    2.135902   3.044652   2.501172   1.092120   1.735667
     7  C    2.573788   2.867439   2.755292   1.527362   2.183393
     8  H    2.617998   2.839924   2.388807   2.160766   3.030857
     9  H    3.425183   3.890172   3.509672   2.165857   2.741124
    10  N    3.505070   3.355320   3.877968   2.585491   2.699196
    11  C    4.336210   4.277520   4.928762   3.120815   2.763420
    12  H    5.161817   4.918453   5.769520   4.093048   3.668737
    13  H    4.843877   4.987367   5.323491   3.447944   3.225958
    14  H    3.976309   3.956622   4.758517   2.784324   2.087723
    15  C    4.668706   4.505719   4.766710   3.842311   4.137852
    16  H    5.117904   5.163906   5.148323   4.086394   4.436156
    17  H    5.451330   5.133941   5.652889   4.655944   4.763308
    18  H    4.574038   4.356385   4.459805   4.055012   4.553417
    19  C    3.354274   2.744921   3.845239   3.029279   2.997161
    20  H    3.139118   2.441512   3.367166   3.206695   3.481425
    21  H    2.885706   2.236453   3.640505   2.670042   2.365702
    22  C    4.852489   4.103750   5.360144   4.550415   4.336935
    23  O    5.738584   5.126565   6.235853   5.153047   4.884899
    24  O    5.145149   4.214900   5.652405   5.178918   4.962072
    25  N    1.455115   2.067521   2.147286   2.438128   2.645855
    26  H    2.052028   2.917773   2.403677   2.763408   3.106765
    27  H    2.049033   2.295272   2.529741   3.322622   3.519787
                    6          7          8          9         10
     6  H    0.000000
     7  C    2.122609   0.000000
     8  H    2.700612   1.090116   0.000000
     9  H    2.269474   1.089285   1.757334   0.000000
    10  N    3.397744   1.506338   2.088229   2.077319   0.000000
    11  C    3.745934   2.465817   3.371949   2.604855   1.493255
    12  H    4.800478   3.385860   4.152842   3.582801   2.084835
    13  H    3.788751   2.669001   3.594268   2.339739   2.109225
    14  H    3.394468   2.710485   3.717061   2.976310   2.114620
    15  C    4.508908   2.420713   2.521332   2.601613   1.494847
    16  H    4.514628   2.608734   2.796334   2.316718   2.111365
    17  H    5.399427   3.358273   3.531214   3.573228   2.092998
    18  H    4.742399   2.643834   2.272002   2.988647   2.106937
    19  C    4.074957   2.491341   2.741717   3.396247   1.514918
    20  H    4.232834   2.628592   2.431503   3.619980   2.103054
    21  H    3.740975   2.719728   3.156872   3.668419   2.106363
    22  C    5.584348   3.948635   4.179744   4.710602   2.641670
    23  O    6.091526   4.349337   4.697119   4.873363   2.862774
    24  O    6.261225   4.793017   4.890856   5.678301   3.674171
    25  N    2.641044   3.828263   4.019293   4.535552   4.737560
    26  H    2.551517   4.154284   4.327866   4.669926   5.275356
    27  H    3.615183   4.598391   4.640064   5.393866   5.410364
                   11         12         13         14         15
    11  C    0.000000
    12  H    1.087087   0.000000
    13  H    1.087917   1.802772   0.000000
    14  H    1.085341   1.781377   1.781576   0.000000
    15  C    2.425571   2.621482   2.638126   3.371918   0.000000
    16  H    2.659977   3.004147   2.405528   3.646903   1.087865
    17  H    2.612941   2.337418   2.952310   3.606646   1.086351
    18  H    3.366547   3.598239   3.636635   4.193699   1.087253
    19  C    2.461796   2.633503   3.402129   2.691816   2.453193
    20  H    3.380024   3.630770   4.191571   3.647076   2.688356
    21  H    2.649615   2.949038   3.644179   2.418550   3.376965
    22  C    3.106106   2.667125   4.090587   3.446817   3.041847
    23  O    2.923260   2.130659   3.753417   3.495622   2.906978
    24  O    4.224995   3.825509   5.250913   4.386005   4.119570
    25  N    5.288754   6.122219   5.777739   4.678256   6.018163
    26  H    5.785461   6.709557   6.112718   5.194298   6.492882
    27  H    6.060027   6.812946   6.637559   5.461267   6.648076
                   16         17         18         19         20
    16  H    0.000000
    17  H    1.802583   0.000000
    18  H    1.782901   1.784025   0.000000
    19  C    3.396426   2.651452   2.649427   0.000000
    20  H    3.655918   3.051239   2.424639   1.088112   0.000000
    21  H    4.194400   3.618130   3.641303   1.086504   1.771915
    22  C    4.055531   2.623893   3.311474   1.574994   2.182249
    23  O    3.765181   2.127268   3.443606   2.417470   3.144175
    24  O    5.176212   3.745359   4.170965   2.307088   2.549507
    25  N    6.422847   6.757301   6.005934   4.523035   4.429824
    26  H    6.754095   7.320459   6.479884   5.288514   5.182129
    27  H    7.150202   7.343228   6.527933   4.959706   4.733123
                   21         22         23         24         25
    21  H    0.000000
    22  C    2.168467   0.000000
    23  O    3.069140   1.244772   0.000000
    24  O    2.604801   1.228139   2.261498   0.000000
    25  N    3.800616   5.916443   6.825303   6.088896   0.000000
    26  H    4.639993   6.750103   7.590628   7.008825   1.010924
    27  H    4.225269   6.253855   7.273214   6.233258   1.009482
                   26         27
    26  H    0.000000
    27  H    1.628142   0.000000
 Stoichiometry    C7H16N2O2
 Framework group  C1[X(C7H16N2O2)]
 Deg. of freedom    75
 Full point group                 C1      NOp   1
 Largest Abelian subgroup         C1      NOp   1
 Largest concise Abelian subgroup C1      NOp   1
                         Standard orientation:                         
 ---------------------------------------------------------------------
 Center     Atomic      Atomic             Coordinates (Angstroms)
 Number     Number       Type             X           Y           Z
 ---------------------------------------------------------------------
      1          6           0        2.689914    0.611184   -0.420229
      2          1           0        1.946259    1.399549   -0.526782
      3          1           0        2.972363    0.304983   -1.437325
      4          6           0        2.085367   -0.590420    0.304592
      5          1           0        1.781619   -0.284205    1.304976
      6          1           0        2.876234   -1.328558    0.454280
      7          6           0        0.955293   -1.290055   -0.447923
      8          1           0        1.045427   -1.104540   -1.518349
      9          1           0        1.003947   -2.367794   -0.297411
     10          7           0       -0.452557   -0.903051   -0.077466
     11          6           0       -0.769904   -1.345410    1.313009
     12          1           0       -1.799515   -1.055232    1.506543
     13          1           0       -0.632516   -2.422898    1.373916
     14          1           0       -0.103037   -0.844109    2.007235
     15          6           0       -1.375401   -1.604344   -1.021455
     16          1           0       -1.197393   -2.675212   -0.950695
     17          1           0       -2.390137   -1.340680   -0.736938
     18          1           0       -1.163192   -1.255987   -2.029290
     19          6           0       -0.657100    0.592950   -0.200421
     20          1           0       -0.338907    0.869474   -1.203553
     21          1           0        0.001080    1.063815    0.524545
     22          6           0       -2.110614    1.150155    0.039218
     23          8           0       -2.980797    0.344940    0.418517
     24          8           0       -2.144734    2.356322   -0.189523
     25          7           0        3.797204    1.144853    0.358529
     26          1           0        4.606514    0.541046    0.309527
     27          1           0        4.077654    2.053279    0.019171
 ---------------------------------------------------------------------
 Rotational constants (GHZ):           1.5626773           0.6298634           0.5095633
 Standard basis: 6-311+G(2d,2p) (5D, 7F)
 There are   463 symmetry adapted cartesian basis functions of A   symmetry.
 There are   441 symmetry adapted basis functions of A   symmetry.
   441 basis functions,   638 primitive gaussians,   463 cartesian basis functions
    44 alpha electrons       44 beta electrons
       nuclear repulsion energy       682.0477000227 Hartrees.
 NAtoms=   27 NActive=   27 NUniq=   27 SFac= 1.00D+00 NAtFMM=   60 NAOKFM=F Big=F
 Integral buffers will be    131072 words long.
 Raffenetti 2 integral format.
 Two-electron integral symmetry is turned on.
 Nuclear repulsion after empirical dispersion term =      682.0261620192 Hartrees.
 One-electron integrals computed using PRISM.
 NBasis=   441 RedAO= T EigKep=  1.19D-05  NBF=   441
 NBsUse=   441 1.00D-06 EigRej= -1.00D+00 NBFU=   441
 Initial guess from the checkpoint file:  "aminopropyl_betaine_h.chk"
 B after Tr=    -0.000000   -0.000000   -0.000000
         Rot=    1.000000    0.000289   -0.000085   -0.000278 Ang=   0.05 deg.
 Requested convergence on RMS density matrix=1.00D-08 within  32 cycles.
 Requested convergence on MAX density matrix=1.00D-06.
 Requested convergence on             energy=1.00D-06.
 No special actions if energy rises.
 SCF Done:  E(RwB97XD) =  -536.304428326     A.U. after    9 cycles
            NFock=  9  Conv=0.96D-08     -V/T= 2.0039
 QCSCF skips out because SCF is already converged.
 Calling FoFJK, ICntrl=      2127 FMM=F ISym2X=0 I1Cent= 0 IOpClX= 0 NMat=1 NMatS=1 NMatT=0.
 ***** Axes restored to original set *****
 -------------------------------------------------------------------
 Center     Atomic                   Forces (Hartrees/Bohr)
 Number     Number              X              Y              Z
 -------------------------------------------------------------------
      1        6           0.000055726    0.000021088   -0.000018671
      2        1          -0.000051796   -0.000002481    0.000016442
      3        1          -0.000010171    0.000005738   -0.000006924
      4        6           0.000036034   -0.000003613    0.000030128
      5        1           0.000011929    0.000038711   -0.000019494
      6        1          -0.000012696   -0.000011010    0.000028176
      7        6          -0.000027348   -0.000025200   -0.000026399
      8        1          -0.000008027    0.000019958   -0.000004732
      9        1           0.000004272    0.000009593   -0.000013261
     10        7           0.000034458   -0.000003014    0.000043045
     11        6          -0.000008895    0.000014441    0.000003673
     12        1          -0.000000769    0.000003455   -0.000009414
     13        1           0.000003138   -0.000001640   -0.000003871
     14        1          -0.000027044   -0.000001215   -0.000005130
     15        6          -0.000022204    0.000019559    0.000004966
     16        1          -0.000010915    0.000006615    0.000003425
     17        1           0.000002701    0.000000667   -0.000002325
     18        1           0.000004072   -0.000001584   -0.000000927
     19        6           0.000044185   -0.000023318    0.000006007
     20        1          -0.000002252   -0.000000152   -0.000000265
     21        1           0.000045847   -0.000016355    0.000017932
     22        6          -0.000044518   -0.000044645   -0.000102597
     23        8           0.000041333   -0.000006244    0.000024789
     24        8           0.000011357    0.000014137    0.000037843
     25        7          -0.000203706   -0.000034082    0.000055249
     26        1           0.000067309   -0.000017142   -0.000020150
     27        1           0.000067979    0.000037732   -0.000037514
 -------------------------------------------------------------------
 Cartesian Forces:  Max     0.000203706 RMS     0.000035625

 GradGradGradGradGradGradGradGradGradGradGradGradGradGradGradGradGradGrad
 Berny optimization.
 Using GEDIIS/GDIIS optimizer.
 FormGI is forming the generalized inverse of G from B-inverse, IUseBI=4.
 Internal  Forces:  Max     0.000154524 RMS     0.000032577
 Search for a local minimum.
 Step number  11 out of a maximum of  150
 All quantities printed in internal units (Hartrees-Bohrs-Radians)
 Mixed Optimization -- En-DIIS/RFO-DIIS
 Swapping is turned off.
 Update second derivatives using D2CorX and points    2    5    4    6    7
                                                      8    9   10   11
 DE= -8.27D-07 DEPred=-1.54D-06 R= 5.36D-01
 TightC=F SS=  1.41D+00  RLast= 1.91D-02 DXNew= 5.3519D-01 5.7176D-02
 Trust test= 5.36D-01 RLast= 1.91D-02 DXMaxT set to 3.18D-01
 ITU=  1  1  0  1  1  0 -1  0 -1  1  0
     Eigenvalues ---    0.00170   0.00244   0.00267   0.00425   0.00445
     Eigenvalues ---    0.00484   0.00765   0.01583   0.03295   0.03694
     Eigenvalues ---    0.03927   0.04023   0.04485   0.04694   0.04784
     Eigenvalues ---    0.05180   0.05249   0.05461   0.05716   0.06044
     Eigenvalues ---    0.06074   0.06157   0.06239   0.06540   0.08522
     Eigenvalues ---    0.08917   0.09214   0.09377   0.10086   0.12481
     Eigenvalues ---    0.12585   0.12918   0.13866   0.15066   0.15598
     Eigenvalues ---    0.15888   0.16000   0.16003   0.16007   0.16024
     Eigenvalues ---    0.16041   0.16369   0.18192   0.21331   0.23096
     Eigenvalues ---    0.24478   0.25431   0.26102   0.27066   0.29056
     Eigenvalues ---    0.30497   0.31117   0.32786   0.33313   0.33568
     Eigenvalues ---    0.34352   0.34816   0.34875   0.34959   0.35013
     Eigenvalues ---    0.35057   0.35071   0.35095   0.35136   0.35147
     Eigenvalues ---    0.35199   0.35302   0.35305   0.35581   0.39191
     Eigenvalues ---    0.46948   0.47689   0.55520   0.85889   0.92217
 En-DIIS/RFO-DIIS/Sim-DIIS IScMMF=       -3 using points:    11   10    9    8    7    6
 RFO step:  Lambda=-9.32921809D-07.
 DidBck=F Rises=F RFO-DIIS coefs:    1.20239    0.01303   -0.07790   -0.16017    0.05049
                  RFO-DIIS coefs:   -0.02783
 Iteration  1 RMS(Cart)=  0.00189909 RMS(Int)=  0.00000222
 Iteration  2 RMS(Cart)=  0.00000248 RMS(Int)=  0.00000026
 Iteration  3 RMS(Cart)=  0.00000000 RMS(Int)=  0.00000026
 Variable       Old X    -DE/DX   Delta X   Delta X   Delta X     New X
                                 (Linear)    (Quad)   (Total)
    R1        2.05789   0.00003  -0.00001   0.00002   0.00001   2.05790
    R2        2.07700   0.00000  -0.00009   0.00008  -0.00002   2.07698
    R3        2.88745  -0.00002  -0.00050   0.00027  -0.00023   2.88722
    R4        2.74977  -0.00006   0.00067  -0.00061   0.00007   2.74983
    R5        2.05867  -0.00001  -0.00005   0.00004  -0.00002   2.05866
    R6        2.06381   0.00000   0.00001   0.00000   0.00002   2.06382
    R7        2.88630  -0.00001   0.00029  -0.00013   0.00015   2.88645
    R8        2.06002   0.00001  -0.00002   0.00005   0.00003   2.06005
    R9        2.05845  -0.00001   0.00002  -0.00006  -0.00004   2.05841
   R10        2.84657  -0.00007   0.00002  -0.00018  -0.00016   2.84641
   R11        2.82184  -0.00001   0.00009  -0.00013  -0.00004   2.82181
   R12        2.82485   0.00000   0.00003   0.00004   0.00006   2.82491
   R13        2.86278  -0.00008   0.00000  -0.00021  -0.00021   2.86257
   R14        2.05430   0.00000   0.00000  -0.00001  -0.00001   2.05429
   R15        2.05587   0.00000   0.00001   0.00000   0.00001   2.05588
   R16        2.05100  -0.00002  -0.00002   0.00000  -0.00002   2.05098
   R17        2.05577  -0.00001  -0.00000  -0.00002  -0.00002   2.05574
   R18        2.05291  -0.00000   0.00003  -0.00002   0.00001   2.05292
   R19        2.05461   0.00000   0.00000  -0.00000   0.00000   2.05461
   R20        2.05623  -0.00000   0.00002  -0.00003  -0.00001   2.05623
   R21        2.05320   0.00003  -0.00004   0.00009   0.00005   2.05324
   R22        2.97631  -0.00003   0.00006  -0.00008  -0.00002   2.97629
   R23        2.35228  -0.00002   0.00005  -0.00003   0.00002   2.35230
   R24        2.32085   0.00001   0.00001   0.00002   0.00003   2.32088
   R25        1.91037   0.00007   0.00002   0.00017   0.00019   1.91056
   R26        1.90764   0.00007   0.00002   0.00018   0.00020   1.90784
    A1        1.86150   0.00000   0.00024  -0.00007   0.00017   1.86167
    A2        1.92361  -0.00003   0.00020  -0.00046  -0.00026   1.92335
    A3        1.88232   0.00002  -0.00021   0.00008  -0.00012   1.88220
    A4        1.89818   0.00001   0.00012   0.00008   0.00021   1.89839
    A5        1.98436   0.00002  -0.00025   0.00049   0.00025   1.98461
    A6        1.91306  -0.00002  -0.00009  -0.00016  -0.00025   1.91281
    A7        1.90168  -0.00000   0.00022  -0.00052  -0.00031   1.90137
    A8        1.88600   0.00006   0.00027   0.00035   0.00062   1.88662
    A9        2.00341  -0.00011  -0.00024  -0.00011  -0.00035   2.00306
   A10        1.84007  -0.00002   0.00007  -0.00000   0.00007   1.84014
   A11        1.95508   0.00005  -0.00010   0.00001  -0.00010   1.95498
   A12        1.86892   0.00003  -0.00018   0.00033   0.00015   1.86907
   A13        1.92267   0.00002  -0.00012   0.00004  -0.00008   1.92259
   A14        1.93060   0.00006   0.00007   0.00027   0.00034   1.93094
   A15        2.04054  -0.00015   0.00018  -0.00080  -0.00062   2.03992
   A16        1.87587  -0.00002  -0.00006   0.00018   0.00013   1.87599
   A17        1.84943   0.00003  -0.00009   0.00013   0.00004   1.84948
   A18        1.83585   0.00006  -0.00000   0.00024   0.00024   1.83608
   A19        1.92999   0.00005   0.00011  -0.00003   0.00008   1.93007
   A20        1.87670   0.00003  -0.00015   0.00049   0.00034   1.87703
   A21        1.93900  -0.00007   0.00020  -0.00055  -0.00035   1.93865
   A22        1.89426  -0.00004  -0.00009   0.00012   0.00003   1.89429
   A23        1.91710   0.00001   0.00000  -0.00010  -0.00010   1.91700
   A24        1.90570   0.00002  -0.00008   0.00010   0.00002   1.90572
   A25        1.86292  -0.00002   0.00003  -0.00011  -0.00008   1.86284
   A26        1.89514  -0.00000   0.00001  -0.00006  -0.00004   1.89510
   A27        1.90520   0.00002   0.00006  -0.00007  -0.00001   1.90519
   A28        1.95413   0.00001  -0.00012   0.00015   0.00004   1.95417
   A29        1.92280  -0.00000   0.00002  -0.00001   0.00000   1.92280
   A30        1.92202   0.00000   0.00000   0.00008   0.00008   1.92211
   A31        1.89623   0.00001  -0.00000   0.00001   0.00001   1.89624
   A32        1.87276  -0.00000  -0.00004   0.00002  -0.00002   1.87275
   A33        1.89079  -0.00000  -0.00003   0.00004   0.00001   1.89080
   A34        1.95489  -0.00000   0.00008  -0.00010  -0.00002   1.95487
   A35        1.92170   0.00000   0.00001   0.00001   0.00002   1.92172
   A36        1.92551   0.00000  -0.00002   0.00002   0.00001   1.92552
   A37        1.86116   0.00003   0.00007  -0.00000   0.00007   1.86123
   A38        1.86713  -0.00001   0.00023  -0.00036  -0.00013   1.86700
   A39        2.05062  -0.00008  -0.00012  -0.00000  -0.00012   2.05050
   A40        1.90483  -0.00001   0.00002   0.00006   0.00008   1.90491
   A41        1.89677   0.00002  -0.00013   0.00005  -0.00008   1.89669
   A42        1.87991   0.00005  -0.00006   0.00026   0.00020   1.88010
   A43        2.05179  -0.00005   0.00005  -0.00003   0.00002   2.05181
   A44        1.92277   0.00002  -0.00003   0.00006   0.00004   1.92281
   A45        2.30856   0.00003  -0.00001  -0.00005  -0.00006   2.30850
   A46        1.94357   0.00000  -0.00036   0.00005  -0.00031   1.94326
   A47        1.94071   0.00002  -0.00047   0.00028  -0.00019   1.94052
   A48        1.87422  -0.00004   0.00005  -0.00074  -0.00068   1.87353
    D1       -1.08256   0.00001  -0.00147   0.00026  -0.00121  -1.08377
    D2       -3.07348  -0.00000  -0.00181   0.00035  -0.00146  -3.07494
    D3        1.12581  -0.00002  -0.00162  -0.00025  -0.00186   1.12395
    D4       -3.11746   0.00002  -0.00194   0.00055  -0.00139  -3.11885
    D5        1.17480   0.00001  -0.00228   0.00065  -0.00163   1.17317
    D6       -0.90909  -0.00001  -0.00209   0.00005  -0.00204  -0.91113
    D7        0.98653   0.00000  -0.00166  -0.00001  -0.00167   0.98487
    D8       -1.00439  -0.00001  -0.00199   0.00008  -0.00192  -1.00630
    D9       -3.08828  -0.00002  -0.00180  -0.00052  -0.00232  -3.09060
   D10       -2.90947  -0.00001  -0.00121  -0.00018  -0.00140  -2.91087
   D11       -0.82000  -0.00004  -0.00171  -0.00089  -0.00260  -0.82260
   D12       -0.84920   0.00001  -0.00121   0.00009  -0.00112  -0.85032
   D13        1.24028  -0.00002  -0.00170  -0.00062  -0.00232   1.23796
   D14        1.27921   0.00003  -0.00128   0.00042  -0.00086   1.27835
   D15       -2.91450  -0.00001  -0.00178  -0.00029  -0.00207  -2.91657
   D16        0.42381   0.00001  -0.00071  -0.00016  -0.00087   0.42295
   D17        2.49523   0.00004  -0.00081   0.00026  -0.00055   2.49469
   D18       -1.68796   0.00006  -0.00062   0.00022  -0.00041  -1.68837
   D19        2.60445  -0.00005  -0.00070  -0.00096  -0.00166   2.60279
   D20       -1.60732  -0.00002  -0.00080  -0.00054  -0.00134  -1.60865
   D21        0.49268  -0.00000  -0.00061  -0.00059  -0.00120   0.49148
   D22       -1.66958  -0.00003  -0.00077  -0.00077  -0.00153  -1.67111
   D23        0.40184   0.00000  -0.00087  -0.00034  -0.00122   0.40063
   D24        2.50183   0.00002  -0.00068  -0.00039  -0.00107   2.50076
   D25       -1.17095  -0.00004  -0.00101  -0.00004  -0.00105  -1.17200
   D26        3.04689  -0.00004  -0.00087  -0.00046  -0.00133   3.04556
   D27        0.96254  -0.00004  -0.00079  -0.00057  -0.00136   0.96118
   D28        2.96235   0.00001  -0.00090   0.00034  -0.00056   2.96179
   D29        0.89701   0.00001  -0.00076  -0.00008  -0.00084   0.89616
   D30       -1.18734   0.00000  -0.00068  -0.00019  -0.00087  -1.18822
   D31        0.97854  -0.00001  -0.00080  -0.00002  -0.00082   0.97772
   D32       -1.08680  -0.00001  -0.00066  -0.00044  -0.00111  -1.08790
   D33        3.11204  -0.00001  -0.00058  -0.00055  -0.00113   3.11090
   D34       -3.12127  -0.00003   0.00038  -0.00032   0.00005  -3.12121
   D35       -1.01161  -0.00003   0.00026  -0.00023   0.00003  -1.01159
   D36        1.08403  -0.00002   0.00031  -0.00021   0.00010   1.08413
   D37       -1.06667   0.00002   0.00020   0.00033   0.00053  -1.06614
   D38        1.04299   0.00001   0.00009   0.00042   0.00050   1.04349
   D39        3.13864   0.00002   0.00013   0.00044   0.00057   3.13921
   D40        1.01565   0.00002   0.00005   0.00046   0.00051   1.01616
   D41        3.12530   0.00002  -0.00007   0.00055   0.00049   3.12578
   D42       -1.06224   0.00003  -0.00002   0.00058   0.00055  -1.06168
   D43        1.00270   0.00004   0.00003   0.00061   0.00064   1.00334
   D44        3.11956   0.00004   0.00010   0.00051   0.00061   3.12017
   D45       -1.08479   0.00004   0.00004   0.00057   0.00061  -1.08418
   D46       -1.08555  -0.00001   0.00003   0.00030   0.00034  -1.08521
   D47        1.03131  -0.00002   0.00010   0.00020   0.00030   1.03162
   D48        3.11014  -0.00002   0.00004   0.00026   0.00031   3.11045
   D49        3.10819  -0.00001   0.00013   0.00030   0.00043   3.10862
   D50       -1.05814  -0.00002   0.00020   0.00020   0.00040  -1.05774
   D51        1.02069  -0.00002   0.00014   0.00026   0.00040   1.02109
   D52        0.92528  -0.00000   0.00022   0.00039   0.00061   0.92589
   D53       -1.11117   0.00000   0.00005   0.00050   0.00054  -1.11063
   D54        3.05735  -0.00001   0.00002   0.00045   0.00047   3.05782
   D55        3.06623   0.00002   0.00049  -0.00009   0.00041   3.06664
   D56        1.02979   0.00002   0.00032   0.00002   0.00034   1.03013
   D57       -1.08488   0.00001   0.00030  -0.00003   0.00027  -1.08461
   D58       -1.14166  -0.00001   0.00034   0.00006   0.00040  -1.14126
   D59        3.10508  -0.00001   0.00017   0.00016   0.00033   3.10541
   D60        0.99041  -0.00002   0.00014   0.00011   0.00026   0.99067
   D61        0.09716   0.00001  -0.00029  -0.00029  -0.00059   0.09658
   D62       -3.05493  -0.00004   0.00049  -0.00141  -0.00092  -3.05585
   D63        2.21083   0.00001  -0.00039  -0.00026  -0.00065   2.21018
   D64       -0.94126  -0.00004   0.00040  -0.00138  -0.00098  -0.94224
   D65       -2.01085   0.00004  -0.00047  -0.00002  -0.00048  -2.01134
   D66        1.12024  -0.00001   0.00032  -0.00113  -0.00082   1.11942
         Item               Value     Threshold  Converged?
 Maximum Force            0.000155     0.000450     YES
 RMS     Force            0.000033     0.000300     YES
 Maximum Displacement     0.007880     0.001800     NO 
 RMS     Displacement     0.001899     0.001200     NO 
 Predicted change in Energy=-4.633364D-07
 GradGradGradGradGradGradGradGradGradGradGradGradGradGradGradGradGradGrad

                          Input orientation:                          
 ---------------------------------------------------------------------
 Center     Atomic      Atomic             Coordinates (Angstroms)
 Number     Number       Type             X           Y           Z
 ---------------------------------------------------------------------
      1          6           0        1.265541    0.531846   -0.352237
      2          1           0        0.549168    1.346967   -0.443329
      3          1           0        1.564091    0.258905   -1.374183
      4          6           0        0.606424   -0.678544    0.307193
      5          1           0        0.288484   -0.404122    1.312373
      6          1           0        1.369451   -1.447907    0.443625
      7          6           0       -0.527094   -1.308650   -0.499770
      8          1           0       -0.406030   -1.080638   -1.558891
      9          1           0       -0.516246   -2.392814   -0.395046
     10          7           0       -1.929996   -0.891528   -0.143845
     11          6           0       -2.294144   -1.382797    1.218433
     12          1           0       -3.318162   -1.067211    1.401579
     13          1           0       -2.192996   -2.465883    1.234876
     14          1           0       -1.628091   -0.934348    1.948642
     15          6           0       -2.852870   -1.519767   -1.137971
     16          1           0       -2.711916   -2.598097   -1.110385
     17          1           0       -3.864823   -1.234399   -0.864679
     18          1           0       -2.605592   -1.135620   -2.124584
     19          6           0       -2.082663    0.614325   -0.205037
     20          1           0       -1.732593    0.923326   -1.187865
     21          1           0       -1.426325    1.030749    0.554145
     22          6           0       -3.522429    1.209002    0.027360
     23          8           0       -4.427064    0.417609    0.351110
     24          8           0       -3.511796    2.424595   -0.147530
     25          7           0        2.368411    0.997881    0.474774
     26          1           0        3.159455    0.370586    0.420731
     27          1           0        2.686317    1.909356    0.179112
 ---------------------------------------------------------------------
                    Distance matrix (angstroms):
                    1          2          3          4          5
     1  C    0.000000
     2  H    1.088995   0.000000
     3  H    1.099092   1.755117   0.000000
     4  C    1.527850   2.160847   2.150107   0.000000
     5  H    2.145134   2.493343   3.047024   1.089394   0.000000
     6  H    2.136261   3.044811   2.501102   1.092128   1.735713
     7  C    2.573466   2.865978   2.755881   1.527444   2.183391
     8  H    2.617302   2.837279   2.389533   2.160790   3.030541
     9  H    3.424942   3.888882   3.509718   2.166160   2.741854
    10  N    3.504408   3.353626   3.878900   2.584999   2.698108
    11  C    4.336383   4.277557   4.929789   3.120837   2.763440
    12  H    5.161704   4.918149   5.770600   4.092812   3.668179
    13  H    4.844253   4.987351   5.324224   3.448467   3.227167
    14  H    3.977043   3.958078   4.759731   2.784393   2.087879
    15  C    4.667740   4.502728   4.767495   3.842248   4.137263
    16  H    5.117762   5.161702   5.149396   4.087247   4.436854
    17  H    5.450032   5.130722   5.653552   4.655567   4.762234
    18  H    4.572454   4.352284   4.460276   4.054566   4.552300
    19  C    3.352453   2.742277   3.846042   3.027388   2.993677
    20  H    3.136932   2.437261   3.368129   3.205025   3.478226
    21  H    2.883847   2.235514   3.640986   2.667346   2.361002
    22  C    4.850493   4.101035   5.360941   4.548467   4.333183
    23  O    5.737029   5.124230   6.236647   5.151648   4.882178
    24  O    5.142699   4.211913   5.653275   5.176483   4.957326
    25  N    1.455149   2.067467   2.147477   2.437844   2.644481
    26  H    2.051924   2.917793   2.404033   2.762523   3.104460
    27  H    2.049017   2.295892   2.529052   3.322587   3.519384
                    6          7          8          9         10
     6  H    0.000000
     7  C    2.122797   0.000000
     8  H    2.701350   1.090130   0.000000
     9  H    2.269817   1.089264   1.757409   0.000000
    10  N    3.397209   1.506256   2.088202   2.077414   0.000000
    11  C    3.745196   2.465803   3.371913   2.604682   1.493235
    12  H    4.799616   3.385776   4.152719   3.582711   2.084756
    13  H    3.788586   2.668973   3.594062   2.339546   2.109179
    14  H    3.393240   2.710538   3.717206   2.975937   2.114588
    15  C    4.509390   2.420972   2.521315   2.602683   1.494880
    16  H    4.516131   2.609401   2.796595   2.318365   2.111391
    17  H    5.399525   3.358438   3.531121   3.574276   2.093016
    18  H    4.742804   2.643883   2.271806   2.989516   2.106974
    19  C    4.073163   2.490883   2.741700   3.395976   1.514809
    20  H    4.231688   2.628388   2.431728   3.620062   2.103008
    21  H    3.737955   2.718849   3.156561   3.667423   2.106188
    22  C    5.582376   3.948223   4.179782   4.710482   2.641473
    23  O    6.090016   4.348993   4.696974   4.873369   2.862547
    24  O    6.258778   4.792665   4.891255   5.678205   3.674069
    25  N    2.642115   3.828024   4.019150   4.535928   4.735912
    26  H    2.551775   4.154250   4.328699   4.670401   5.273916
    27  H    3.615980   4.598092   4.639324   5.393953   5.409214
                   11         12         13         14         15
    11  C    0.000000
    12  H    1.087083   0.000000
    13  H    1.087923   1.802795   0.000000
    14  H    1.085329   1.781367   1.781623   0.000000
    15  C    2.425607   2.621186   2.638365   3.371940   0.000000
    16  H    2.659864   3.003516   2.405620   3.646969   1.087853
    17  H    2.613122   2.337246   2.952912   3.606629   1.086357
    18  H    3.366580   3.598092   3.636731   4.193709   1.087254
    19  C    2.461603   2.633484   3.401942   2.691348   2.453148
    20  H    3.379913   3.630632   4.191466   3.646854   2.688162
    21  H    2.649452   2.949344   3.643847   2.418044   3.376895
    22  C    3.105601   2.666711   4.090265   3.445836   3.041790
    23  O    2.922851   2.130221   3.753216   3.494874   2.906695
    24  O    4.224307   3.824911   5.250434   4.384607   4.119848
    25  N    5.287729   6.120514   5.777703   4.677374   6.016750
    26  H    5.783807   6.707372   6.112047   5.192106   6.492383
    27  H    6.059988   6.812352   6.638151   5.461868   6.646516
                   16         17         18         19         20
    16  H    0.000000
    17  H    1.802564   0.000000
    18  H    1.782903   1.784035   0.000000
    19  C    3.396361   2.651226   2.649609   0.000000
    20  H    3.655885   3.050677   2.424630   1.088109   0.000000
    21  H    4.194273   3.618043   3.641349   1.086530   1.771987
    22  C    4.055292   2.623581   3.311904   1.574983   2.182176
    23  O    3.764596   2.126826   3.443740   2.417481   3.143941
    24  O    5.176324   3.745286   4.171940   2.307120   2.549837
    25  N    6.422889   6.755029   6.004099   4.518996   4.425852
    26  H    6.755027   7.319066   6.479433   5.284960   5.179308
    27  H    7.149884   7.340989   6.525580   4.956596   4.729445
                   21         22         23         24         25
    21  H    0.000000
    22  C    2.168624   0.000000
    23  O    3.069463   1.244782   0.000000
    24  O    2.604678   1.228156   2.261493   0.000000
    25  N    3.795708   5.911577   6.821327   6.082731   0.000000
    26  H    4.634975   6.745758   7.586984   7.003390   1.011024
    27  H    4.222134   6.249964   7.270150   6.228063   1.009587
                   26         27
    26  H    0.000000
    27  H    1.627898   0.000000
 Stoichiometry    C7H16N2O2
 Framework group  C1[X(C7H16N2O2)]
 Deg. of freedom    75
 Full point group                 C1      NOp   1
 Largest Abelian subgroup         C1      NOp   1
 Largest concise Abelian subgroup C1      NOp   1
                         Standard orientation:                         
 ---------------------------------------------------------------------
 Center     Atomic      Atomic             Coordinates (Angstroms)
 Number     Number       Type             X           Y           Z
 ---------------------------------------------------------------------
      1          6           0        2.689410    0.609348   -0.421463
      2          1           0        1.945046    1.396582   -0.531441
      3          1           0        2.974433    0.300921   -1.437158
      4          6           0        2.084561   -0.590827    0.305218
      5          1           0        1.779750   -0.282277    1.304551
      6          1           0        2.875037   -1.328885    0.457404
      7          6           0        0.954923   -1.291607   -0.447051
      8          1           0        1.045464   -1.107082   -1.517629
      9          1           0        1.003366   -2.369175   -0.295403
     10          7           0       -0.452767   -0.903650   -0.077314
     11          6           0       -0.771045   -1.345277    1.313159
     12          1           0       -1.800584   -1.054395    1.505996
     13          1           0       -0.634323   -2.422830    1.374500
     14          1           0       -0.104260   -0.844059    2.007506
     15          6           0       -1.376049   -1.604210   -1.021471
     16          1           0       -1.199464   -2.675262   -0.950129
     17          1           0       -2.390590   -1.339122   -0.737559
     18          1           0       -1.162903   -1.256578   -2.029361
     19          6           0       -0.655717    0.592431   -0.200603
     20          1           0       -0.337328    0.868445   -1.203811
     21          1           0        0.003034    1.062649    0.524303
     22          6           0       -2.108711    1.151036    0.038863
     23          8           0       -2.979833    0.346591    0.417670
     24          8           0       -2.141497    2.357405   -0.189099
     25          7           0        3.794207    1.146221    0.358697
     26          1           0        4.603911    0.542457    0.313794
     27          1           0        4.075746    2.053276    0.016274
 ---------------------------------------------------------------------
 Rotational constants (GHZ):           1.5617446           0.6305012           0.5098893
 Standard basis: 6-311+G(2d,2p) (5D, 7F)
 There are   463 symmetry adapted cartesian basis functions of A   symmetry.
 There are   441 symmetry adapted basis functions of A   symmetry.
   441 basis functions,   638 primitive gaussians,   463 cartesian basis functions
    44 alpha electrons       44 beta electrons
       nuclear repulsion energy       682.1206853697 Hartrees.
 NAtoms=   27 NActive=   27 NUniq=   27 SFac= 1.00D+00 NAtFMM=   60 NAOKFM=F Big=F
 Integral buffers will be    131072 words long.
 Raffenetti 2 integral format.
 Two-electron integral symmetry is turned on.
 Nuclear repulsion after empirical dispersion term =      682.0991435212 Hartrees.
 One-electron integrals computed using PRISM.
 NBasis=   441 RedAO= T EigKep=  1.19D-05  NBF=   441
 NBsUse=   441 1.00D-06 EigRej= -1.00D+00 NBFU=   441
 Initial guess from the checkpoint file:  "aminopropyl_betaine_h.chk"
 B after Tr=    -0.000000   -0.000000    0.000000
         Rot=    1.000000    0.000175    0.000058    0.000165 Ang=   0.03 deg.
 Requested convergence on RMS density matrix=1.00D-08 within  32 cycles.
 Requested convergence on MAX density matrix=1.00D-06.
 Requested convergence on             energy=1.00D-06.
 No special actions if energy rises.
 SCF Done:  E(RwB97XD) =  -536.304428856     A.U. after    9 cycles
            NFock=  9  Conv=0.84D-08     -V/T= 2.0039
 QCSCF skips out because SCF is already converged.
 Calling FoFJK, ICntrl=      2127 FMM=F ISym2X=0 I1Cent= 0 IOpClX= 0 NMat=1 NMatS=1 NMatT=0.
 ***** Axes restored to original set *****
 -------------------------------------------------------------------
 Center     Atomic                   Forces (Hartrees/Bohr)
 Number     Number              X              Y              Z
 -------------------------------------------------------------------
      1        6           0.000082911    0.000046732    0.000033913
      2        1          -0.000028101   -0.000003939   -0.000001772
      3        1          -0.000000184    0.000004689   -0.000003972
      4        6          -0.000017935   -0.000094687    0.000010315
      5        1           0.000010982    0.000021705   -0.000009523
      6        1           0.000005277    0.000019674    0.000015948
      7        6          -0.000002718    0.000010691   -0.000008706
      8        1          -0.000010721    0.000006283    0.000003572
      9        1           0.000007215   -0.000000977   -0.000013341
     10        7          -0.000000956   -0.000000969    0.000006162
     11        6          -0.000013017   -0.000014097   -0.000003874
     12        1          -0.000000870    0.000002809    0.000001587
     13        1           0.000003276    0.000002169    0.000002791
     14        1          -0.000018812   -0.000006102    0.000002524
     15        6           0.000005996    0.000013033    0.000008337
     16        1          -0.000000815   -0.000003290    0.000002542
     17        1           0.000003026    0.000001065    0.000005235
     18        1           0.000007911   -0.000001562    0.000001159
     19        6          -0.000020329    0.000012598    0.000011233
     20        1          -0.000001215   -0.000000178    0.000000372
     21        1           0.000001569    0.000004930   -0.000008509
     22        6          -0.000025247    0.000003859   -0.000031301
     23        8           0.000032270   -0.000003178    0.000000068
     24        8           0.000008474   -0.000012282    0.000011273
     25        7          -0.000053097   -0.000006189   -0.000037575
     26        1           0.000010114   -0.000002515    0.000004869
     27        1           0.000014997   -0.000000273   -0.000003326
 -------------------------------------------------------------------
 Cartesian Forces:  Max     0.000094687 RMS     0.000019913

 GradGradGradGradGradGradGradGradGradGradGradGradGradGradGradGradGradGrad
 Berny optimization.
 Using GEDIIS/GDIIS optimizer.
 FormGI is forming the generalized inverse of G from B-inverse, IUseBI=4.
 Internal  Forces:  Max     0.000046090 RMS     0.000012545
 Search for a local minimum.
 Step number  12 out of a maximum of  150
 All quantities printed in internal units (Hartrees-Bohrs-Radians)
 Mixed Optimization -- En-DIIS/RFO-DIIS
 Swapping is turned off.
 Update second derivatives using D2CorX and points    2    5    4    6    7
                                                      8    9   10   11   12
 DE= -5.31D-07 DEPred=-4.63D-07 R= 1.15D+00
 Trust test= 1.15D+00 RLast= 9.01D-03 DXMaxT set to 3.18D-01
 ITU=  0  1  1  0  1  1  0 -1  0 -1  1  0
     Eigenvalues ---    0.00183   0.00210   0.00263   0.00414   0.00445
     Eigenvalues ---    0.00459   0.00754   0.01584   0.03228   0.03694
     Eigenvalues ---    0.03947   0.04035   0.04514   0.04699   0.04789
     Eigenvalues ---    0.05241   0.05383   0.05599   0.05781   0.06036
     Eigenvalues ---    0.06074   0.06159   0.06241   0.06508   0.08430
     Eigenvalues ---    0.09008   0.09194   0.09478   0.10116   0.12490
     Eigenvalues ---    0.12579   0.13019   0.13874   0.14925   0.15604
     Eigenvalues ---    0.15916   0.16001   0.16003   0.16006   0.16029
     Eigenvalues ---    0.16053   0.16318   0.18127   0.21575   0.22771
     Eigenvalues ---    0.24685   0.25440   0.26933   0.27855   0.29604
     Eigenvalues ---    0.30651   0.31310   0.32944   0.33494   0.33667
     Eigenvalues ---    0.34640   0.34815   0.34909   0.35003   0.35028
     Eigenvalues ---    0.35073   0.35086   0.35104   0.35135   0.35160
     Eigenvalues ---    0.35212   0.35270   0.35424   0.35629   0.40525
     Eigenvalues ---    0.46844   0.47694   0.54735   0.85968   0.92359
 En-DIIS/RFO-DIIS/Sim-DIIS IScMMF=       -3 using points:    12   11   10    9    8    7    6
 RFO step:  Lambda=-1.97936164D-07.
 DidBck=F Rises=F RFO-DIIS coefs:    1.53530   -0.35105   -0.27687    0.06646    0.03929
                  RFO-DIIS coefs:   -0.02064    0.00750
 Iteration  1 RMS(Cart)=  0.00072382 RMS(Int)=  0.00000049
 Iteration  2 RMS(Cart)=  0.00000050 RMS(Int)=  0.00000006
 Variable       Old X    -DE/DX   Delta X   Delta X   Delta X     New X
                                 (Linear)    (Quad)   (Total)
    R1        2.05790   0.00002  -0.00002   0.00008   0.00006   2.05796
    R2        2.07698   0.00000   0.00000  -0.00001  -0.00000   2.07698
    R3        2.88722   0.00004  -0.00005   0.00011   0.00005   2.88727
    R4        2.74983  -0.00005  -0.00003  -0.00002  -0.00005   2.74978
    R5        2.05866  -0.00001   0.00001  -0.00003  -0.00002   2.05863
    R6        2.06382  -0.00001   0.00001  -0.00002  -0.00002   2.06381
    R7        2.88645   0.00001   0.00007   0.00005   0.00012   2.88657
    R8        2.06005  -0.00000   0.00002  -0.00003  -0.00001   2.06004
    R9        2.05841  -0.00000  -0.00003   0.00002  -0.00001   2.05840
   R10        2.84641   0.00002  -0.00006   0.00007   0.00001   2.84642
   R11        2.82181   0.00002  -0.00006   0.00011   0.00005   2.82185
   R12        2.82491  -0.00003   0.00004  -0.00009  -0.00005   2.82486
   R13        2.86257   0.00001  -0.00016   0.00018   0.00002   2.86259
   R14        2.05429   0.00000  -0.00000   0.00001   0.00000   2.05429
   R15        2.05588  -0.00000   0.00000  -0.00001  -0.00000   2.05587
   R16        2.05098  -0.00001  -0.00000  -0.00003  -0.00003   2.05095
   R17        2.05574   0.00000  -0.00001   0.00002   0.00000   2.05575
   R18        2.05292  -0.00000   0.00000  -0.00000   0.00000   2.05292
   R19        2.05461  -0.00000  -0.00000   0.00000  -0.00000   2.05461
   R20        2.05623  -0.00000  -0.00001   0.00001  -0.00000   2.05623
   R21        2.05324  -0.00000   0.00003  -0.00003  -0.00000   2.05324
   R22        2.97629  -0.00002  -0.00003  -0.00001  -0.00004   2.97625
   R23        2.35230  -0.00002   0.00000  -0.00001  -0.00001   2.35229
   R24        2.32088  -0.00001   0.00002  -0.00002  -0.00000   2.32088
   R25        1.91056   0.00001   0.00011  -0.00003   0.00008   1.91064
   R26        1.90784   0.00001   0.00012  -0.00005   0.00007   1.90791
    A1        1.86167   0.00000   0.00008  -0.00004   0.00004   1.86171
    A2        1.92335  -0.00002  -0.00011  -0.00014  -0.00025   1.92310
    A3        1.88220   0.00001  -0.00011   0.00023   0.00012   1.88232
    A4        1.89839  -0.00000   0.00012  -0.00009   0.00003   1.89841
    A5        1.98461  -0.00001   0.00016  -0.00017  -0.00001   1.98460
    A6        1.91281   0.00002  -0.00014   0.00020   0.00006   1.91287
    A7        1.90137  -0.00000  -0.00012  -0.00016  -0.00027   1.90109
    A8        1.88662  -0.00000   0.00024  -0.00002   0.00021   1.88683
    A9        2.00306  -0.00003  -0.00007  -0.00021  -0.00028   2.00278
   A10        1.84014  -0.00001   0.00002   0.00001   0.00003   1.84017
   A11        1.95498   0.00002  -0.00004   0.00007   0.00003   1.95501
   A12        1.86907   0.00002  -0.00001   0.00034   0.00033   1.86940
   A13        1.92259  -0.00001   0.00005  -0.00011  -0.00006   1.92253
   A14        1.93094  -0.00001   0.00004   0.00009   0.00013   1.93107
   A15        2.03992   0.00005  -0.00030   0.00029  -0.00001   2.03991
   A16        1.87599   0.00000   0.00007  -0.00011  -0.00004   1.87595
   A17        1.84948  -0.00002   0.00019  -0.00035  -0.00016   1.84932
   A18        1.83608  -0.00001  -0.00002   0.00015   0.00013   1.83622
   A19        1.93007   0.00002  -0.00002   0.00020   0.00017   1.93024
   A20        1.87703  -0.00001   0.00027  -0.00034  -0.00007   1.87696
   A21        1.93865   0.00000  -0.00006   0.00007   0.00001   1.93866
   A22        1.89429  -0.00001   0.00000  -0.00014  -0.00014   1.89415
   A23        1.91700   0.00000  -0.00014   0.00027   0.00013   1.91713
   A24        1.90572  -0.00000  -0.00004  -0.00008  -0.00012   1.90560
   A25        1.86284  -0.00000  -0.00005   0.00003  -0.00002   1.86281
   A26        1.89510   0.00000  -0.00003   0.00003   0.00000   1.89510
   A27        1.90519   0.00002  -0.00005   0.00014   0.00009   1.90528
   A28        1.95417   0.00000   0.00005  -0.00004   0.00001   1.95418
   A29        1.92280  -0.00001   0.00001  -0.00008  -0.00007   1.92274
   A30        1.92211  -0.00001   0.00006  -0.00007  -0.00001   1.92210
   A31        1.89624   0.00000   0.00000  -0.00001  -0.00001   1.89623
   A32        1.87275  -0.00001  -0.00001  -0.00005  -0.00006   1.87269
   A33        1.89080  -0.00001   0.00001  -0.00004  -0.00003   1.89077
   A34        1.95487   0.00000  -0.00002   0.00003   0.00001   1.95488
   A35        1.92172   0.00000   0.00001   0.00000   0.00002   1.92174
   A36        1.92552   0.00001  -0.00000   0.00007   0.00007   1.92559
   A37        1.86123   0.00001   0.00004  -0.00008  -0.00004   1.86119
   A38        1.86700   0.00001  -0.00010   0.00022   0.00012   1.86711
   A39        2.05050  -0.00003  -0.00015   0.00009  -0.00006   2.05044
   A40        1.90491  -0.00001   0.00010  -0.00013  -0.00003   1.90488
   A41        1.89669   0.00001  -0.00001  -0.00010  -0.00010   1.89659
   A42        1.88010   0.00001   0.00014  -0.00002   0.00012   1.88022
   A43        2.05181  -0.00003  -0.00001  -0.00003  -0.00004   2.05177
   A44        1.92281   0.00001   0.00005  -0.00001   0.00005   1.92285
   A45        2.30850   0.00002  -0.00004   0.00003  -0.00001   2.30850
   A46        1.94326   0.00001  -0.00018   0.00009  -0.00009   1.94317
   A47        1.94052   0.00001  -0.00008   0.00004  -0.00004   1.94048
   A48        1.87353  -0.00001  -0.00041   0.00014  -0.00027   1.87326
    D1       -1.08377  -0.00001  -0.00052   0.00008  -0.00044  -1.08421
    D2       -3.07494  -0.00000  -0.00060   0.00016  -0.00044  -3.07538
    D3        1.12395  -0.00001  -0.00072  -0.00012  -0.00084   1.12311
    D4       -3.11885   0.00000  -0.00061   0.00026  -0.00036  -3.11921
    D5        1.17317   0.00001  -0.00070   0.00033  -0.00036   1.17281
    D6       -0.91113   0.00000  -0.00081   0.00006  -0.00076  -0.91189
    D7        0.98487   0.00000  -0.00080   0.00040  -0.00041   0.98446
    D8       -1.00630   0.00001  -0.00089   0.00047  -0.00041  -1.00671
    D9       -3.09060   0.00000  -0.00100   0.00020  -0.00081  -3.09141
   D10       -2.91087  -0.00001  -0.00087  -0.00026  -0.00113  -2.91199
   D11       -0.82260  -0.00001  -0.00156   0.00000  -0.00156  -0.82416
   D12       -0.85032  -0.00000  -0.00075  -0.00025  -0.00100  -0.85132
   D13        1.23796  -0.00001  -0.00144   0.00000  -0.00144   1.23652
   D14        1.27835   0.00000  -0.00059  -0.00034  -0.00093   1.27741
   D15       -2.91657  -0.00000  -0.00128  -0.00008  -0.00137  -2.91793
   D16        0.42295  -0.00000  -0.00105  -0.00007  -0.00112   0.42183
   D17        2.49469  -0.00001  -0.00090  -0.00022  -0.00112   2.49357
   D18       -1.68837   0.00000  -0.00111   0.00027  -0.00084  -1.68921
   D19        2.60279  -0.00001  -0.00129  -0.00040  -0.00170   2.60110
   D20       -1.60865  -0.00002  -0.00115  -0.00055  -0.00170  -1.61035
   D21        0.49148  -0.00001  -0.00136  -0.00006  -0.00142   0.49006
   D22       -1.67111   0.00000  -0.00130  -0.00015  -0.00145  -1.67256
   D23        0.40063  -0.00000  -0.00116  -0.00029  -0.00145   0.39918
   D24        2.50076   0.00001  -0.00137   0.00020  -0.00117   2.49959
   D25       -1.17200  -0.00001   0.00044  -0.00039   0.00005  -1.17195
   D26        3.04556  -0.00000   0.00029  -0.00013   0.00016   3.04572
   D27        0.96118   0.00000   0.00020   0.00014   0.00034   0.96152
   D28        2.96179  -0.00001   0.00043  -0.00016   0.00027   2.96206
   D29        0.89616  -0.00000   0.00028   0.00010   0.00038   0.89654
   D30       -1.18822   0.00000   0.00020   0.00036   0.00056  -1.18766
   D31        0.97772  -0.00000   0.00028   0.00004   0.00032   0.97805
   D32       -1.08790   0.00001   0.00013   0.00030   0.00044  -1.08747
   D33        3.11090   0.00001   0.00005   0.00057   0.00061   3.11152
   D34       -3.12121   0.00001  -0.00012   0.00054   0.00042  -3.12080
   D35       -1.01159   0.00001  -0.00011   0.00053   0.00042  -1.01117
   D36        1.08413   0.00001  -0.00009   0.00055   0.00046   1.08459
   D37       -1.06614   0.00000   0.00019   0.00015   0.00035  -1.06579
   D38        1.04349   0.00000   0.00020   0.00014   0.00035   1.04384
   D39        3.13921   0.00000   0.00023   0.00016   0.00039   3.13960
   D40        1.01616  -0.00001   0.00007   0.00013   0.00020   1.01635
   D41        3.12578  -0.00001   0.00008   0.00012   0.00020   3.12598
   D42       -1.06168  -0.00000   0.00010   0.00014   0.00024  -1.06144
   D43        1.00334   0.00001   0.00025   0.00018   0.00043   1.00377
   D44        3.12017   0.00000   0.00022   0.00018   0.00040   3.12057
   D45       -1.08418   0.00001   0.00022   0.00021   0.00043  -1.08375
   D46       -1.08521  -0.00000   0.00012   0.00022   0.00034  -1.08487
   D47        1.03162  -0.00000   0.00010   0.00021   0.00031   1.03193
   D48        3.11045  -0.00000   0.00010   0.00025   0.00034   3.11079
   D49        3.10862   0.00000   0.00031   0.00002   0.00034   3.10895
   D50       -1.05774   0.00000   0.00029   0.00002   0.00030  -1.05744
   D51        1.02109   0.00000   0.00029   0.00005   0.00034   1.02143
   D52        0.92589  -0.00001   0.00062  -0.00033   0.00029   0.92618
   D53       -1.11063  -0.00001   0.00053  -0.00024   0.00029  -1.11033
   D54        3.05782  -0.00002   0.00054  -0.00045   0.00009   3.05791
   D55        3.06664   0.00002   0.00045   0.00016   0.00061   3.06725
   D56        1.03013   0.00001   0.00036   0.00024   0.00061   1.03073
   D57       -1.08461   0.00001   0.00037   0.00003   0.00040  -1.08421
   D58       -1.14126   0.00000   0.00035   0.00010   0.00045  -1.14081
   D59        3.10541  -0.00000   0.00026   0.00019   0.00045   3.10586
   D60        0.99067  -0.00001   0.00027  -0.00002   0.00024   0.99092
   D61        0.09658   0.00001  -0.00029  -0.00003  -0.00033   0.09625
   D62       -3.05585  -0.00001  -0.00050  -0.00002  -0.00052  -3.05636
   D63        2.21018   0.00000  -0.00035  -0.00015  -0.00050   2.20968
   D64       -0.94224  -0.00001  -0.00056  -0.00014  -0.00069  -0.94294
   D65       -2.01134   0.00000  -0.00016  -0.00037  -0.00053  -2.01187
   D66        1.11942  -0.00001  -0.00036  -0.00036  -0.00072   1.11870
         Item               Value     Threshold  Converged?
 Maximum Force            0.000046     0.000450     YES
 RMS     Force            0.000013     0.000300     YES
 Maximum Displacement     0.003305     0.001800     NO 
 RMS     Displacement     0.000724     0.001200     YES
 Predicted change in Energy=-9.859170D-08
 GradGradGradGradGradGradGradGradGradGradGradGradGradGradGradGradGradGrad

                          Input orientation:                          
 ---------------------------------------------------------------------
 Center     Atomic      Atomic             Coordinates (Angstroms)
 Number     Number       Type             X           Y           Z
 ---------------------------------------------------------------------
      1          6           0        1.266033    0.531473   -0.352644
      2          1           0        0.549447    1.346320   -0.444888
      3          1           0        1.565370    0.257754   -1.374151
      4          6           0        0.606488   -0.678447    0.307281
      5          1           0        0.288219   -0.403068    1.312081
      6          1           0        1.369216   -1.447927    0.444654
      7          6           0       -0.527069   -1.308368   -0.499886
      8          1           0       -0.406148   -1.079730   -1.558885
      9          1           0       -0.516106   -2.392592   -0.395838
     10          7           0       -1.929980   -0.891426   -0.143767
     11          6           0       -2.294263   -1.383005    1.218390
     12          1           0       -3.318440   -1.067807    1.401317
     13          1           0       -2.192719   -2.466053    1.234727
     14          1           0       -1.628627   -0.934418    1.948873
     15          6           0       -2.852784   -1.519597   -1.137960
     16          1           0       -2.712000   -2.597948   -1.110248
     17          1           0       -3.864715   -1.234035   -0.864780
     18          1           0       -2.605268   -1.135562   -2.124557
     19          6           0       -2.082864    0.614417   -0.204911
     20          1           0       -1.733245    0.923411   -1.187901
     21          1           0       -1.426291    1.031049    0.553954
     22          6           0       -3.522675    1.208804    0.027822
     23          8           0       -4.427125    0.417141    0.351410
     24          8           0       -3.512244    2.424485   -0.146458
     25          7           0        2.368212    0.998335    0.474772
     26          1           0        3.159035    0.370546    0.422480
     27          1           0        2.687056    1.909070    0.177716
 ---------------------------------------------------------------------
                    Distance matrix (angstroms):
                    1          2          3          4          5
     1  C    0.000000
     2  H    1.089027   0.000000
     3  H    1.099090   1.755165   0.000000
     4  C    1.527877   2.160715   2.150148   0.000000
     5  H    2.144947   2.493098   3.046907   1.089381   0.000000
     6  H    2.136436   3.044851   2.501175   1.092120   1.735717
     7  C    2.573308   2.865184   2.755972   1.527505   2.183457
     8  H    2.616712   2.835466   2.389534   2.160794   3.030257
     9  H    3.424623   3.888093   3.509127   2.166307   2.742649
    10  N    3.504679   3.353467   3.879682   2.585048   2.697849
    11  C    4.336944   4.278129   4.930530   3.121038   2.763741
    12  H    5.162507   4.919048   5.771650   4.093113   3.668491
    13  H    4.844366   4.987461   5.324341   3.448370   3.227529
    14  H    3.978049   3.959275   4.760817   2.784974   2.088572
    15  C    4.667790   4.502111   4.768108   3.842241   4.137056
    16  H    5.117811   5.161104   5.149813   4.087326   4.436945
    17  H    5.450127   5.130240   5.654265   4.655541   4.761941
    18  H    4.572270   4.351236   4.460791   4.054400   4.551844
    19  C    3.353181   2.742687   3.847589   3.027615   2.993088
    20  H    3.137983   2.437540   3.370260   3.205599   3.477897
    21  H    2.884460   2.236207   3.642199   2.667473   2.360295
    22  C    4.851315   4.101773   5.362669   4.548604   4.332477
    23  O    5.737667   5.124816   6.238026   5.151652   4.881608
    24  O    5.143728   4.212936   5.655450   5.176680   4.956401
    25  N    1.455121   2.067552   2.147447   2.437893   2.644124
    26  H    2.051870   2.917946   2.404240   2.762092   3.103458
    27  H    2.048990   2.296452   2.528499   3.322769   3.519543
                    6          7          8          9         10
     6  H    0.000000
     7  C    2.123094   0.000000
     8  H    2.702157   1.090126   0.000000
     9  H    2.270078   1.089260   1.757377   0.000000
    10  N    3.397150   1.506261   2.088081   2.077517   0.000000
    11  C    3.744858   2.465972   3.371974   2.605156   1.493259
    12  H    4.799356   3.385882   4.152636   3.583001   2.084758
    13  H    3.787899   2.668990   3.594161   2.339908   2.109201
    14  H    3.393144   2.711031   3.717517   2.976850   2.114664
    15  C    4.509444   2.420890   2.521248   2.602486   1.494853
    16  H    4.516259   2.609498   2.797001   2.318298   2.111364
    17  H    5.399481   3.358356   3.530903   3.574261   2.092950
    18  H    4.742883   2.643544   2.271394   2.988844   2.106928
    19  C    4.073335   2.490906   2.741305   3.396069   1.514818
    20  H    4.232463   2.628509   2.431334   3.620036   2.102987
    21  H    3.737931   2.718833   3.155973   3.667677   2.106282
    22  C    5.582344   3.948200   4.179445   4.710519   2.641417
    23  O    6.089724   4.348853   4.696606   4.873299   2.862391
    24  O    6.258885   4.792742   4.891043   5.678315   3.674076
    25  N    2.642555   3.827988   4.018854   4.536037   4.735846
    26  H    2.551624   4.154139   4.328930   4.670249   5.273640
    27  H    3.616266   4.598005   4.638600   5.393839   5.409542
                   11         12         13         14         15
    11  C    0.000000
    12  H    1.087083   0.000000
    13  H    1.087921   1.802801   0.000000
    14  H    1.085314   1.781314   1.781604   0.000000
    15  C    2.425487   2.620854   2.638391   3.371873   0.000000
    16  H    2.659538   3.002842   2.405401   3.646813   1.087856
    17  H    2.613065   2.336931   2.953196   3.606453   1.086359
    18  H    3.366488   3.597915   3.636645   4.193699   1.087254
    19  C    2.461741   2.633723   3.402047   2.691469   2.453033
    20  H    3.380019   3.630681   4.191504   3.647166   2.687777
    21  H    2.650001   2.950161   3.644254   2.418636   3.376869
    22  C    3.105466   2.666676   4.090229   3.445469   3.041705
    23  O    2.922546   2.129920   3.753082   3.494309   2.906496
    24  O    4.224129   3.824823   5.250351   4.384137   4.119920
    25  N    5.287950   6.120902   5.777682   4.677951   6.016617
    26  H    5.783327   6.707060   6.111244   5.191773   6.492270
    27  H    6.060882   6.813588   6.638613   5.463290   6.646547
                   16         17         18         19         20
    16  H    0.000000
    17  H    1.802572   0.000000
    18  H    1.782916   1.784080   0.000000
    19  C    3.396282   2.650885   2.649598   0.000000
    20  H    3.655675   3.049941   2.424277   1.088108   0.000000
    21  H    4.194309   3.617916   3.641237   1.086529   1.771966
    22  C    4.055090   2.623202   3.312162   1.574965   2.182083
    23  O    3.764154   2.126453   3.443902   2.417430   3.143688
    24  O    5.176303   3.744995   4.172459   2.307139   2.550032
    25  N    6.422935   6.754795   6.003793   4.519009   4.426290
    26  H    6.755017   7.318796   6.479424   5.284941   5.180095
    27  H    7.149956   7.341090   6.525253   4.957285   4.730274
                   21         22         23         24         25
    21  H    0.000000
    22  C    2.168694   0.000000
    23  O    3.069676   1.244777   0.000000
    24  O    2.604503   1.228155   2.261484   0.000000
    25  N    3.795470   5.911565   6.821262   6.082729   0.000000
    26  H    4.634519   6.745641   7.586636   7.003450   1.011066
    27  H    4.222808   6.250888   7.271011   6.229130   1.009624
                   26         27
    26  H    0.000000
    27  H    1.627799   0.000000
 Stoichiometry    C7H16N2O2
 Framework group  C1[X(C7H16N2O2)]
 Deg. of freedom    75
 Full point group                 C1      NOp   1
 Largest Abelian subgroup         C1      NOp   1
 Largest concise Abelian subgroup C1      NOp   1
                         Standard orientation:                         
 ---------------------------------------------------------------------
 Center     Atomic      Atomic             Coordinates (Angstroms)
 Number     Number       Type             X           Y           Z
 ---------------------------------------------------------------------
      1          6           0        2.690024    0.608805   -0.421769
      2          1           0        1.945476    1.395717   -0.533107
      3          1           0        2.975980    0.299456   -1.436921
      4          6           0        2.084607   -0.590741    0.305532
      5          1           0        1.779319   -0.281077    1.304361
      6          1           0        2.874761   -1.328889    0.458895
      7          6           0        0.954982   -1.291434   -0.446962
      8          1           0        1.045500   -1.106473   -1.517463
      9          1           0        1.003467   -2.369063   -0.295793
     10          7           0       -0.452735   -0.903527   -0.077260
     11          6           0       -0.771326   -1.345217    1.313147
     12          1           0       -1.801028   -1.054664    1.505611
     13          1           0       -0.634262   -2.422720    1.374576
     14          1           0       -0.105020   -0.843769    2.007764
     15          6           0       -1.375865   -1.604149   -1.021478
     16          1           0       -1.199498   -2.675217   -0.949797
     17          1           0       -2.390416   -1.338781   -0.737856
     18          1           0       -1.162341   -1.256805   -2.029387
     19          6           0       -0.655827    0.592525   -0.200783
     20          1           0       -0.337758    0.868323   -1.204150
     21          1           0        0.003076    1.063043    0.523790
     22          6           0       -2.108855    1.150954    0.038759
     23          8           0       -2.979865    0.346338    0.417448
     24          8           0       -2.141756    2.357393   -0.188806
     25          7           0        3.794038    1.146593    0.358816
     26          1           0        4.603558    0.542365    0.315892
     27          1           0        4.076587    2.052804    0.014886
 ---------------------------------------------------------------------
 Rotational constants (GHZ):           1.5618319           0.6304463           0.5098674
 Standard basis: 6-311+G(2d,2p) (5D, 7F)
 There are   463 symmetry adapted cartesian basis functions of A   symmetry.
 There are   441 symmetry adapted basis functions of A   symmetry.
   441 basis functions,   638 primitive gaussians,   463 cartesian basis functions
    44 alpha electrons       44 beta electrons
       nuclear repulsion energy       682.1166313024 Hartrees.
 NAtoms=   27 NActive=   27 NUniq=   27 SFac= 1.00D+00 NAtFMM=   60 NAOKFM=F Big=F
 Integral buffers will be    131072 words long.
 Raffenetti 2 integral format.
 Two-electron integral symmetry is turned on.
 Nuclear repulsion after empirical dispersion term =      682.0950899477 Hartrees.
 One-electron integrals computed using PRISM.
 NBasis=   441 RedAO= T EigKep=  1.19D-05  NBF=   441
 NBsUse=   441 1.00D-06 EigRej= -1.00D+00 NBFU=   441
 Initial guess from the checkpoint file:  "aminopropyl_betaine_h.chk"
 B after Tr=     0.000000    0.000000   -0.000000
         Rot=    1.000000    0.000026    0.000025   -0.000006 Ang=   0.00 deg.
 Requested convergence on RMS density matrix=1.00D-08 within  32 cycles.
 Requested convergence on MAX density matrix=1.00D-06.
 Requested convergence on             energy=1.00D-06.
 No special actions if energy rises.
 SCF Done:  E(RwB97XD) =  -536.304428990     A.U. after    8 cycles
            NFock=  8  Conv=0.71D-08     -V/T= 2.0039
 QCSCF skips out because SCF is already converged.
 Calling FoFJK, ICntrl=      2127 FMM=F ISym2X=0 I1Cent= 0 IOpClX= 0 NMat=1 NMatS=1 NMatT=0.
 ***** Axes restored to original set *****
 -------------------------------------------------------------------
 Center     Atomic                   Forces (Hartrees/Bohr)
 Number     Number              X              Y              Z
 -------------------------------------------------------------------
      1        6           0.000057190    0.000023558    0.000023825
      2        1          -0.000009404   -0.000002744   -0.000000812
      3        1          -0.000003228    0.000002116   -0.000006914
      4        6          -0.000037736   -0.000061430    0.000005203
      5        1          -0.000003004    0.000009013    0.000003727
      6        1           0.000000365    0.000014762    0.000003417
      7        6           0.000018722    0.000029950    0.000001053
      8        1          -0.000002409    0.000000237    0.000000313
      9        1           0.000000584    0.000000104   -0.000001687
     10        7          -0.000002420   -0.000016011    0.000010751
     11        6          -0.000000257   -0.000008221   -0.000005154
     12        1           0.000001699    0.000003181    0.000000966
     13        1           0.000006011    0.000001503   -0.000001192
     14        1          -0.000000336    0.000002975    0.000002958
     15        6           0.000001088    0.000002700   -0.000006191
     16        1          -0.000002650   -0.000001407   -0.000001457
     17        1           0.000000500   -0.000004174   -0.000000682
     18        1           0.000000982   -0.000005174   -0.000001876
     19        6          -0.000011952    0.000010222    0.000000308
     20        1           0.000007807   -0.000000748   -0.000001442
     21        1          -0.000002406    0.000000174   -0.000002171
     22        6          -0.000011445    0.000022291    0.000019436
     23        8           0.000008276   -0.000002208   -0.000011043
     24        8           0.000007424   -0.000019267   -0.000006230
     25        7           0.000002315    0.000006941   -0.000045208
     26        1          -0.000017282    0.000002765    0.000010187
     27        1          -0.000008432   -0.000011104    0.000009914
 -------------------------------------------------------------------
 Cartesian Forces:  Max     0.000061430 RMS     0.000014405

 GradGradGradGradGradGradGradGradGradGradGradGradGradGradGradGradGradGrad
 Berny optimization.
 Using GEDIIS/GDIIS optimizer.
 FormGI is forming the generalized inverse of G from B-inverse, IUseBI=4.
 Internal  Forces:  Max     0.000033929 RMS     0.000006738
 Search for a local minimum.
 Step number  13 out of a maximum of  150
 All quantities printed in internal units (Hartrees-Bohrs-Radians)
 Mixed Optimization -- En-DIIS/RFO-DIIS
 Swapping is turned off.
 Update second derivatives using D2CorX and points    2    5    4    6    7
                                                      8    9   10   11   12
                                                     13
 DE= -1.33D-07 DEPred=-9.86D-08 R= 1.35D+00
 Trust test= 1.35D+00 RLast= 6.06D-03 DXMaxT set to 3.18D-01
 ITU=  0  0  1  1  0  1  1  0 -1  0 -1  1  0
     Eigenvalues ---    0.00153   0.00190   0.00259   0.00369   0.00442
     Eigenvalues ---    0.00450   0.00751   0.01611   0.03284   0.03887
     Eigenvalues ---    0.04004   0.04119   0.04521   0.04731   0.04801
     Eigenvalues ---    0.05245   0.05480   0.05652   0.05764   0.06045
     Eigenvalues ---    0.06075   0.06159   0.06226   0.06666   0.08334
     Eigenvalues ---    0.08987   0.09231   0.09565   0.10139   0.12509
     Eigenvalues ---    0.12685   0.13080   0.14019   0.15031   0.15634
     Eigenvalues ---    0.15941   0.15998   0.16003   0.16023   0.16055
     Eigenvalues ---    0.16114   0.16291   0.18297   0.21455   0.22606
     Eigenvalues ---    0.24609   0.25445   0.26867   0.28059   0.29348
     Eigenvalues ---    0.30754   0.31297   0.32942   0.33322   0.33737
     Eigenvalues ---    0.34636   0.34820   0.34927   0.34986   0.35037
     Eigenvalues ---    0.35068   0.35092   0.35132   0.35145   0.35154
     Eigenvalues ---    0.35198   0.35313   0.35377   0.35865   0.40349
     Eigenvalues ---    0.47689   0.47828   0.57493   0.85869   0.92465
 En-DIIS/RFO-DIIS/Sim-DIIS IScMMF=       -3 using points:    13   12   11   10    9    8    7    6
 RFO step:  Lambda=-7.71928863D-08.
 DidBck=F Rises=F RFO-DIIS coefs:    1.52397   -0.36479   -0.09214   -0.11867    0.02576
                  RFO-DIIS coefs:    0.02830    0.00277   -0.00520
 Iteration  1 RMS(Cart)=  0.00067972 RMS(Int)=  0.00000039
 Iteration  2 RMS(Cart)=  0.00000042 RMS(Int)=  0.00000005
 Variable       Old X    -DE/DX   Delta X   Delta X   Delta X     New X
                                 (Linear)    (Quad)   (Total)
    R1        2.05796   0.00000   0.00002   0.00002   0.00004   2.05800
    R2        2.07698   0.00001   0.00001   0.00000   0.00001   2.07699
    R3        2.88727   0.00003   0.00006   0.00002   0.00008   2.88735
    R4        2.74978  -0.00003  -0.00011   0.00001  -0.00010   2.74968
    R5        2.05863   0.00001  -0.00001   0.00001   0.00001   2.05864
    R6        2.06381  -0.00001  -0.00001  -0.00002  -0.00003   2.06378
    R7        2.88657  -0.00002   0.00006  -0.00008  -0.00002   2.88655
    R8        2.06004  -0.00000   0.00001  -0.00001  -0.00000   2.06004
    R9        2.05840  -0.00000  -0.00002   0.00001  -0.00000   2.05840
   R10        2.84642  -0.00000  -0.00000  -0.00003  -0.00003   2.84639
   R11        2.82185  -0.00000   0.00000  -0.00001  -0.00000   2.82185
   R12        2.82486   0.00001  -0.00002   0.00005   0.00003   2.82489
   R13        2.86259   0.00001  -0.00002   0.00005   0.00002   2.86262
   R14        2.05429  -0.00000  -0.00000   0.00000  -0.00000   2.05429
   R15        2.05587  -0.00000  -0.00000  -0.00000  -0.00000   2.05587
   R16        2.05095   0.00000  -0.00002   0.00002   0.00000   2.05095
   R17        2.05575   0.00000  -0.00000   0.00000   0.00000   2.05575
   R18        2.05292  -0.00000  -0.00000   0.00000   0.00000   2.05292
   R19        2.05461  -0.00000   0.00000  -0.00000  -0.00000   2.05461
   R20        2.05623   0.00000  -0.00001   0.00002   0.00001   2.05624
   R21        2.05324  -0.00000   0.00001  -0.00001  -0.00000   2.05324
   R22        2.97625  -0.00000  -0.00003  -0.00000  -0.00003   2.97622
   R23        2.35229  -0.00001  -0.00001  -0.00000  -0.00001   2.35228
   R24        2.32088  -0.00002   0.00000  -0.00002  -0.00002   2.32086
   R25        1.91064  -0.00001   0.00008  -0.00007   0.00001   1.91065
   R26        1.90791  -0.00002   0.00008  -0.00007   0.00001   1.90792
    A1        1.86171   0.00000   0.00001  -0.00002  -0.00001   1.86170
    A2        1.92310  -0.00001  -0.00019   0.00000  -0.00019   1.92292
    A3        1.88232   0.00000   0.00006   0.00002   0.00007   1.88239
    A4        1.89841  -0.00000   0.00003  -0.00003   0.00000   1.89841
    A5        1.98460  -0.00000   0.00011  -0.00007   0.00004   1.98464
    A6        1.91287   0.00002  -0.00003   0.00009   0.00007   1.91294
    A7        1.90109   0.00001  -0.00019   0.00007  -0.00013   1.90097
    A8        1.88683  -0.00000   0.00012  -0.00002   0.00010   1.88693
    A9        2.00278  -0.00002  -0.00012  -0.00012  -0.00024   2.00254
   A10        1.84017  -0.00000   0.00000   0.00004   0.00005   1.84021
   A11        1.95501   0.00001   0.00004  -0.00002   0.00002   1.95503
   A12        1.86940   0.00001   0.00017   0.00007   0.00024   1.86964
   A13        1.92253   0.00000  -0.00002   0.00004   0.00002   1.92255
   A14        1.93107   0.00000   0.00007   0.00002   0.00009   1.93116
   A15        2.03991   0.00000  -0.00006  -0.00005  -0.00011   2.03980
   A16        1.87595  -0.00000  -0.00000  -0.00000  -0.00001   1.87595
   A17        1.84932   0.00000  -0.00001  -0.00002  -0.00003   1.84929
   A18        1.83622  -0.00000   0.00003  -0.00000   0.00003   1.83625
   A19        1.93024  -0.00000   0.00008  -0.00007   0.00001   1.93026
   A20        1.87696  -0.00000   0.00001   0.00000   0.00002   1.87698
   A21        1.93866  -0.00000  -0.00002  -0.00006  -0.00008   1.93858
   A22        1.89415   0.00000  -0.00007   0.00008   0.00001   1.89416
   A23        1.91713   0.00000   0.00004  -0.00002   0.00002   1.91714
   A24        1.90560   0.00000  -0.00005   0.00008   0.00003   1.90563
   A25        1.86281   0.00000  -0.00003   0.00004   0.00000   1.86282
   A26        1.89510  -0.00000  -0.00001   0.00000  -0.00001   1.89509
   A27        1.90528   0.00000   0.00004  -0.00003   0.00001   1.90529
   A28        1.95418   0.00000   0.00003   0.00002   0.00005   1.95423
   A29        1.92274  -0.00000  -0.00004  -0.00001  -0.00005   1.92269
   A30        1.92210   0.00000   0.00001  -0.00002  -0.00000   1.92209
   A31        1.89623   0.00000  -0.00001   0.00002   0.00001   1.89624
   A32        1.87269   0.00000  -0.00003   0.00002  -0.00001   1.87268
   A33        1.89077   0.00000  -0.00001   0.00004   0.00003   1.89080
   A34        1.95488  -0.00000  -0.00001  -0.00003  -0.00003   1.95484
   A35        1.92174  -0.00000   0.00001  -0.00003  -0.00002   1.92171
   A36        1.92559  -0.00000   0.00004  -0.00001   0.00003   1.92562
   A37        1.86119  -0.00001  -0.00002   0.00000  -0.00001   1.86117
   A38        1.86711  -0.00000  -0.00000   0.00002   0.00002   1.86713
   A39        2.05044   0.00001  -0.00001   0.00001  -0.00001   2.05043
   A40        1.90488  -0.00000   0.00001  -0.00005  -0.00004   1.90484
   A41        1.89659   0.00000  -0.00006   0.00006   0.00001   1.89660
   A42        1.88022  -0.00000   0.00008  -0.00005   0.00003   1.88025
   A43        2.05177  -0.00000  -0.00001  -0.00003  -0.00004   2.05173
   A44        1.92285  -0.00001   0.00003  -0.00005  -0.00002   1.92283
   A45        2.30850   0.00001  -0.00002   0.00008   0.00006   2.30856
   A46        1.94317  -0.00000  -0.00005   0.00003  -0.00002   1.94315
   A47        1.94048   0.00000   0.00002   0.00001   0.00003   1.94051
   A48        1.87326   0.00000  -0.00030   0.00026  -0.00004   1.87322
    D1       -1.08421  -0.00000  -0.00027   0.00003  -0.00024  -1.08445
    D2       -3.07538  -0.00000  -0.00024  -0.00004  -0.00029  -3.07567
    D3        1.12311  -0.00001  -0.00047  -0.00004  -0.00051   1.12260
    D4       -3.11921   0.00000  -0.00020   0.00007  -0.00013  -3.11934
    D5        1.17281   0.00001  -0.00017  -0.00001  -0.00018   1.17263
    D6       -0.91189   0.00000  -0.00040   0.00000  -0.00040  -0.91229
    D7        0.98446   0.00000  -0.00034   0.00011  -0.00023   0.98423
    D8       -1.00671   0.00000  -0.00031   0.00004  -0.00027  -1.00698
    D9       -3.09141  -0.00000  -0.00053   0.00004  -0.00049  -3.09190
   D10       -2.91199  -0.00001  -0.00066  -0.00015  -0.00081  -2.91281
   D11       -0.82416   0.00000  -0.00106   0.00021  -0.00086  -0.82501
   D12       -0.85132  -0.00001  -0.00055  -0.00020  -0.00075  -0.85207
   D13        1.23652   0.00000  -0.00095   0.00016  -0.00079   1.23573
   D14        1.27741  -0.00000  -0.00045  -0.00022  -0.00067   1.27675
   D15       -2.91793   0.00000  -0.00085   0.00014  -0.00071  -2.91864
   D16        0.42183  -0.00000  -0.00111  -0.00006  -0.00117   0.42066
   D17        2.49357  -0.00000  -0.00109  -0.00002  -0.00111   2.49246
   D18       -1.68921  -0.00001  -0.00103  -0.00004  -0.00107  -1.69028
   D19        2.60110  -0.00001  -0.00144  -0.00008  -0.00152   2.59958
   D20       -1.61035  -0.00001  -0.00141  -0.00005  -0.00146  -1.61181
   D21        0.49006  -0.00001  -0.00136  -0.00006  -0.00142   0.48864
   D22       -1.67256   0.00000  -0.00131  -0.00000  -0.00132  -1.67387
   D23        0.39918   0.00000  -0.00129   0.00003  -0.00125   0.39792
   D24        2.49959  -0.00000  -0.00124   0.00002  -0.00122   2.49837
   D25       -1.17195   0.00000   0.00006   0.00008   0.00014  -1.17181
   D26        3.04572   0.00000   0.00009   0.00002   0.00011   3.04583
   D27        0.96152  -0.00000   0.00015  -0.00004   0.00011   0.96163
   D28        2.96206  -0.00000   0.00014   0.00007   0.00021   2.96227
   D29        0.89654  -0.00000   0.00017   0.00001   0.00018   0.89672
   D30       -1.18766  -0.00000   0.00023  -0.00005   0.00018  -1.18748
   D31        0.97805   0.00000   0.00013   0.00008   0.00021   0.97826
   D32       -1.08747   0.00000   0.00016   0.00002   0.00018  -1.08729
   D33        3.11152  -0.00000   0.00022  -0.00004   0.00018   3.11170
   D34       -3.12080  -0.00000   0.00024  -0.00005   0.00020  -3.12060
   D35       -1.01117   0.00000   0.00025   0.00000   0.00025  -1.01091
   D36        1.08459   0.00000   0.00028  -0.00004   0.00025   1.08484
   D37       -1.06579  -0.00000   0.00027  -0.00003   0.00023  -1.06556
   D38        1.04384   0.00000   0.00027   0.00002   0.00029   1.04413
   D39        3.13960  -0.00000   0.00031  -0.00002   0.00028   3.13988
   D40        1.01635   0.00000   0.00019   0.00010   0.00028   1.01664
   D41        3.12598   0.00001   0.00020   0.00014   0.00034   3.12632
   D42       -1.06144   0.00000   0.00023   0.00011   0.00033  -1.06111
   D43        1.00377   0.00000   0.00030   0.00004   0.00034   1.00412
   D44        3.12057  -0.00000   0.00027   0.00003   0.00030   3.12087
   D45       -1.08375   0.00000   0.00030   0.00005   0.00035  -1.08340
   D46       -1.08487   0.00000   0.00024   0.00008   0.00031  -1.08456
   D47        1.03193   0.00000   0.00021   0.00007   0.00028   1.03220
   D48        3.11079   0.00000   0.00024   0.00009   0.00032   3.11111
   D49        3.10895  -0.00000   0.00026   0.00001   0.00027   3.10922
   D50       -1.05744  -0.00000   0.00023   0.00000   0.00023  -1.05720
   D51        1.02143  -0.00000   0.00026   0.00002   0.00028   1.02171
   D52        0.92618  -0.00000   0.00021  -0.00004   0.00017   0.92635
   D53       -1.11033   0.00000   0.00021   0.00001   0.00022  -1.11011
   D54        3.05791   0.00000   0.00011   0.00005   0.00016   3.05808
   D55        3.06725  -0.00001   0.00032  -0.00018   0.00014   3.06739
   D56        1.03073  -0.00000   0.00032  -0.00014   0.00019   1.03092
   D57       -1.08421  -0.00000   0.00023  -0.00009   0.00013  -1.08407
   D58       -1.14081  -0.00000   0.00023  -0.00005   0.00018  -1.14064
   D59        3.10586   0.00000   0.00023  -0.00001   0.00023   3.10608
   D60        0.99092   0.00000   0.00013   0.00004   0.00017   0.99109
   D61        0.09625  -0.00001  -0.00013  -0.00023  -0.00036   0.09589
   D62       -3.05636   0.00000  -0.00041   0.00009  -0.00032  -3.05668
   D63        2.20968  -0.00000  -0.00021  -0.00017  -0.00038   2.20930
   D64       -0.94294   0.00001  -0.00048   0.00015  -0.00034  -0.94327
   D65       -2.01187  -0.00001  -0.00018  -0.00022  -0.00041  -2.01228
   D66        1.11870   0.00000  -0.00046   0.00009  -0.00037   1.11833
         Item               Value     Threshold  Converged?
 Maximum Force            0.000034     0.000450     YES
 RMS     Force            0.000007     0.000300     YES
 Maximum Displacement     0.003127     0.001800     NO 
 RMS     Displacement     0.000680     0.001200     YES
 Predicted change in Energy=-3.833773D-08
 GradGradGradGradGradGradGradGradGradGradGradGradGradGradGradGradGradGrad

                          Input orientation:                          
 ---------------------------------------------------------------------
 Center     Atomic      Atomic             Coordinates (Angstroms)
 Number     Number       Type             X           Y           Z
 ---------------------------------------------------------------------
      1          6           0        1.266445    0.531132   -0.353088
      2          1           0        0.549824    1.345837   -0.446542
      3          1           0        1.566470    0.256512   -1.374158
      4          6           0        0.606289   -0.678189    0.307424
      5          1           0        0.287516   -0.401832    1.311799
      6          1           0        1.368712   -1.447758    0.445866
      7          6           0       -0.527075   -1.308090   -0.500011
      8          1           0       -0.406174   -1.079072   -1.558928
      9          1           0       -0.515981   -2.392347   -0.396344
     10          7           0       -1.930017   -0.891405   -0.143793
     11          6           0       -2.294204   -1.383230    1.218299
     12          1           0       -3.318489   -1.068378    1.401213
     13          1           0       -2.192256   -2.466240    1.234539
     14          1           0       -1.628779   -0.934468    1.948869
     15          6           0       -2.852790   -1.519523   -1.138072
     16          1           0       -2.712129   -2.597890   -1.110315
     17          1           0       -3.864722   -1.233876   -0.864981
     18          1           0       -2.605145   -1.135572   -2.124668
     19          6           0       -2.082990    0.614451   -0.204707
     20          1           0       -1.733564    0.923583   -1.187728
     21          1           0       -1.426267    1.031035    0.554052
     22          6           0       -3.522776    1.208718    0.028363
     23          8           0       -4.427175    0.416869    0.351621
     24          8           0       -3.512340    2.424464   -0.145402
     25          7           0        2.367991    0.998713    0.474671
     26          1           0        3.158599    0.370506    0.424022
     27          1           0        2.687544    1.908873    0.176603
 ---------------------------------------------------------------------
                    Distance matrix (angstroms):
                    1          2          3          4          5
     1  C    0.000000
     2  H    1.089047   0.000000
     3  H    1.099097   1.755184   0.000000
     4  C    1.527919   2.160633   2.150192   0.000000
     5  H    2.144894   2.492973   3.046884   1.089384   0.000000
     6  H    2.136537   3.044856   2.501225   1.092105   1.735738
     7  C    2.573137   2.864594   2.755910   1.527495   2.183465
     8  H    2.616192   2.833993   2.389403   2.160800   3.030005
     9  H    3.424272   3.887477   3.508443   2.166360   2.743266
    10  N    3.504966   3.353583   3.880326   2.584938   2.697384
    11  C    4.337310   4.278784   4.930962   3.120839   2.763542
    12  H    5.163102   4.920008   5.772421   4.092983   3.668181
    13  H    4.844317   4.987682   5.324161   3.447974   3.227541
    14  H    3.978606   3.960315   4.761360   2.784879   2.088480
    15  C    4.667921   4.501809   4.768637   3.842204   4.136741
    16  H    5.117931   5.160806   5.150109   4.087436   4.437023
    17  H    5.450336   5.130129   5.654941   4.655455   4.761486
    18  H    4.572265   4.350554   4.461337   4.054328   4.551392
    19  C    3.353755   2.743195   3.848934   3.027444   2.991976
    20  H    3.138582   2.437523   3.371938   3.205630   3.476942
    21  H    2.885048   2.237236   3.643398   2.667125   2.358885
    22  C    4.851934   4.102487   5.364157   4.548348   4.331213
    23  O    5.738204   5.125482   6.239215   5.151395   4.880628
    24  O    5.144377   4.213703   5.657222   5.176350   4.954824
    25  N    1.455067   2.067574   2.147433   2.437943   2.643990
    26  H    2.051816   2.918024   2.404438   2.761818   3.102864
    27  H    2.048967   2.296774   2.528234   3.322895   3.519682
                    6          7          8          9         10
     6  H    0.000000
     7  C    2.123252   0.000000
     8  H    2.702841   1.090124   0.000000
     9  H    2.270162   1.089258   1.757370   0.000000
    10  N    3.396887   1.506242   2.088043   2.077524   0.000000
    11  C    3.744031   2.465965   3.371966   2.605276   1.493257
    12  H    4.798591   3.385870   4.152605   3.583037   2.084759
    13  H    3.786794   2.668858   3.594132   2.339901   2.109188
    14  H    3.392262   2.711155   3.717568   2.977206   2.114671
    15  C    4.509445   2.420904   2.521319   2.602433   1.494869
    16  H    4.516388   2.609697   2.797408   2.318419   2.111387
    17  H    5.399342   3.358363   3.530875   3.574317   2.092960
    18  H    4.743063   2.643416   2.271283   2.988510   2.106960
    19  C    4.073107   2.490831   2.741103   3.396038   1.514831
    20  H    4.232731   2.628485   2.431127   3.619970   2.102992
    21  H    3.737383   2.718658   3.155602   3.667617   2.106307
    22  C    5.581920   3.948130   4.179316   4.710505   2.641408
    23  O    6.089173   4.348741   4.696433   4.873252   2.862309
    24  O    6.258464   4.792652   4.890918   5.678274   3.674062
    25  N    2.642841   3.827891   4.018545   4.535994   4.735812
    26  H    2.551520   4.153999   4.329085   4.669999   5.273409
    27  H    3.616462   4.597873   4.637993   5.393638   5.409814
                   11         12         13         14         15
    11  C    0.000000
    12  H    1.087083   0.000000
    13  H    1.087919   1.802831   0.000000
    14  H    1.085316   1.781286   1.781600   0.000000
    15  C    2.425505   2.620759   2.638534   3.371898   0.000000
    16  H    2.659417   3.002474   2.405398   3.646810   1.087856
    17  H    2.613214   2.336963   2.953616   3.606499   1.086360
    18  H    3.366518   3.597946   3.636678   4.193738   1.087253
    19  C    2.461765   2.633885   3.402062   2.691346   2.453081
    20  H    3.380040   3.630773   4.191500   3.647132   2.687731
    21  H    2.650135   2.950546   3.644274   2.418620   3.376922
    22  C    3.105404   2.666762   4.090289   3.445114   3.041834
    23  O    2.922508   2.129974   3.753229   3.494042   2.906456
    24  O    4.223987   3.824858   5.250318   4.383627   4.120125
    25  N    5.287976   6.121062   5.777469   4.678100   6.016561
    26  H    5.782691   6.706561   6.110295   5.191060   6.492237
    27  H    6.061426   6.814407   6.638772   5.464079   6.646622
                   16         17         18         19         20
    16  H    0.000000
    17  H    1.802553   0.000000
    18  H    1.782901   1.784099   0.000000
    19  C    3.396333   2.650819   2.649807   0.000000
    20  H    3.655729   3.049693   2.424382   1.088114   0.000000
    21  H    4.194360   3.617947   3.641357   1.086528   1.771942
    22  C    4.055121   2.623215   3.312595   1.574947   2.182076
    23  O    3.763962   2.126366   3.444107   2.417384   3.143548
    24  O    5.176431   3.745052   4.173051   2.307099   2.550123
    25  N    6.423033   6.754689   6.003650   4.518898   4.426282
    26  H    6.755073   7.318648   6.479570   5.284796   5.180434
    27  H    7.150073   7.341251   6.525109   4.957714   4.730581
                   21         22         23         24         25
    21  H    0.000000
    22  C    2.168702   0.000000
    23  O    3.069793   1.244773   0.000000
    24  O    2.604338   1.228145   2.261503   0.000000
    25  N    3.795225   5.911381   6.821141   6.082396   0.000000
    26  H    4.634026   6.745362   7.586261   7.003171   1.011074
    27  H    4.223329   6.251421   7.271585   6.229613   1.009629
                   26         27
    26  H    0.000000
    27  H    1.627785   0.000000
 Stoichiometry    C7H16N2O2
 Framework group  C1[X(C7H16N2O2)]
 Deg. of freedom    75
 Full point group                 C1      NOp   1
 Largest Abelian subgroup         C1      NOp   1
 Largest concise Abelian subgroup C1      NOp   1
                         Standard orientation:                         
 ---------------------------------------------------------------------
 Center     Atomic      Atomic             Coordinates (Angstroms)
 Number     Number       Type             X           Y           Z
 ---------------------------------------------------------------------
      1          6           0        2.690541    0.608217   -0.422139
      2          1           0        1.945991    1.394948   -0.534932
      3          1           0        2.977318    0.297775   -1.436733
      4          6           0        2.084363   -0.590535    0.305927
      5          1           0        1.778437   -0.279697    1.304200
      6          1           0        2.874182   -1.328743    0.460616
      7          6           0        0.954971   -1.291316   -0.446814
      8          1           0        1.045586   -1.106209   -1.517279
      9          1           0        1.003505   -2.368961   -0.295790
     10          7           0       -0.452788   -0.903508   -0.077241
     11          6           0       -0.771453   -1.345127    1.313170
     12          1           0       -1.801259   -1.054827    1.505462
     13          1           0       -0.634053   -2.422577    1.374739
     14          1           0       -0.105413   -0.843392    2.007837
     15          6           0       -1.375822   -1.604235   -1.021499
     16          1           0       -1.199641   -2.675314   -0.949518
     17          1           0       -2.390397   -1.338671   -0.738139
     18          1           0       -1.162037   -1.257199   -2.029457
     19          6           0       -0.655870    0.592548   -0.200877
     20          1           0       -0.337875    0.868243   -1.204303
     21          1           0        0.003127    1.063141    0.523561
     22          6           0       -2.108860    1.151003    0.038725
     23          8           0       -2.979904    0.346315    0.417168
     24          8           0       -2.141658    2.357481   -0.188593
     25          7           0        3.793849    1.146828    0.358777
     26          1           0        4.603176    0.542198    0.317738
     27          1           0        4.077190    2.052354    0.013682
 ---------------------------------------------------------------------
 Rotational constants (GHZ):           1.5618397           0.6304380           0.5098680
 Standard basis: 6-311+G(2d,2p) (5D, 7F)
 There are   463 symmetry adapted cartesian basis functions of A   symmetry.
 There are   441 symmetry adapted basis functions of A   symmetry.
   441 basis functions,   638 primitive gaussians,   463 cartesian basis functions
    44 alpha electrons       44 beta electrons
       nuclear repulsion energy       682.1177295949 Hartrees.
 NAtoms=   27 NActive=   27 NUniq=   27 SFac= 1.00D+00 NAtFMM=   60 NAOKFM=F Big=F
 Integral buffers will be    131072 words long.
 Raffenetti 2 integral format.
 Two-electron integral symmetry is turned on.
 Nuclear repulsion after empirical dispersion term =      682.0961882488 Hartrees.
 One-electron integrals computed using PRISM.
 NBasis=   441 RedAO= T EigKep=  1.19D-05  NBF=   441
 NBsUse=   441 1.00D-06 EigRej= -1.00D+00 NBFU=   441
 Initial guess from the checkpoint file:  "aminopropyl_betaine_h.chk"
 B after Tr=    -0.000000   -0.000000   -0.000000
         Rot=    1.000000    0.000047    0.000019    0.000012 Ang=   0.01 deg.
 Requested convergence on RMS density matrix=1.00D-08 within  32 cycles.
 Requested convergence on MAX density matrix=1.00D-06.
 Requested convergence on             energy=1.00D-06.
 No special actions if energy rises.
 SCF Done:  E(RwB97XD) =  -536.304429040     A.U. after    8 cycles
            NFock=  8  Conv=0.53D-08     -V/T= 2.0039
 QCSCF skips out because SCF is already converged.
 Calling FoFJK, ICntrl=      2127 FMM=F ISym2X=0 I1Cent= 0 IOpClX= 0 NMat=1 NMatS=1 NMatT=0.
 ***** Axes restored to original set *****
 -------------------------------------------------------------------
 Center     Atomic                   Forces (Hartrees/Bohr)
 Number     Number              X              Y              Z
 -------------------------------------------------------------------
      1        6           0.000021347    0.000003392    0.000016460
      2        1          -0.000002546   -0.000000647    0.000000813
      3        1          -0.000002412   -0.000000701   -0.000003946
      4        6          -0.000017821   -0.000025344    0.000001214
      5        1          -0.000002129    0.000002185    0.000001705
      6        1           0.000002064    0.000008596    0.000000622
      7        6           0.000013021    0.000015947    0.000001489
      8        1          -0.000000195   -0.000001246   -0.000000043
      9        1           0.000000950   -0.000001152   -0.000001897
     10        7          -0.000005266   -0.000011308    0.000003619
     11        6          -0.000002054   -0.000005005   -0.000005410
     12        1           0.000002526    0.000000628    0.000000763
     13        1           0.000002802   -0.000000072   -0.000000163
     14        1           0.000000817    0.000001716    0.000001352
     15        6           0.000002878    0.000003443   -0.000000714
     16        1           0.000000824   -0.000001071    0.000000354
     17        1           0.000001554   -0.000002918    0.000000107
     18        1           0.000001675   -0.000001272   -0.000000381
     19        6          -0.000005507    0.000006055   -0.000007728
     20        1           0.000004356   -0.000002763   -0.000000421
     21        1          -0.000001901    0.000000576   -0.000001225
     22        6           0.000003404    0.000010451    0.000018234
     23        8          -0.000005348    0.000002907   -0.000007803
     24        8          -0.000004104   -0.000007121   -0.000006169
     25        7           0.000026040    0.000011064   -0.000032937
     26        1          -0.000020951    0.000004632    0.000009908
     27        1          -0.000014024   -0.000010970    0.000012196
 -------------------------------------------------------------------
 Cartesian Forces:  Max     0.000032937 RMS     0.000008794

 GradGradGradGradGradGradGradGradGradGradGradGradGradGradGradGradGradGrad
 Berny optimization.
 Using GEDIIS/GDIIS optimizer.
 FormGI is forming the generalized inverse of G from B-inverse, IUseBI=4.
 Internal  Forces:  Max     0.000018829 RMS     0.000004569
 Search for a local minimum.
 Step number  14 out of a maximum of  150
 All quantities printed in internal units (Hartrees-Bohrs-Radians)
 Mixed Optimization -- En-DIIS/RFO-DIIS
 Swapping is turned off.
 Update second derivatives using D2CorX and points    2    5    4    6    7
                                                      8    9   10   11   12
                                                     13   14
 DE= -4.97D-08 DEPred=-3.83D-08 R= 1.30D+00
 Trust test= 1.30D+00 RLast= 4.76D-03 DXMaxT set to 3.18D-01
 ITU=  0  0  0  1  1  0  1  1  0 -1  0 -1  1  0
     Eigenvalues ---    0.00140   0.00190   0.00260   0.00346   0.00440
     Eigenvalues ---    0.00453   0.00781   0.01624   0.03281   0.03843
     Eigenvalues ---    0.03965   0.04093   0.04523   0.04726   0.04778
     Eigenvalues ---    0.05236   0.05445   0.05705   0.05752   0.06048
     Eigenvalues ---    0.06075   0.06156   0.06211   0.06601   0.08365
     Eigenvalues ---    0.08934   0.09246   0.09365   0.10149   0.12538
     Eigenvalues ---    0.12573   0.13105   0.13954   0.15187   0.15625
     Eigenvalues ---    0.15950   0.15989   0.16006   0.16019   0.16059
     Eigenvalues ---    0.16142   0.16341   0.18358   0.20931   0.22677
     Eigenvalues ---    0.24541   0.25441   0.26817   0.27478   0.28707
     Eigenvalues ---    0.30886   0.31276   0.33108   0.33345   0.33749
     Eigenvalues ---    0.34654   0.34820   0.34913   0.34955   0.35041
     Eigenvalues ---    0.35065   0.35096   0.35135   0.35154   0.35169
     Eigenvalues ---    0.35198   0.35299   0.35403   0.35835   0.40962
     Eigenvalues ---    0.47647   0.47698   0.57154   0.86002   0.92220
 En-DIIS/RFO-DIIS/Sim-DIIS IScMMF=       -3 using points:    14   13   12   11   10    9    8    7    6
 RFO step:  Lambda=-2.20915407D-08.
 DIIS inversion failure, remove point   9.
 DIIS inversion failure, remove point   8.
 DIIS inversion failure, remove point   7.
 DIIS inversion failure, remove point   6.
 DIIS inversion failure, remove point   5.
 DIIS inversion failure, remove point   4.
 RFO-DIIS uses    3 points instead of    9
 DidBck=F Rises=F RFO-DIIS coefs:    1.40478   -0.40770    0.00291    0.00000    0.00000
                  RFO-DIIS coefs:    0.00000    0.00000    0.00000    0.00000
 Iteration  1 RMS(Cart)=  0.00024721 RMS(Int)=  0.00000004
 Iteration  2 RMS(Cart)=  0.00000006 RMS(Int)=  0.00000000
 Variable       Old X    -DE/DX   Delta X   Delta X   Delta X     New X
                                 (Linear)    (Quad)   (Total)
    R1        2.05800   0.00000   0.00002   0.00000   0.00002   2.05802
    R2        2.07699   0.00000   0.00001   0.00001   0.00002   2.07701
    R3        2.88735   0.00001   0.00003   0.00001   0.00004   2.88739
    R4        2.74968  -0.00001  -0.00004  -0.00003  -0.00008   2.74960
    R5        2.05864   0.00000   0.00000  -0.00000   0.00000   2.05864
    R6        2.06378  -0.00000  -0.00001  -0.00001  -0.00002   2.06376
    R7        2.88655  -0.00001  -0.00001  -0.00003  -0.00004   2.88651
    R8        2.06004  -0.00000  -0.00000   0.00000  -0.00000   2.06004
    R9        2.05840   0.00000  -0.00000   0.00000   0.00000   2.05840
   R10        2.84639   0.00000  -0.00001   0.00002   0.00001   2.84639
   R11        2.82185  -0.00000  -0.00000  -0.00001  -0.00001   2.82184
   R12        2.82489  -0.00000   0.00001  -0.00003  -0.00002   2.82488
   R13        2.86262   0.00001   0.00001   0.00003   0.00003   2.86265
   R14        2.05429  -0.00000  -0.00000  -0.00001  -0.00001   2.05428
   R15        2.05587   0.00000  -0.00000   0.00000  -0.00000   2.05587
   R16        2.05095   0.00000   0.00000   0.00000   0.00000   2.05095
   R17        2.05575   0.00000   0.00000   0.00000   0.00000   2.05575
   R18        2.05292  -0.00000   0.00000  -0.00000  -0.00000   2.05292
   R19        2.05461  -0.00000  -0.00000  -0.00000  -0.00000   2.05461
   R20        2.05624   0.00000   0.00000  -0.00000   0.00000   2.05624
   R21        2.05324  -0.00000  -0.00000   0.00000  -0.00000   2.05324
   R22        2.97622   0.00001  -0.00001   0.00003   0.00001   2.97623
   R23        2.35228  -0.00000  -0.00000  -0.00000  -0.00000   2.35228
   R24        2.32086  -0.00001  -0.00001  -0.00000  -0.00001   2.32085
   R25        1.91065  -0.00002   0.00001  -0.00004  -0.00003   1.91062
   R26        1.90792  -0.00002   0.00000  -0.00004  -0.00003   1.90789
    A1        1.86170   0.00000  -0.00000  -0.00002  -0.00002   1.86168
    A2        1.92292  -0.00000  -0.00008  -0.00003  -0.00010   1.92282
    A3        1.88239  -0.00000   0.00003  -0.00001   0.00002   1.88241
    A4        1.89841  -0.00001   0.00000  -0.00003  -0.00003   1.89839
    A5        1.98464  -0.00000   0.00002   0.00002   0.00004   1.98468
    A6        1.91294   0.00001   0.00003   0.00005   0.00008   1.91302
    A7        1.90097   0.00000  -0.00005   0.00001  -0.00004   1.90093
    A8        1.88693  -0.00000   0.00004  -0.00004   0.00000   1.88693
    A9        2.00254  -0.00001  -0.00010  -0.00004  -0.00013   2.00241
   A10        1.84021  -0.00000   0.00002   0.00001   0.00003   1.84024
   A11        1.95503   0.00000   0.00001   0.00001   0.00002   1.95505
   A12        1.86964   0.00001   0.00009   0.00005   0.00014   1.86978
   A13        1.92255   0.00000   0.00001   0.00001   0.00002   1.92257
   A14        1.93116  -0.00000   0.00004  -0.00000   0.00003   1.93120
   A15        2.03980   0.00000  -0.00004   0.00002  -0.00003   2.03978
   A16        1.87595  -0.00000  -0.00000  -0.00002  -0.00003   1.87592
   A17        1.84929  -0.00000  -0.00001  -0.00000  -0.00001   1.84927
   A18        1.83625  -0.00000   0.00001   0.00000   0.00001   1.83626
   A19        1.93026  -0.00000   0.00000   0.00001   0.00002   1.93027
   A20        1.87698  -0.00000   0.00001  -0.00001  -0.00000   1.87698
   A21        1.93858  -0.00000  -0.00003  -0.00000  -0.00003   1.93855
   A22        1.89416   0.00000   0.00000  -0.00001  -0.00000   1.89416
   A23        1.91714   0.00000   0.00001   0.00002   0.00003   1.91717
   A24        1.90563  -0.00000   0.00001  -0.00002  -0.00001   1.90562
   A25        1.86282   0.00000   0.00000   0.00001   0.00001   1.86283
   A26        1.89509  -0.00000  -0.00001   0.00000  -0.00000   1.89509
   A27        1.90529  -0.00000   0.00000  -0.00000   0.00000   1.90529
   A28        1.95423   0.00000   0.00002   0.00001   0.00003   1.95426
   A29        1.92269  -0.00000  -0.00002  -0.00001  -0.00003   1.92266
   A30        1.92209   0.00000  -0.00000  -0.00000  -0.00001   1.92209
   A31        1.89624  -0.00000   0.00000  -0.00001  -0.00001   1.89623
   A32        1.87268   0.00000  -0.00000  -0.00000  -0.00000   1.87268
   A33        1.89080   0.00000   0.00001  -0.00001   0.00000   1.89080
   A34        1.95484  -0.00000  -0.00001  -0.00000  -0.00002   1.95483
   A35        1.92171   0.00000  -0.00001   0.00001  -0.00000   1.92171
   A36        1.92562   0.00000   0.00001   0.00001   0.00003   1.92564
   A37        1.86117  -0.00001  -0.00001  -0.00003  -0.00003   1.86114
   A38        1.86713  -0.00000   0.00001  -0.00001  -0.00001   1.86713
   A39        2.05043   0.00002  -0.00000   0.00003   0.00003   2.05046
   A40        1.90484   0.00000  -0.00002  -0.00001  -0.00003   1.90481
   A41        1.89660  -0.00000   0.00000   0.00003   0.00003   1.89663
   A42        1.88025  -0.00001   0.00001  -0.00001   0.00000   1.88025
   A43        2.05173   0.00001  -0.00002   0.00001  -0.00000   2.05172
   A44        1.92283  -0.00000  -0.00001   0.00001  -0.00000   1.92283
   A45        2.30856  -0.00001   0.00002  -0.00002   0.00000   2.30856
   A46        1.94315  -0.00000  -0.00001   0.00005   0.00004   1.94319
   A47        1.94051   0.00000   0.00001   0.00006   0.00008   1.94059
   A48        1.87322   0.00001  -0.00002   0.00014   0.00012   1.87334
    D1       -1.08445  -0.00000  -0.00010   0.00007  -0.00003  -1.08448
    D2       -3.07567  -0.00000  -0.00011   0.00008  -0.00004  -3.07570
    D3        1.12260  -0.00000  -0.00020   0.00007  -0.00013   1.12247
    D4       -3.11934   0.00000  -0.00005   0.00012   0.00007  -3.11927
    D5        1.17263   0.00000  -0.00007   0.00013   0.00006   1.17269
    D6       -0.91229   0.00000  -0.00016   0.00012  -0.00004  -0.91232
    D7        0.98423  -0.00000  -0.00009   0.00008  -0.00001   0.98422
    D8       -1.00698   0.00000  -0.00011   0.00008  -0.00003  -1.00701
    D9       -3.09190  -0.00000  -0.00020   0.00008  -0.00012  -3.09202
   D10       -2.91281  -0.00001  -0.00033  -0.00003  -0.00036  -2.91317
   D11       -0.82501   0.00000  -0.00034   0.00022  -0.00012  -0.82514
   D12       -0.85207  -0.00001  -0.00030  -0.00005  -0.00035  -0.85241
   D13        1.23573   0.00000  -0.00032   0.00020  -0.00011   1.23561
   D14        1.27675  -0.00000  -0.00027  -0.00003  -0.00029   1.27645
   D15       -2.91864   0.00000  -0.00028   0.00022  -0.00006  -2.91871
   D16        0.42066  -0.00000  -0.00047  -0.00003  -0.00050   0.42017
   D17        2.49246  -0.00000  -0.00044  -0.00005  -0.00050   2.49196
   D18       -1.69028  -0.00000  -0.00043  -0.00004  -0.00047  -1.69075
   D19        2.59958  -0.00000  -0.00061  -0.00003  -0.00064   2.59894
   D20       -1.61181  -0.00000  -0.00059  -0.00006  -0.00064  -1.61246
   D21        0.48864  -0.00000  -0.00057  -0.00004  -0.00062   0.48802
   D22       -1.67387   0.00000  -0.00053   0.00002  -0.00051  -1.67439
   D23        0.39792   0.00000  -0.00050  -0.00001  -0.00051   0.39741
   D24        2.49837   0.00000  -0.00049   0.00000  -0.00049   2.49788
   D25       -1.17181   0.00000   0.00006   0.00013   0.00018  -1.17163
   D26        3.04583   0.00000   0.00005   0.00013   0.00018   3.04601
   D27        0.96163   0.00000   0.00004   0.00017   0.00021   0.96184
   D28        2.96227  -0.00000   0.00008   0.00011   0.00019   2.96245
   D29        0.89672  -0.00000   0.00007   0.00012   0.00019   0.89691
   D30       -1.18748   0.00000   0.00007   0.00015   0.00022  -1.18726
   D31        0.97826   0.00000   0.00008   0.00013   0.00022   0.97848
   D32       -1.08729   0.00000   0.00007   0.00014   0.00022  -1.08707
   D33        3.11170   0.00000   0.00007   0.00018   0.00025   3.11195
   D34       -3.12060  -0.00000   0.00008   0.00004   0.00012  -3.12048
   D35       -1.01091   0.00000   0.00010   0.00006   0.00016  -1.01076
   D36        1.08484   0.00000   0.00010   0.00005   0.00015   1.08499
   D37       -1.06556  -0.00000   0.00009   0.00003   0.00012  -1.06544
   D38        1.04413   0.00000   0.00012   0.00005   0.00016   1.04429
   D39        3.13988  -0.00000   0.00011   0.00004   0.00015   3.14004
   D40        1.01664  -0.00000   0.00011   0.00001   0.00013   1.01676
   D41        3.12632   0.00000   0.00014   0.00003   0.00017   3.12649
   D42       -1.06111   0.00000   0.00013   0.00003   0.00016  -1.06095
   D43        1.00412  -0.00000   0.00014  -0.00002   0.00012   1.00423
   D44        3.12087  -0.00000   0.00012  -0.00003   0.00009   3.12097
   D45       -1.08340  -0.00000   0.00014  -0.00002   0.00012  -1.08328
   D46       -1.08456   0.00000   0.00013  -0.00002   0.00010  -1.08445
   D47        1.03220   0.00000   0.00011  -0.00004   0.00008   1.03228
   D48        3.11111   0.00000   0.00013  -0.00002   0.00011   3.11122
   D49        3.10922  -0.00000   0.00011  -0.00004   0.00007   3.10930
   D50       -1.05720  -0.00000   0.00009  -0.00005   0.00005  -1.05716
   D51        1.02171  -0.00000   0.00011  -0.00004   0.00008   1.02178
   D52        0.92635  -0.00000   0.00007  -0.00002   0.00005   0.92640
   D53       -1.11011   0.00000   0.00009   0.00001   0.00010  -1.11001
   D54        3.05808   0.00000   0.00007   0.00002   0.00008   3.05816
   D55        3.06739  -0.00000   0.00005   0.00002   0.00007   3.06746
   D56        1.03092  -0.00000   0.00007   0.00005   0.00012   1.03104
   D57       -1.08407  -0.00000   0.00005   0.00005   0.00010  -1.08397
   D58       -1.14064  -0.00000   0.00007   0.00001   0.00008  -1.14056
   D59        3.10608   0.00000   0.00009   0.00004   0.00013   3.10621
   D60        0.99109   0.00000   0.00007   0.00004   0.00011   0.99120
   D61        0.09589  -0.00000  -0.00014  -0.00007  -0.00022   0.09567
   D62       -3.05668   0.00001  -0.00013  -0.00001  -0.00013  -3.05682
   D63        2.20930  -0.00000  -0.00015  -0.00006  -0.00021   2.20909
   D64       -0.94327   0.00001  -0.00013   0.00000  -0.00013  -0.94341
   D65       -2.01228  -0.00001  -0.00016  -0.00007  -0.00023  -2.01251
   D66        1.11833   0.00000  -0.00015  -0.00000  -0.00015   1.11819
         Item               Value     Threshold  Converged?
 Maximum Force            0.000019     0.000450     YES
 RMS     Force            0.000005     0.000300     YES
 Maximum Displacement     0.000997     0.001800     YES
 RMS     Displacement     0.000247     0.001200     YES
 Predicted change in Energy=-1.104592D-08
 Optimization completed.
    -- Stationary point found.
                           ----------------------------
                           !   Optimized Parameters   !
                           ! (Angstroms and Degrees)  !
 --------------------------                            --------------------------
 ! Name  Definition              Value          Derivative Info.                !
 --------------------------------------------------------------------------------
 ! R1    R(1,2)                  1.089          -DE/DX =    0.0                 !
 ! R2    R(1,3)                  1.0991         -DE/DX =    0.0                 !
 ! R3    R(1,4)                  1.5279         -DE/DX =    0.0                 !
 ! R4    R(1,25)                 1.4551         -DE/DX =    0.0                 !
 ! R5    R(4,5)                  1.0894         -DE/DX =    0.0                 !
 ! R6    R(4,6)                  1.0921         -DE/DX =    0.0                 !
 ! R7    R(4,7)                  1.5275         -DE/DX =    0.0                 !
 ! R8    R(7,8)                  1.0901         -DE/DX =    0.0                 !
 ! R9    R(7,9)                  1.0893         -DE/DX =    0.0                 !
 ! R10   R(7,10)                 1.5062         -DE/DX =    0.0                 !
 ! R11   R(10,11)                1.4933         -DE/DX =    0.0                 !
 ! R12   R(10,15)                1.4949         -DE/DX =    0.0                 !
 ! R13   R(10,19)                1.5148         -DE/DX =    0.0                 !
 ! R14   R(11,12)                1.0871         -DE/DX =    0.0                 !
 ! R15   R(11,13)                1.0879         -DE/DX =    0.0                 !
 ! R16   R(11,14)                1.0853         -DE/DX =    0.0                 !
 ! R17   R(15,16)                1.0879         -DE/DX =    0.0                 !
 ! R18   R(15,17)                1.0864         -DE/DX =    0.0                 !
 ! R19   R(15,18)                1.0873         -DE/DX =    0.0                 !
 ! R20   R(19,20)                1.0881         -DE/DX =    0.0                 !
 ! R21   R(19,21)                1.0865         -DE/DX =    0.0                 !
 ! R22   R(19,22)                1.5749         -DE/DX =    0.0                 !
 ! R23   R(22,23)                1.2448         -DE/DX =    0.0                 !
 ! R24   R(22,24)                1.2281         -DE/DX =    0.0                 !
 ! R25   R(25,26)                1.0111         -DE/DX =    0.0                 !
 ! R26   R(25,27)                1.0096         -DE/DX =    0.0                 !
 ! A1    A(2,1,3)              106.6677         -DE/DX =    0.0                 !
 ! A2    A(2,1,4)              110.175          -DE/DX =    0.0                 !
 ! A3    A(2,1,25)             107.8529         -DE/DX =    0.0                 !
 ! A4    A(3,1,4)              108.771          -DE/DX =    0.0                 !
 ! A5    A(3,1,25)             113.7116         -DE/DX =    0.0                 !
 ! A6    A(4,1,25)             109.6032         -DE/DX =    0.0                 !
 ! A7    A(1,4,5)              108.9174         -DE/DX =    0.0                 !
 ! A8    A(1,4,6)              108.1134         -DE/DX =    0.0                 !
 ! A9    A(1,4,7)              114.7371         -DE/DX =    0.0                 !
 ! A10   A(5,4,6)              105.4365         -DE/DX =    0.0                 !
 ! A11   A(5,4,7)              112.015          -DE/DX =    0.0                 !
 ! A12   A(6,4,7)              107.1223         -DE/DX =    0.0                 !
 ! A13   A(4,7,8)              110.1541         -DE/DX =    0.0                 !
 ! A14   A(4,7,9)              110.6475         -DE/DX =    0.0                 !
 ! A15   A(4,7,10)             116.8721         -DE/DX =    0.0                 !
 ! A16   A(8,7,9)              107.484          -DE/DX =    0.0                 !
 ! A17   A(8,7,10)             105.9564         -DE/DX =    0.0                 !
 ! A18   A(9,7,10)             105.2094         -DE/DX =    0.0                 !
 ! A19   A(7,10,11)            110.5955         -DE/DX =    0.0                 !
 ! A20   A(7,10,15)            107.543          -DE/DX =    0.0                 !
 ! A21   A(7,10,19)            111.0724         -DE/DX =    0.0                 !
 ! A22   A(11,10,15)           108.5276         -DE/DX =    0.0                 !
 ! A23   A(11,10,19)           109.8442         -DE/DX =    0.0                 !
 ! A24   A(15,10,19)           109.1845         -DE/DX =    0.0                 !
 ! A25   A(10,11,12)           106.7315         -DE/DX =    0.0                 !
 ! A26   A(10,11,13)           108.5807         -DE/DX =    0.0                 !
 ! A27   A(10,11,14)           109.1653         -DE/DX =    0.0                 !
 ! A28   A(12,11,13)           111.9691         -DE/DX =    0.0                 !
 ! A29   A(12,11,14)           110.162          -DE/DX =    0.0                 !
 ! A30   A(13,11,14)           110.1279         -DE/DX =    0.0                 !
 ! A31   A(10,15,16)           108.6466         -DE/DX =    0.0                 !
 ! A32   A(10,15,17)           107.2966         -DE/DX =    0.0                 !
 ! A33   A(10,15,18)           108.3346         -DE/DX =    0.0                 !
 ! A34   A(16,15,17)           112.0042         -DE/DX =    0.0                 !
 ! A35   A(16,15,18)           110.1062         -DE/DX =    0.0                 !
 ! A36   A(17,15,18)           110.3297         -DE/DX =    0.0                 !
 ! A37   A(10,19,20)           106.6375         -DE/DX =    0.0                 !
 ! A38   A(10,19,21)           106.9789         -DE/DX =    0.0                 !
 ! A39   A(10,19,22)           117.4811         -DE/DX =    0.0                 !
 ! A40   A(20,19,21)           109.1391         -DE/DX =    0.0                 !
 ! A41   A(20,19,22)           108.6669         -DE/DX =    0.0                 !
 ! A42   A(21,19,22)           107.7304         -DE/DX =    0.0                 !
 ! A43   A(19,22,23)           117.5553         -DE/DX =    0.0                 !
 ! A44   A(19,22,24)           110.1702         -DE/DX =    0.0                 !
 ! A45   A(23,22,24)           132.2707         -DE/DX =    0.0                 !
 ! A46   A(1,25,26)            111.3343         -DE/DX =    0.0                 !
 ! A47   A(1,25,27)            111.183          -DE/DX =    0.0                 !
 ! A48   A(26,25,27)           107.3275         -DE/DX =    0.0                 !
 ! D1    D(2,1,4,5)            -62.1344         -DE/DX =    0.0                 !
 ! D2    D(2,1,4,6)           -176.2227         -DE/DX =    0.0                 !
 ! D3    D(2,1,4,7)             64.3204         -DE/DX =    0.0                 !
 ! D4    D(3,1,4,5)           -178.725          -DE/DX =    0.0                 !
 ! D5    D(3,1,4,6)             67.1868         -DE/DX =    0.0                 !
 ! D6    D(3,1,4,7)            -52.2702         -DE/DX =    0.0                 !
 ! D7    D(25,1,4,5)            56.3924         -DE/DX =    0.0                 !
 ! D8    D(25,1,4,6)           -57.6959         -DE/DX =    0.0                 !
 ! D9    D(25,1,4,7)          -177.1529         -DE/DX =    0.0                 !
 ! D10   D(2,1,25,26)         -166.8916         -DE/DX =    0.0                 !
 ! D11   D(2,1,25,27)          -47.2697         -DE/DX =    0.0                 !
 ! D12   D(3,1,25,26)          -48.8199         -DE/DX =    0.0                 !
 ! D13   D(3,1,25,27)           70.802          -DE/DX =    0.0                 !
 ! D14   D(4,1,25,26)           73.1521         -DE/DX =    0.0                 !
 ! D15   D(4,1,25,27)         -167.226          -DE/DX =    0.0                 !
 ! D16   D(1,4,7,8)             24.1022         -DE/DX =    0.0                 !
 ! D17   D(1,4,7,9)            142.8073         -DE/DX =    0.0                 !
 ! D18   D(1,4,7,10)           -96.8458         -DE/DX =    0.0                 !
 ! D19   D(5,4,7,8)            148.9448         -DE/DX =    0.0                 !
 ! D20   D(5,4,7,9)            -92.3501         -DE/DX =    0.0                 !
 ! D21   D(5,4,7,10)            27.9968         -DE/DX =    0.0                 !
 ! D22   D(6,4,7,8)            -95.9059         -DE/DX =    0.0                 !
 ! D23   D(6,4,7,9)             22.7993         -DE/DX =    0.0                 !
 ! D24   D(6,4,7,10)           143.1462         -DE/DX =    0.0                 !
 ! D25   D(4,7,10,11)          -67.1397         -DE/DX =    0.0                 !
 ! D26   D(4,7,10,15)          174.5134         -DE/DX =    0.0                 !
 ! D27   D(4,7,10,19)           55.0975         -DE/DX =    0.0                 !
 ! D28   D(8,7,10,11)          169.7253         -DE/DX =    0.0                 !
 ! D29   D(8,7,10,15)           51.3784         -DE/DX =    0.0                 !
 ! D30   D(8,7,10,19)          -68.0375         -DE/DX =    0.0                 !
 ! D31   D(9,7,10,11)           56.05           -DE/DX =    0.0                 !
 ! D32   D(9,7,10,15)          -62.2969         -DE/DX =    0.0                 !
 ! D33   D(9,7,10,19)          178.2871         -DE/DX =    0.0                 !
 ! D34   D(7,10,11,12)        -178.7971         -DE/DX =    0.0                 !
 ! D35   D(7,10,11,13)         -57.9211         -DE/DX =    0.0                 !
 ! D36   D(7,10,11,14)          62.1568         -DE/DX =    0.0                 !
 ! D37   D(15,10,11,12)        -61.052          -DE/DX =    0.0                 !
 ! D38   D(15,10,11,13)         59.824          -DE/DX =    0.0                 !
 ! D39   D(15,10,11,14)        179.9019         -DE/DX =    0.0                 !
 ! D40   D(19,10,11,12)         58.2491         -DE/DX =    0.0                 !
 ! D41   D(19,10,11,13)        179.1251         -DE/DX =    0.0                 !
 ! D42   D(19,10,11,14)        -60.797          -DE/DX =    0.0                 !
 ! D43   D(7,10,15,16)          57.5316         -DE/DX =    0.0                 !
 ! D44   D(7,10,15,17)         178.8129         -DE/DX =    0.0                 !
 ! D45   D(7,10,15,18)         -62.0743         -DE/DX =    0.0                 !
 ! D46   D(11,10,15,16)        -62.1405         -DE/DX =    0.0                 !
 ! D47   D(11,10,15,17)         59.1408         -DE/DX =    0.0                 !
 ! D48   D(11,10,15,18)        178.2536         -DE/DX =    0.0                 !
 ! D49   D(19,10,15,16)        178.1454         -DE/DX =    0.0                 !
 ! D50   D(19,10,15,17)        -60.5734         -DE/DX =    0.0                 !
 ! D51   D(19,10,15,18)         58.5394         -DE/DX =    0.0                 !
 ! D52   D(7,10,19,20)          53.0761         -DE/DX =    0.0                 !
 ! D53   D(7,10,19,21)         -63.6049         -DE/DX =    0.0                 !
 ! D54   D(7,10,19,22)         175.2149         -DE/DX =    0.0                 !
 ! D55   D(11,10,19,20)        175.7484         -DE/DX =    0.0                 !
 ! D56   D(11,10,19,21)         59.0674         -DE/DX =    0.0                 !
 ! D57   D(11,10,19,22)        -62.1128         -DE/DX =    0.0                 !
 ! D58   D(15,10,19,20)        -65.3536         -DE/DX =    0.0                 !
 ! D59   D(15,10,19,21)        177.9654         -DE/DX =    0.0                 !
 ! D60   D(15,10,19,22)         56.7852         -DE/DX =    0.0                 !
 ! D61   D(10,19,22,23)          5.4941         -DE/DX =    0.0                 !
 ! D62   D(10,19,22,24)       -175.1351         -DE/DX =    0.0                 !
 ! D63   D(20,19,22,23)        126.5836         -DE/DX =    0.0                 !
 ! D64   D(20,19,22,24)        -54.0455         -DE/DX =    0.0                 !
 ! D65   D(21,19,22,23)       -115.295          -DE/DX =    0.0                 !
 ! D66   D(21,19,22,24)         64.0758         -DE/DX =    0.0                 !
 --------------------------------------------------------------------------------
 GradGradGradGradGradGradGradGradGradGradGradGradGradGradGradGradGradGrad

                          Input orientation:                          
 ---------------------------------------------------------------------
 Center     Atomic      Atomic             Coordinates (Angstroms)
 Number     Number       Type             X           Y           Z
 ---------------------------------------------------------------------
      1          6           0        1.266445    0.531132   -0.353088
      2          1           0        0.549824    1.345837   -0.446542
      3          1           0        1.566470    0.256512   -1.374158
      4          6           0        0.606289   -0.678189    0.307424
      5          1           0        0.287516   -0.401832    1.311799
      6          1           0        1.368712   -1.447758    0.445866
      7          6           0       -0.527075   -1.308090   -0.500011
      8          1           0       -0.406174   -1.079072   -1.558928
      9          1           0       -0.515981   -2.392347   -0.396344
     10          7           0       -1.930017   -0.891405   -0.143793
     11          6           0       -2.294204   -1.383230    1.218299
     12          1           0       -3.318489   -1.068378    1.401213
     13          1           0       -2.192256   -2.466240    1.234539
     14          1           0       -1.628779   -0.934468    1.948869
     15          6           0       -2.852790   -1.519523   -1.138072
     16          1           0       -2.712129   -2.597890   -1.110315
     17          1           0       -3.864722   -1.233876   -0.864981
     18          1           0       -2.605145   -1.135572   -2.124668
     19          6           0       -2.082990    0.614451   -0.204707
     20          1           0       -1.733564    0.923583   -1.187728
     21          1           0       -1.426267    1.031035    0.554052
     22          6           0       -3.522776    1.208718    0.028363
     23          8           0       -4.427175    0.416869    0.351621
     24          8           0       -3.512340    2.424464   -0.145402
     25          7           0        2.367991    0.998713    0.474671
     26          1           0        3.158599    0.370506    0.424022
     27          1           0        2.687544    1.908873    0.176603
 ---------------------------------------------------------------------
                    Distance matrix (angstroms):
                    1          2          3          4          5
     1  C    0.000000
     2  H    1.089047   0.000000
     3  H    1.099097   1.755184   0.000000
     4  C    1.527919   2.160633   2.150192   0.000000
     5  H    2.144894   2.492973   3.046884   1.089384   0.000000
     6  H    2.136537   3.044856   2.501225   1.092105   1.735738
     7  C    2.573137   2.864594   2.755910   1.527495   2.183465
     8  H    2.616192   2.833993   2.389403   2.160800   3.030005
     9  H    3.424272   3.887477   3.508443   2.166360   2.743266
    10  N    3.504966   3.353583   3.880326   2.584938   2.697384
    11  C    4.337310   4.278784   4.930962   3.120839   2.763542
    12  H    5.163102   4.920008   5.772421   4.092983   3.668181
    13  H    4.844317   4.987682   5.324161   3.447974   3.227541
    14  H    3.978606   3.960315   4.761360   2.784879   2.088480
    15  C    4.667921   4.501809   4.768637   3.842204   4.136741
    16  H    5.117931   5.160806   5.150109   4.087436   4.437023
    17  H    5.450336   5.130129   5.654941   4.655455   4.761486
    18  H    4.572265   4.350554   4.461337   4.054328   4.551392
    19  C    3.353755   2.743195   3.848934   3.027444   2.991976
    20  H    3.138582   2.437523   3.371938   3.205630   3.476942
    21  H    2.885048   2.237236   3.643398   2.667125   2.358885
    22  C    4.851934   4.102487   5.364157   4.548348   4.331213
    23  O    5.738204   5.125482   6.239215   5.151395   4.880628
    24  O    5.144377   4.213703   5.657222   5.176350   4.954824
    25  N    1.455067   2.067574   2.147433   2.437943   2.643990
    26  H    2.051816   2.918024   2.404438   2.761818   3.102864
    27  H    2.048967   2.296774   2.528234   3.322895   3.519682
                    6          7          8          9         10
     6  H    0.000000
     7  C    2.123252   0.000000
     8  H    2.702841   1.090124   0.000000
     9  H    2.270162   1.089258   1.757370   0.000000
    10  N    3.396887   1.506242   2.088043   2.077524   0.000000
    11  C    3.744031   2.465965   3.371966   2.605276   1.493257
    12  H    4.798591   3.385870   4.152605   3.583037   2.084759
    13  H    3.786794   2.668858   3.594132   2.339901   2.109188
    14  H    3.392262   2.711155   3.717568   2.977206   2.114671
    15  C    4.509445   2.420904   2.521319   2.602433   1.494869
    16  H    4.516388   2.609697   2.797408   2.318419   2.111387
    17  H    5.399342   3.358363   3.530875   3.574317   2.092960
    18  H    4.743063   2.643416   2.271283   2.988510   2.106960
    19  C    4.073107   2.490831   2.741103   3.396038   1.514831
    20  H    4.232731   2.628485   2.431127   3.619970   2.102992
    21  H    3.737383   2.718658   3.155602   3.667617   2.106307
    22  C    5.581920   3.948130   4.179316   4.710505   2.641408
    23  O    6.089173   4.348741   4.696433   4.873252   2.862309
    24  O    6.258464   4.792652   4.890918   5.678274   3.674062
    25  N    2.642841   3.827891   4.018545   4.535994   4.735812
    26  H    2.551520   4.153999   4.329085   4.669999   5.273409
    27  H    3.616462   4.597873   4.637993   5.393638   5.409814
                   11         12         13         14         15
    11  C    0.000000
    12  H    1.087083   0.000000
    13  H    1.087919   1.802831   0.000000
    14  H    1.085316   1.781286   1.781600   0.000000
    15  C    2.425505   2.620759   2.638534   3.371898   0.000000
    16  H    2.659417   3.002474   2.405398   3.646810   1.087856
    17  H    2.613214   2.336963   2.953616   3.606499   1.086360
    18  H    3.366518   3.597946   3.636678   4.193738   1.087253
    19  C    2.461765   2.633885   3.402062   2.691346   2.453081
    20  H    3.380040   3.630773   4.191500   3.647132   2.687731
    21  H    2.650135   2.950546   3.644274   2.418620   3.376922
    22  C    3.105404   2.666762   4.090289   3.445114   3.041834
    23  O    2.922508   2.129974   3.753229   3.494042   2.906456
    24  O    4.223987   3.824858   5.250318   4.383627   4.120125
    25  N    5.287976   6.121062   5.777469   4.678100   6.016561
    26  H    5.782691   6.706561   6.110295   5.191060   6.492237
    27  H    6.061426   6.814407   6.638772   5.464079   6.646622
                   16         17         18         19         20
    16  H    0.000000
    17  H    1.802553   0.000000
    18  H    1.782901   1.784099   0.000000
    19  C    3.396333   2.650819   2.649807   0.000000
    20  H    3.655729   3.049693   2.424382   1.088114   0.000000
    21  H    4.194360   3.617947   3.641357   1.086528   1.771942
    22  C    4.055121   2.623215   3.312595   1.574947   2.182076
    23  O    3.763962   2.126366   3.444107   2.417384   3.143548
    24  O    5.176431   3.745052   4.173051   2.307099   2.550123
    25  N    6.423033   6.754689   6.003650   4.518898   4.426282
    26  H    6.755073   7.318648   6.479570   5.284796   5.180434
    27  H    7.150073   7.341251   6.525109   4.957714   4.730581
                   21         22         23         24         25
    21  H    0.000000
    22  C    2.168702   0.000000
    23  O    3.069793   1.244773   0.000000
    24  O    2.604338   1.228145   2.261503   0.000000
    25  N    3.795225   5.911381   6.821141   6.082396   0.000000
    26  H    4.634026   6.745362   7.586261   7.003171   1.011074
    27  H    4.223329   6.251421   7.271585   6.229613   1.009629
                   26         27
    26  H    0.000000
    27  H    1.627785   0.000000
 Stoichiometry    C7H16N2O2
 Framework group  C1[X(C7H16N2O2)]
 Deg. of freedom    75
 Full point group                 C1      NOp   1
 Largest Abelian subgroup         C1      NOp   1
 Largest concise Abelian subgroup C1      NOp   1
                         Standard orientation:                         
 ---------------------------------------------------------------------
 Center     Atomic      Atomic             Coordinates (Angstroms)
 Number     Number       Type             X           Y           Z
 ---------------------------------------------------------------------
      1          6           0        2.690541    0.608217   -0.422139
      2          1           0        1.945991    1.394948   -0.534932
      3          1           0        2.977318    0.297775   -1.436733
      4          6           0        2.084363   -0.590535    0.305927
      5          1           0        1.778437   -0.279697    1.304200
      6          1           0        2.874182   -1.328743    0.460616
      7          6           0        0.954971   -1.291316   -0.446814
      8          1           0        1.045586   -1.106209   -1.517279
      9          1           0        1.003505   -2.368961   -0.295790
     10          7           0       -0.452788   -0.903508   -0.077241
     11          6           0       -0.771453   -1.345127    1.313170
     12          1           0       -1.801259   -1.054827    1.505462
     13          1           0       -0.634053   -2.422577    1.374739
     14          1           0       -0.105413   -0.843392    2.007837
     15          6           0       -1.375822   -1.604235   -1.021499
     16          1           0       -1.199641   -2.675314   -0.949518
     17          1           0       -2.390397   -1.338671   -0.738139
     18          1           0       -1.162037   -1.257199   -2.029457
     19          6           0       -0.655870    0.592548   -0.200877
     20          1           0       -0.337875    0.868243   -1.204303
     21          1           0        0.003127    1.063141    0.523561
     22          6           0       -2.108860    1.151003    0.038725
     23          8           0       -2.979904    0.346315    0.417168
     24          8           0       -2.141658    2.357481   -0.188593
     25          7           0        3.793849    1.146828    0.358777
     26          1           0        4.603176    0.542198    0.317738
     27          1           0        4.077190    2.052354    0.013682
 ---------------------------------------------------------------------
 Rotational constants (GHZ):           1.5618397           0.6304380           0.5098680

 **********************************************************************

            Population analysis using the SCF density.

 **********************************************************************

 Orbital symmetries:
       Occupied  (A) (A) (A) (A) (A) (A) (A) (A) (A) (A) (A) (A)
                 (A) (A) (A) (A) (A) (A) (A) (A) (A) (A) (A) (A)
                 (A) (A) (A) (A) (A) (A) (A) (A) (A) (A) (A) (A)
                 (A) (A) (A) (A) (A) (A) (A) (A)
       Virtual   (A) (A) (A) (A) (A) (A) (A) (A) (A) (A) (A) (A)
                 (A) (A) (A) (A) (A) (A) (A) (A) (A) (A) (A) (A)
                 (A) (A) (A) (A) (A) (A) (A) (A) (A) (A) (A) (A)
                 (A) (A) (A) (A) (A) (A) (A) (A) (A) (A) (A) (A)
                 (A) (A) (A) (A) (A) (A) (A) (A) (A) (A) (A) (A)
                 (A) (A) (A) (A) (A) (A) (A) (A) (A) (A) (A) (A)
                 (A) (A) (A) (A) (A) (A) (A) (A) (A) (A) (A) (A)
                 (A) (A) (A) (A) (A) (A) (A) (A) (A) (A) (A) (A)
                 (A) (A) (A) (A) (A) (A) (A) (A) (A) (A) (A) (A)
                 (A) (A) (A) (A) (A) (A) (A) (A) (A) (A) (A) (A)
                 (A) (A) (A) (A) (A) (A) (A) (A) (A) (A) (A) (A)
                 (A) (A) (A) (A) (A) (A) (A) (A) (A) (A) (A) (A)
                 (A) (A) (A) (A) (A) (A) (A) (A) (A) (A) (A) (A)
                 (A) (A) (A) (A) (A) (A) (A) (A) (A) (A) (A) (A)
                 (A) (A) (A) (A) (A) (A) (A) (A) (A) (A) (A) (A)
                 (A) (A) (A) (A) (A) (A) (A) (A) (A) (A) (A) (A)
                 (A) (A) (A) (A) (A) (A) (A) (A) (A) (A) (A) (A)
                 (A) (A) (A) (A) (A) (A) (A) (A) (A) (A) (A) (A)
                 (A) (A) (A) (A) (A) (A) (A) (A) (A) (A) (A) (A)
                 (A) (A) (A) (A) (A) (A) (A) (A) (A) (A) (A) (A)
                 (A) (A) (A) (A) (A) (A) (A) (A) (A) (A) (A) (A)
                 (A) (A) (A) (A) (A) (A) (A) (A) (A) (A) (A) (A)
                 (A) (A) (A) (A) (A) (A) (A) (A) (A) (A) (A) (A)
                 (A) (A) (A) (A) (A) (A) (A) (A) (A) (A) (A) (A)
                 (A) (A) (A) (A) (A) (A) (A) (A) (A) (A) (A) (A)
                 (A) (A) (A) (A) (A) (A) (A) (A) (A) (A) (A) (A)
                 (A) (A) (A) (A) (A) (A) (A) (A) (A) (A) (A) (A)
                 (A) (A) (A) (A) (A) (A) (A) (A) (A) (A) (A) (A)
                 (A) (A) (A) (A) (A) (A) (A) (A) (A) (A) (A) (A)
                 (A) (A) (A) (A) (A) (A) (A) (A) (A) (A) (A) (A)
                 (A) (A) (A) (A) (A) (A) (A) (A) (A) (A) (A) (A)
                 (A) (A) (A) (A) (A) (A) (A) (A) (A) (A) (A) (A)
                 (A) (A) (A) (A) (A) (A) (A) (A) (A) (A) (A) (A)
                 (A)
 The electronic state is 1-A.
 Alpha  occ. eigenvalues --  -19.15962 -19.15354 -14.58069 -14.43566 -10.37271
 Alpha  occ. eigenvalues --  -10.34807 -10.34471 -10.34372 -10.33495 -10.32892
 Alpha  occ. eigenvalues --  -10.32293  -1.14464  -1.10460  -1.02253  -1.01488
 Alpha  occ. eigenvalues --   -0.92185  -0.86848  -0.85757  -0.82598  -0.75005
 Alpha  occ. eigenvalues --   -0.72164  -0.64998  -0.64256  -0.62315  -0.60568
 Alpha  occ. eigenvalues --   -0.58043  -0.56859  -0.56538  -0.54882  -0.52794
 Alpha  occ. eigenvalues --   -0.51512  -0.51144  -0.51022  -0.50411  -0.48473
 Alpha  occ. eigenvalues --   -0.48036  -0.47500  -0.45786  -0.45451  -0.43359
 Alpha  occ. eigenvalues --   -0.35198  -0.30602  -0.29884  -0.29269
 Alpha virt. eigenvalues --    0.03189   0.04881   0.05281   0.06355   0.07274
 Alpha virt. eigenvalues --    0.07913   0.08381   0.09058   0.10302   0.10597
 Alpha virt. eigenvalues --    0.11499   0.12363   0.12882   0.13137   0.13970
 Alpha virt. eigenvalues --    0.14049   0.14800   0.15698   0.16173   0.16523
 Alpha virt. eigenvalues --    0.17312   0.17551   0.17979   0.18159   0.18568
 Alpha virt. eigenvalues --    0.19271   0.19595   0.20360   0.20743   0.20829
 Alpha virt. eigenvalues --    0.21571   0.22174   0.22608   0.23179   0.23366
 Alpha virt. eigenvalues --    0.23929   0.24317   0.24631   0.25804   0.26173
 Alpha virt. eigenvalues --    0.27291   0.27906   0.28040   0.28653   0.29486
 Alpha virt. eigenvalues --    0.29957   0.30660   0.31027   0.31466   0.31900
 Alpha virt. eigenvalues --    0.32281   0.33023   0.33672   0.34907   0.35426
 Alpha virt. eigenvalues --    0.35888   0.37230   0.37498   0.37836   0.39062
 Alpha virt. eigenvalues --    0.39583   0.40121   0.41035   0.41541   0.42769
 Alpha virt. eigenvalues --    0.43799   0.45140   0.45848   0.46298   0.47190
 Alpha virt. eigenvalues --    0.48160   0.48805   0.50906   0.52035   0.52546
 Alpha virt. eigenvalues --    0.53159   0.53738   0.53918   0.55621   0.55980
 Alpha virt. eigenvalues --    0.57021   0.58103   0.59017   0.60256   0.60858
 Alpha virt. eigenvalues --    0.61164   0.61410   0.62356   0.63452   0.63988
 Alpha virt. eigenvalues --    0.64993   0.65523   0.65787   0.66315   0.67125
 Alpha virt. eigenvalues --    0.68061   0.68728   0.69515   0.70140   0.70373
 Alpha virt. eigenvalues --    0.71573   0.71979   0.72600   0.72822   0.74308
 Alpha virt. eigenvalues --    0.74634   0.75604   0.76373   0.76989   0.77908
 Alpha virt. eigenvalues --    0.78314   0.79209   0.79858   0.81875   0.82870
 Alpha virt. eigenvalues --    0.84180   0.85105   0.86042   0.90020   0.90378
 Alpha virt. eigenvalues --    0.90943   0.92617   0.93939   0.95680   0.96223
 Alpha virt. eigenvalues --    0.97723   0.98308   1.00007   1.01613   1.02496
 Alpha virt. eigenvalues --    1.04572   1.04808   1.05982   1.06648   1.07387
 Alpha virt. eigenvalues --    1.09347   1.10202   1.10669   1.11775   1.12556
 Alpha virt. eigenvalues --    1.15062   1.15421   1.16385   1.17506   1.18584
 Alpha virt. eigenvalues --    1.19516   1.20601   1.21146   1.21994   1.22786
 Alpha virt. eigenvalues --    1.23598   1.24001   1.24437   1.27276   1.27963
 Alpha virt. eigenvalues --    1.28692   1.29248   1.29582   1.31051   1.32340
 Alpha virt. eigenvalues --    1.33179   1.33316   1.34046   1.35325   1.36702
 Alpha virt. eigenvalues --    1.36806   1.38308   1.38658   1.39248   1.40012
 Alpha virt. eigenvalues --    1.40770   1.41256   1.42901   1.43709   1.43890
 Alpha virt. eigenvalues --    1.44221   1.45896   1.46979   1.47911   1.48948
 Alpha virt. eigenvalues --    1.49815   1.50154   1.51224   1.51974   1.52304
 Alpha virt. eigenvalues --    1.53808   1.54362   1.55603   1.55680   1.56909
 Alpha virt. eigenvalues --    1.58442   1.59389   1.60833   1.61396   1.62328
 Alpha virt. eigenvalues --    1.64561   1.65089   1.65947   1.67379   1.67569
 Alpha virt. eigenvalues --    1.68369   1.69211   1.70751   1.71769   1.73380
 Alpha virt. eigenvalues --    1.74214   1.76168   1.77261   1.78706   1.79551
 Alpha virt. eigenvalues --    1.81728   1.82498   1.83977   1.88182   1.90129
 Alpha virt. eigenvalues --    1.91912   1.92562   1.95102   1.97480   1.98719
 Alpha virt. eigenvalues --    1.99252   2.00530   2.02271   2.04104   2.06657
 Alpha virt. eigenvalues --    2.08106   2.08473   2.15551   2.22328   2.40887
 Alpha virt. eigenvalues --    2.50189   2.65443   2.74988   2.79924   2.82750
 Alpha virt. eigenvalues --    2.84085   2.86138   2.87417   2.88859   2.90457
 Alpha virt. eigenvalues --    2.94161   2.95387   2.98372   3.00440   3.01462
 Alpha virt. eigenvalues --    3.08370   3.10561   3.12583   3.14528   3.16894
 Alpha virt. eigenvalues --    3.20672   3.22668   3.25857   3.29306   3.30238
 Alpha virt. eigenvalues --    3.30934   3.32752   3.34699   3.36642   3.38685
 Alpha virt. eigenvalues --    3.39352   3.42785   3.44203   3.45518   3.46777
 Alpha virt. eigenvalues --    3.47731   3.49471   3.50157   3.51739   3.53007
 Alpha virt. eigenvalues --    3.54305   3.55448   3.58048   3.58720   3.59435
 Alpha virt. eigenvalues --    3.61627   3.62549   3.63654   3.64477   3.66045
 Alpha virt. eigenvalues --    3.67215   3.68456   3.69279   3.71084   3.72767
 Alpha virt. eigenvalues --    3.74521   3.75529   3.76625   3.76990   3.79027
 Alpha virt. eigenvalues --    3.79562   3.81757   3.83658   3.84843   3.84997
 Alpha virt. eigenvalues --    3.88005   3.88669   3.91189   3.91787   3.93020
 Alpha virt. eigenvalues --    3.95028   3.95389   3.96430   3.99568   4.00700
 Alpha virt. eigenvalues --    4.01391   4.03235   4.03483   4.05165   4.05734
 Alpha virt. eigenvalues --    4.06521   4.09962   4.10279   4.11229   4.11650
 Alpha virt. eigenvalues --    4.14340   4.15491   4.16883   4.17668   4.19502
 Alpha virt. eigenvalues --    4.21280   4.22403   4.23136   4.23764   4.25546
 Alpha virt. eigenvalues --    4.25663   4.29483   4.30879   4.32202   4.33606
 Alpha virt. eigenvalues --    4.35776   4.36942   4.37551   4.40576   4.40768
 Alpha virt. eigenvalues --    4.42543   4.42841   4.43729   4.46662   4.48634
 Alpha virt. eigenvalues --    4.51070   4.52051   4.58164   4.63522   4.74444
 Alpha virt. eigenvalues --    4.85282   4.93712   5.00369   5.01135   5.02009
 Alpha virt. eigenvalues --    5.08944   5.10586   5.12228   5.12707   5.14261
 Alpha virt. eigenvalues --    5.15934   5.16087   5.18094   5.21830   5.23117
 Alpha virt. eigenvalues --    5.24409   5.26742   5.29347   5.29769   5.33909
 Alpha virt. eigenvalues --    5.38024   5.45634   5.48512   5.55289   5.69108
 Alpha virt. eigenvalues --    5.73833   5.76059   5.83853   5.98340   6.03758
 Alpha virt. eigenvalues --    6.34214   6.96865   7.05496   7.08635   7.10626
 Alpha virt. eigenvalues --    7.21147   7.32909   7.37064   7.41613   7.45670
 Alpha virt. eigenvalues --    7.54270  23.99415  24.04976  24.08263  24.15129
 Alpha virt. eigenvalues --   24.17145  24.19148  24.35579  35.57336  35.75154
 Alpha virt. eigenvalues --   50.18480  50.26958
          Condensed to atoms (all electrons):
               1          2          3          4          5          6
     1  C    5.121961   0.460640   0.452398   0.035166  -0.039160  -0.017936
     2  H    0.460640   0.520775  -0.034233  -0.025029  -0.006268   0.004322
     3  H    0.452398  -0.034233   0.586778  -0.013336   0.004385  -0.008401
     4  C    0.035166  -0.025029  -0.013336   5.880134   0.440746   0.452565
     5  H   -0.039160  -0.006268   0.004385   0.440746   0.479489  -0.023291
     6  H   -0.017936   0.004322  -0.008401   0.452565  -0.023291   0.518155
     7  C   -0.007740  -0.008415  -0.037980  -0.300873  -0.018669  -0.046102
     8  H   -0.000458  -0.001257   0.005142  -0.023989   0.002323   0.001712
     9  H    0.009088  -0.000268   0.000272  -0.061979   0.001001  -0.009092
    10  N    0.005933  -0.002005   0.003249  -0.055959   0.025935  -0.003097
    11  C    0.028965   0.001088  -0.000899  -0.045084  -0.006010   0.002135
    12  H   -0.000716  -0.000001   0.000002  -0.000598   0.000065  -0.000018
    13  H    0.001620   0.000002   0.000001  -0.011748   0.000172   0.000209
    14  H   -0.006832   0.000065  -0.000018   0.005294   0.004201  -0.000090
    15  C   -0.020927  -0.001161   0.000171  -0.091758   0.005707  -0.000003
    16  H    0.001981  -0.000002  -0.000023  -0.000800  -0.000009  -0.000007
    17  H   -0.000579   0.000005   0.000001   0.003925  -0.000042   0.000010
    18  H   -0.002219   0.000006   0.000047  -0.001157   0.000001   0.000009
    19  C    0.008891  -0.006982  -0.002474   0.049315  -0.016854   0.005682
    20  H   -0.008851  -0.001576  -0.000017  -0.020174   0.000323  -0.000153
    21  H   -0.000719  -0.002832   0.000456   0.059537  -0.003526  -0.000066
    22  C   -0.042887   0.007378  -0.001399   0.032945  -0.002002   0.001641
    23  O   -0.002568  -0.000027  -0.000001   0.009438  -0.000144  -0.000023
    24  O   -0.000017  -0.000678   0.000011  -0.010287   0.000150   0.000009
    25  N    0.255340  -0.034391  -0.047840  -0.039894  -0.001479  -0.001657
    26  H    0.004724   0.005075  -0.008798  -0.032685  -0.000063   0.003089
    27  H   -0.034035  -0.006679  -0.000897   0.011087   0.000150  -0.000121
               7          8          9         10         11         12
     1  C   -0.007740  -0.000458   0.009088   0.005933   0.028965  -0.000716
     2  H   -0.008415  -0.001257  -0.000268  -0.002005   0.001088  -0.000001
     3  H   -0.037980   0.005142   0.000272   0.003249  -0.000899   0.000002
     4  C   -0.300873  -0.023989  -0.061979  -0.055959  -0.045084  -0.000598
     5  H   -0.018669   0.002323   0.001001   0.025935  -0.006010   0.000065
     6  H   -0.046102   0.001712  -0.009092  -0.003097   0.002135  -0.000018
     7  C    5.543598   0.407187   0.467806   0.306446  -0.073453   0.009161
     8  H    0.407187   0.494930  -0.018079  -0.026938   0.001933  -0.000197
     9  H    0.467806  -0.018079   0.487025  -0.021190  -0.000904  -0.000305
    10  N    0.306446  -0.026938  -0.021190   6.963436   0.124795  -0.037692
    11  C   -0.073453   0.001933  -0.000904   0.124795   5.084854   0.425664
    12  H    0.009161  -0.000197  -0.000305  -0.037692   0.425664   0.418499
    13  H   -0.003655   0.000406   0.001884  -0.019568   0.426122  -0.018745
    14  H    0.000481  -0.000417  -0.000618  -0.019856   0.399046  -0.011645
    15  C   -0.010563   0.006999  -0.006263   0.191934  -0.074999  -0.002684
    16  H   -0.001360  -0.002014   0.002614  -0.018801  -0.019078  -0.000734
    17  H    0.003407   0.000113  -0.000208  -0.035726  -0.000983   0.001534
    18  H   -0.016463   0.005144  -0.000455  -0.023808   0.013462   0.000010
    19  C   -0.137088  -0.007278  -0.003447  -0.090018   0.026536  -0.003423
    20  H    0.028511  -0.001780  -0.000160  -0.008023   0.007272   0.000433
    21  H   -0.048267   0.000226   0.000042  -0.020244  -0.015800  -0.001438
    22  C   -0.016877   0.003984  -0.003351  -0.104107  -0.025948  -0.003234
    23  O    0.025013  -0.000542   0.000092   0.080751  -0.056189   0.017979
    24  O    0.011976   0.000118   0.000051   0.035242   0.001151  -0.000367
    25  N    0.007566  -0.000493  -0.000274  -0.002980   0.000482   0.000024
    26  H    0.003095  -0.000027  -0.000001   0.000157   0.000083  -0.000000
    27  H    0.005384  -0.000019  -0.000003  -0.000078   0.000008   0.000000
              13         14         15         16         17         18
     1  C    0.001620  -0.006832  -0.020927   0.001981  -0.000579  -0.002219
     2  H    0.000002   0.000065  -0.001161  -0.000002   0.000005   0.000006
     3  H    0.000001  -0.000018   0.000171  -0.000023   0.000001   0.000047
     4  C   -0.011748   0.005294  -0.091758  -0.000800   0.003925  -0.001157
     5  H    0.000172   0.004201   0.005707  -0.000009  -0.000042   0.000001
     6  H    0.000209  -0.000090  -0.000003  -0.000007   0.000010   0.000009
     7  C   -0.003655   0.000481  -0.010563  -0.001360   0.003407  -0.016463
     8  H    0.000406  -0.000417   0.006999  -0.002014   0.000113   0.005144
     9  H    0.001884  -0.000618  -0.006263   0.002614  -0.000208  -0.000455
    10  N   -0.019568  -0.019856   0.191934  -0.018801  -0.035726  -0.023808
    11  C    0.426122   0.399046  -0.074999  -0.019078  -0.000983   0.013462
    12  H   -0.018745  -0.011645  -0.002684  -0.000734   0.001534   0.000010
    13  H    0.516712  -0.026327  -0.013781   0.003318  -0.000575   0.000104
    14  H   -0.026327   0.513877   0.014644   0.000287   0.000003  -0.000534
    15  C   -0.013781   0.014644   5.115803   0.415617   0.424744   0.411818
    16  H    0.003318   0.000287   0.415617   0.523693  -0.018338  -0.027250
    17  H   -0.000575   0.000003   0.424744  -0.018338   0.422075  -0.012096
    18  H    0.000104  -0.000534   0.411818  -0.027250  -0.012096   0.508286
    19  C    0.017942  -0.027094  -0.123372   0.018959  -0.010586  -0.015743
    20  H   -0.000235  -0.000023  -0.021946  -0.000179  -0.001066   0.000567
    21  H   -0.000136   0.001825   0.001126  -0.000118   0.000509   0.000135
    22  C   -0.008878   0.017227   0.007638  -0.010953   0.004071   0.016908
    23  O    0.001383  -0.002828  -0.052750   0.001416   0.015419  -0.003339
    24  O    0.000033   0.000445   0.002206  -0.000009  -0.000064   0.000815
    25  N    0.000002  -0.000084   0.000360  -0.000010  -0.000003  -0.000002
    26  H   -0.000001   0.000015   0.000016   0.000000   0.000000  -0.000000
    27  H   -0.000000   0.000002   0.000010  -0.000000   0.000000   0.000000
              19         20         21         22         23         24
     1  C    0.008891  -0.008851  -0.000719  -0.042887  -0.002568  -0.000017
     2  H   -0.006982  -0.001576  -0.002832   0.007378  -0.000027  -0.000678
     3  H   -0.002474  -0.000017   0.000456  -0.001399  -0.000001   0.000011
     4  C    0.049315  -0.020174   0.059537   0.032945   0.009438  -0.010287
     5  H   -0.016854   0.000323  -0.003526  -0.002002  -0.000144   0.000150
     6  H    0.005682  -0.000153  -0.000066   0.001641  -0.000023   0.000009
     7  C   -0.137088   0.028511  -0.048267  -0.016877   0.025013   0.011976
     8  H   -0.007278  -0.001780   0.000226   0.003984  -0.000542   0.000118
     9  H   -0.003447  -0.000160   0.000042  -0.003351   0.000092   0.000051
    10  N   -0.090018  -0.008023  -0.020244  -0.104107   0.080751   0.035242
    11  C    0.026536   0.007272  -0.015800  -0.025948  -0.056189   0.001151
    12  H   -0.003423   0.000433  -0.001438  -0.003234   0.017979  -0.000367
    13  H    0.017942  -0.000235  -0.000136  -0.008878   0.001383   0.000033
    14  H   -0.027094  -0.000023   0.001825   0.017227  -0.002828   0.000445
    15  C   -0.123372  -0.021946   0.001126   0.007638  -0.052750   0.002206
    16  H    0.018959  -0.000179  -0.000118  -0.010953   0.001416  -0.000009
    17  H   -0.010586  -0.001066   0.000509   0.004071   0.015419  -0.000064
    18  H   -0.015743   0.000567   0.000135   0.016908  -0.003339   0.000815
    19  C    5.474570   0.389911   0.425931   0.181893  -0.110436  -0.003237
    20  H    0.389911   0.475619  -0.026372   0.028616   0.000145  -0.007214
    21  H    0.425931  -0.026372   0.496903  -0.018415  -0.002778  -0.003401
    22  C    0.181893   0.028616  -0.018415   4.826990   0.415665   0.328428
    23  O   -0.110436   0.000145  -0.002778   0.415665   8.361407  -0.066518
    24  O   -0.003237  -0.007214  -0.003401   0.328428  -0.066518   8.273343
    25  N   -0.001652   0.000813  -0.001238  -0.000827  -0.000037   0.000385
    26  H    0.000493  -0.000005  -0.000029   0.000213  -0.000000   0.000001
    27  H   -0.001044  -0.000007   0.000082  -0.000255   0.000000  -0.000012
              25         26         27
     1  C    0.255340   0.004724  -0.034035
     2  H   -0.034391   0.005075  -0.006679
     3  H   -0.047840  -0.008798  -0.000897
     4  C   -0.039894  -0.032685   0.011087
     5  H   -0.001479  -0.000063   0.000150
     6  H   -0.001657   0.003089  -0.000121
     7  C    0.007566   0.003095   0.005384
     8  H   -0.000493  -0.000027  -0.000019
     9  H   -0.000274  -0.000001  -0.000003
    10  N   -0.002980   0.000157  -0.000078
    11  C    0.000482   0.000083   0.000008
    12  H    0.000024  -0.000000   0.000000
    13  H    0.000002  -0.000001  -0.000000
    14  H   -0.000084   0.000015   0.000002
    15  C    0.000360   0.000016   0.000010
    16  H   -0.000010   0.000000  -0.000000
    17  H   -0.000003   0.000000   0.000000
    18  H   -0.000002  -0.000000   0.000000
    19  C   -0.001652   0.000493  -0.001044
    20  H    0.000813  -0.000005  -0.000007
    21  H   -0.001238  -0.000029   0.000082
    22  C   -0.000827   0.000213  -0.000255
    23  O   -0.000037  -0.000000   0.000000
    24  O    0.000385   0.000001  -0.000012
    25  N    6.458554   0.389916   0.415434
    26  H    0.389916   0.503746  -0.036181
    27  H    0.415434  -0.036181   0.469302
 Mulliken charges:
               1
     1  C   -0.201063
     2  H    0.132446
     3  H    0.103404
     4  C   -0.244802
     5  H    0.152867
     6  H    0.120519
     7  C   -0.092127
     8  H    0.153269
     9  H    0.156722
    10  N   -0.247788
    11  C   -0.224248
    12  H    0.208428
    13  H    0.133742
    14  H    0.138953
    15  C   -0.178587
    16  H    0.131801
    17  H    0.204450
    18  H    0.145755
    19  C   -0.039395
    20  H    0.165573
    21  H    0.158608
    22  C    0.365536
    23  O   -0.630528
    24  O   -0.562560
    25  N   -0.396016
    26  H    0.167169
    27  H    0.177870
 Sum of Mulliken charges =  -0.00000
 Mulliken charges with hydrogens summed into heavy atoms:
               1
     1  C    0.034788
     4  C    0.028584
     7  C    0.217864
    10  N   -0.247788
    11  C    0.256874
    15  C    0.303420
    19  C    0.284786
    22  C    0.365536
    23  O   -0.630528
    24  O   -0.562560
    25  N   -0.050977
 Electronic spatial extent (au):  <R**2>=           2296.8099
 Charge=              0.0000 electrons
 Dipole moment (field-independent basis, Debye):
    X=              9.1594    Y=             -8.0440    Z=             -1.7982  Tot=             12.3221
 Quadrupole moment (field-independent basis, Debye-Ang):
   XX=            -84.8830   YY=            -74.1769   ZZ=            -66.4273
   XY=             15.0682   XZ=             -1.5577   YZ=             -0.6415
 Traceless Quadrupole moment (field-independent basis, Debye-Ang):
   XX=             -9.7206   YY=              0.9855   ZZ=              8.7352
   XY=             15.0682   XZ=             -1.5577   YZ=             -0.6415
 Octapole moment (field-independent basis, Debye-Ang**2):
  XXX=            121.3075  YYY=            -40.6096  ZZZ=             -2.2777  XYY=             32.9562
  XXY=            -29.2928  XXZ=            -22.7679  XZZ=            -10.0189  YZZ=             -5.9344
  YYZ=              0.6115  XYZ=             -8.4656
 Hexadecapole moment (field-independent basis, Debye-Ang**3):
 XXXX=          -1937.1327 YYYY=           -786.6704 ZZZZ=           -265.2070 XXXY=            118.5504
 XXXZ=            -11.1979 YYYX=            109.5687 YYYZ=              2.7731 ZZZX=             -8.9250
 ZZZY=             -3.4847 XXYY=           -469.8267 XXZZ=           -397.4200 YYZZ=           -171.6730
 XXYZ=            -19.3725 YYXZ=            -15.1672 ZZXY=             -3.1905
 N-N= 6.820961882488D+02 E-N=-2.615343935607D+03  KE= 5.341965124448D+02
 1\1\GINC-CCLEARN2\FOpt\RwB97XD\6-311+G(2d,2p)\C7H16N2O2\TROUPPER\28-Se
 p-2026\0\\# opt freq wb97xd/6-311+g(2d,2p) scf=xqc\\opt freq\\0,1\C,1.
 2664447294,0.5311319522,-0.3530878483\H,0.549823507,1.3458371497,-0.44
 65422241\H,1.5664695118,0.2565115605,-1.3741578335\C,0.6062887632,-0.6
 781887365,0.3074235574\H,0.2875160009,-0.4018318243,1.3117985813\H,1.3
 687122127,-1.4477581671,0.4458656047\C,-0.5270747268,-1.3080900957,-0.
 5000114458\H,-0.4061743396,-1.0790716239,-1.5589280737\H,-0.5159811431
 ,-2.3923465852,-0.3963440387\N,-1.9300172654,-0.8914052123,-0.14379310
 53\C,-2.2942039549,-1.383230098,1.2182986007\H,-3.318489452,-1.0683783
 199,1.4012130741\H,-2.192256016,-2.4662401623,1.2345388623\H,-1.628779
 4979,-0.9344675881,1.9488685778\C,-2.8527903385,-1.5195233555,-1.13807
 19453\H,-2.7121288041,-2.5978904466,-1.1103147174\H,-3.8647220753,-1.2
 338757583,-0.8649811108\H,-2.6051446509,-1.1355718754,-2.124668338\C,-
 2.0829902196,0.6144506941,-0.2047072388\H,-1.7335644726,0.9235827408,-
 1.1877283658\H,-1.4262669635,1.0310349378,0.5540523304\C,-3.5227758837
 ,1.2087183536,0.0283629269\O,-4.4271754924,0.4168687304,0.3516205353\O
 ,-3.5123395221,2.4244638057,-0.1454016689\N,2.3679905466,0.9987128392,
 0.474671233\H,3.1585986561,0.3705057423,0.4240223146\H,2.6875442806,1.
 908873283,0.176603246\\Version=EM64M-G16RevA.03\State=1-A\HF=-536.3044
 29\RMSD=5.335e-09\RMSF=8.794e-06\Dipole=3.5173651,-3.2459096,-0.770753
 1\Quadrupole=-6.4530525,0.0473448,6.4057078,11.4919136,-0.9640527,-0.4
 597948\PG=C01 [X(C7H16N2O2)]\\@


 A MAN IS NEVER SO BRILLIANT AS WHEN HE TAKES THE WORDS RIGHT OUT
 OF YOUR MOUTH. -- ARNOT SHEPPARD, JR.
 Job cpu time:       0 days 12 hours 28 minutes 17.7 seconds.
 Elapsed time:       0 days  1 hours 38 minutes 14.2 seconds.
 File lengths (MBytes):  RWF=    120 Int=      0 D2E=      0 Chk=     15 Scr=      1
 Normal termination of Gaussian 16 at Mon Sep 28 20:21:18 2026.
 Link1:  Proceeding to internal job step number  2.
 ----------------------------------------------------------------------
 #N Geom=AllCheck Guess=TCheck SCRF=Check GenChk RwB97XD/6-311+G(2d,2p)
  Freq
 ----------------------------------------------------------------------
 1/10=4,29=7,30=1,38=1,40=1/1,3;
 2/12=2,40=1/2;
 3/5=4,6=6,7=212,11=2,14=-4,25=1,30=1,70=2,71=2,74=-58,116=1,140=1/1,2,3;
 4/5=101/1;
 5/5=2,8=3,13=1,38=6,98=1/2,8;
 8/6=4,10=90,11=11/1;
 11/6=1,8=1,9=11,15=111,16=1/1,2,10;
 10/6=1/2;
 6/7=2,8=2,9=2,10=2,28=1/1;
 7/8=1,10=1,25=1/1,2,3,16;
 1/10=4,30=1/3;
 99//99;
 Structure from the checkpoint file:  "aminopropyl_betaine_h.chk"
 --------
 opt freq
 --------
 Charge =  0 Multiplicity = 1
 Redundant internal coordinates found in file.  (old form).
 C,0,1.2664447294,0.5311319522,-0.3530878483
 H,0,0.549823507,1.3458371497,-0.4465422241
 H,0,1.5664695118,0.2565115605,-1.3741578335
 C,0,0.6062887632,-0.6781887365,0.3074235574
 H,0,0.2875160009,-0.4018318243,1.3117985813
 H,0,1.3687122127,-1.4477581671,0.4458656047
 C,0,-0.5270747268,-1.3080900957,-0.5000114458
 H,0,-0.4061743396,-1.0790716239,-1.5589280737
 H,0,-0.5159811431,-2.3923465852,-0.3963440387
 N,0,-1.9300172654,-0.8914052123,-0.1437931053
 C,0,-2.2942039549,-1.383230098,1.2182986007
 H,0,-3.318489452,-1.0683783199,1.4012130741
 H,0,-2.192256016,-2.4662401623,1.2345388623
 H,0,-1.6287794979,-0.9344675881,1.9488685778
 C,0,-2.8527903385,-1.5195233555,-1.1380719453
 H,0,-2.7121288041,-2.5978904466,-1.1103147174
 H,0,-3.8647220753,-1.2338757583,-0.8649811108
 H,0,-2.6051446509,-1.1355718754,-2.124668338
 C,0,-2.0829902196,0.6144506941,-0.2047072388
 H,0,-1.7335644726,0.9235827408,-1.1877283658
 H,0,-1.4262669635,1.0310349378,0.5540523304
 C,0,-3.5227758837,1.2087183536,0.0283629269
 O,0,-4.4271754924,0.4168687304,0.3516205353
 O,0,-3.5123395221,2.4244638057,-0.1454016689
 N,0,2.3679905466,0.9987128392,0.474671233
 H,0,3.1585986561,0.3705057423,0.4240223146
 H,0,2.6875442806,1.908873283,0.176603246
 Recover connectivity data from disk.

 GradGradGradGradGradGradGradGradGradGradGradGradGradGradGradGradGradGrad
 Berny optimization.
 Initialization pass.
                           ----------------------------
                           !    Initial Parameters    !
                           ! (Angstroms and Degrees)  !
 --------------------------                            --------------------------
 ! Name  Definition              Value          Derivative Info.                !
 --------------------------------------------------------------------------------
 ! R1    R(1,2)                  1.089          calculate D2E/DX2 analytically  !
 ! R2    R(1,3)                  1.0991         calculate D2E/DX2 analytically  !
 ! R3    R(1,4)                  1.5279         calculate D2E/DX2 analytically  !
 ! R4    R(1,25)                 1.4551         calculate D2E/DX2 analytically  !
 ! R5    R(4,5)                  1.0894         calculate D2E/DX2 analytically  !
 ! R6    R(4,6)                  1.0921         calculate D2E/DX2 analytically  !
 ! R7    R(4,7)                  1.5275         calculate D2E/DX2 analytically  !
 ! R8    R(7,8)                  1.0901         calculate D2E/DX2 analytically  !
 ! R9    R(7,9)                  1.0893         calculate D2E/DX2 analytically  !
 ! R10   R(7,10)                 1.5062         calculate D2E/DX2 analytically  !
 ! R11   R(10,11)                1.4933         calculate D2E/DX2 analytically  !
 ! R12   R(10,15)                1.4949         calculate D2E/DX2 analytically  !
 ! R13   R(10,19)                1.5148         calculate D2E/DX2 analytically  !
 ! R14   R(11,12)                1.0871         calculate D2E/DX2 analytically  !
 ! R15   R(11,13)                1.0879         calculate D2E/DX2 analytically  !
 ! R16   R(11,14)                1.0853         calculate D2E/DX2 analytically  !
 ! R17   R(15,16)                1.0879         calculate D2E/DX2 analytically  !
 ! R18   R(15,17)                1.0864         calculate D2E/DX2 analytically  !
 ! R19   R(15,18)                1.0873         calculate D2E/DX2 analytically  !
 ! R20   R(19,20)                1.0881         calculate D2E/DX2 analytically  !
 ! R21   R(19,21)                1.0865         calculate D2E/DX2 analytically  !
 ! R22   R(19,22)                1.5749         calculate D2E/DX2 analytically  !
 ! R23   R(22,23)                1.2448         calculate D2E/DX2 analytically  !
 ! R24   R(22,24)                1.2281         calculate D2E/DX2 analytically  !
 ! R25   R(25,26)                1.0111         calculate D2E/DX2 analytically  !
 ! R26   R(25,27)                1.0096         calculate D2E/DX2 analytically  !
 ! A1    A(2,1,3)              106.6677         calculate D2E/DX2 analytically  !
 ! A2    A(2,1,4)              110.175          calculate D2E/DX2 analytically  !
 ! A3    A(2,1,25)             107.8529         calculate D2E/DX2 analytically  !
 ! A4    A(3,1,4)              108.771          calculate D2E/DX2 analytically  !
 ! A5    A(3,1,25)             113.7116         calculate D2E/DX2 analytically  !
 ! A6    A(4,1,25)             109.6032         calculate D2E/DX2 analytically  !
 ! A7    A(1,4,5)              108.9174         calculate D2E/DX2 analytically  !
 ! A8    A(1,4,6)              108.1134         calculate D2E/DX2 analytically  !
 ! A9    A(1,4,7)              114.7371         calculate D2E/DX2 analytically  !
 ! A10   A(5,4,6)              105.4365         calculate D2E/DX2 analytically  !
 ! A11   A(5,4,7)              112.015          calculate D2E/DX2 analytically  !
 ! A12   A(6,4,7)              107.1223         calculate D2E/DX2 analytically  !
 ! A13   A(4,7,8)              110.1541         calculate D2E/DX2 analytically  !
 ! A14   A(4,7,9)              110.6475         calculate D2E/DX2 analytically  !
 ! A15   A(4,7,10)             116.8721         calculate D2E/DX2 analytically  !
 ! A16   A(8,7,9)              107.484          calculate D2E/DX2 analytically  !
 ! A17   A(8,7,10)             105.9564         calculate D2E/DX2 analytically  !
 ! A18   A(9,7,10)             105.2094         calculate D2E/DX2 analytically  !
 ! A19   A(7,10,11)            110.5955         calculate D2E/DX2 analytically  !
 ! A20   A(7,10,15)            107.543          calculate D2E/DX2 analytically  !
 ! A21   A(7,10,19)            111.0724         calculate D2E/DX2 analytically  !
 ! A22   A(11,10,15)           108.5276         calculate D2E/DX2 analytically  !
 ! A23   A(11,10,19)           109.8442         calculate D2E/DX2 analytically  !
 ! A24   A(15,10,19)           109.1845         calculate D2E/DX2 analytically  !
 ! A25   A(10,11,12)           106.7315         calculate D2E/DX2 analytically  !
 ! A26   A(10,11,13)           108.5807         calculate D2E/DX2 analytically  !
 ! A27   A(10,11,14)           109.1653         calculate D2E/DX2 analytically  !
 ! A28   A(12,11,13)           111.9691         calculate D2E/DX2 analytically  !
 ! A29   A(12,11,14)           110.162          calculate D2E/DX2 analytically  !
 ! A30   A(13,11,14)           110.1279         calculate D2E/DX2 analytically  !
 ! A31   A(10,15,16)           108.6466         calculate D2E/DX2 analytically  !
 ! A32   A(10,15,17)           107.2966         calculate D2E/DX2 analytically  !
 ! A33   A(10,15,18)           108.3346         calculate D2E/DX2 analytically  !
 ! A34   A(16,15,17)           112.0042         calculate D2E/DX2 analytically  !
 ! A35   A(16,15,18)           110.1062         calculate D2E/DX2 analytically  !
 ! A36   A(17,15,18)           110.3297         calculate D2E/DX2 analytically  !
 ! A37   A(10,19,20)           106.6375         calculate D2E/DX2 analytically  !
 ! A38   A(10,19,21)           106.9789         calculate D2E/DX2 analytically  !
 ! A39   A(10,19,22)           117.4811         calculate D2E/DX2 analytically  !
 ! A40   A(20,19,21)           109.1391         calculate D2E/DX2 analytically  !
 ! A41   A(20,19,22)           108.6669         calculate D2E/DX2 analytically  !
 ! A42   A(21,19,22)           107.7304         calculate D2E/DX2 analytically  !
 ! A43   A(19,22,23)           117.5553         calculate D2E/DX2 analytically  !
 ! A44   A(19,22,24)           110.1702         calculate D2E/DX2 analytically  !
 ! A45   A(23,22,24)           132.2707         calculate D2E/DX2 analytically  !
 ! A46   A(1,25,26)            111.3343         calculate D2E/DX2 analytically  !
 ! A47   A(1,25,27)            111.183          calculate D2E/DX2 analytically  !
 ! A48   A(26,25,27)           107.3275         calculate D2E/DX2 analytically  !
 ! D1    D(2,1,4,5)            -62.1344         calculate D2E/DX2 analytically  !
 ! D2    D(2,1,4,6)           -176.2227         calculate D2E/DX2 analytically  !
 ! D3    D(2,1,4,7)             64.3204         calculate D2E/DX2 analytically  !
 ! D4    D(3,1,4,5)           -178.725          calculate D2E/DX2 analytically  !
 ! D5    D(3,1,4,6)             67.1868         calculate D2E/DX2 analytically  !
 ! D6    D(3,1,4,7)            -52.2702         calculate D2E/DX2 analytically  !
 ! D7    D(25,1,4,5)            56.3924         calculate D2E/DX2 analytically  !
 ! D8    D(25,1,4,6)           -57.6959         calculate D2E/DX2 analytically  !
 ! D9    D(25,1,4,7)          -177.1529         calculate D2E/DX2 analytically  !
 ! D10   D(2,1,25,26)         -166.8916         calculate D2E/DX2 analytically  !
 ! D11   D(2,1,25,27)          -47.2697         calculate D2E/DX2 analytically  !
 ! D12   D(3,1,25,26)          -48.8199         calculate D2E/DX2 analytically  !
 ! D13   D(3,1,25,27)           70.802          calculate D2E/DX2 analytically  !
 ! D14   D(4,1,25,26)           73.1521         calculate D2E/DX2 analytically  !
 ! D15   D(4,1,25,27)         -167.226          calculate D2E/DX2 analytically  !
 ! D16   D(1,4,7,8)             24.1022         calculate D2E/DX2 analytically  !
 ! D17   D(1,4,7,9)            142.8073         calculate D2E/DX2 analytically  !
 ! D18   D(1,4,7,10)           -96.8458         calculate D2E/DX2 analytically  !
 ! D19   D(5,4,7,8)            148.9448         calculate D2E/DX2 analytically  !
 ! D20   D(5,4,7,9)            -92.3501         calculate D2E/DX2 analytically  !
 ! D21   D(5,4,7,10)            27.9968         calculate D2E/DX2 analytically  !
 ! D22   D(6,4,7,8)            -95.9059         calculate D2E/DX2 analytically  !
 ! D23   D(6,4,7,9)             22.7993         calculate D2E/DX2 analytically  !
 ! D24   D(6,4,7,10)           143.1462         calculate D2E/DX2 analytically  !
 ! D25   D(4,7,10,11)          -67.1397         calculate D2E/DX2 analytically  !
 ! D26   D(4,7,10,15)          174.5134         calculate D2E/DX2 analytically  !
 ! D27   D(4,7,10,19)           55.0975         calculate D2E/DX2 analytically  !
 ! D28   D(8,7,10,11)          169.7253         calculate D2E/DX2 analytically  !
 ! D29   D(8,7,10,15)           51.3784         calculate D2E/DX2 analytically  !
 ! D30   D(8,7,10,19)          -68.0375         calculate D2E/DX2 analytically  !
 ! D31   D(9,7,10,11)           56.05           calculate D2E/DX2 analytically  !
 ! D32   D(9,7,10,15)          -62.2969         calculate D2E/DX2 analytically  !
 ! D33   D(9,7,10,19)          178.2871         calculate D2E/DX2 analytically  !
 ! D34   D(7,10,11,12)        -178.7971         calculate D2E/DX2 analytically  !
 ! D35   D(7,10,11,13)         -57.9211         calculate D2E/DX2 analytically  !
 ! D36   D(7,10,11,14)          62.1568         calculate D2E/DX2 analytically  !
 ! D37   D(15,10,11,12)        -61.052          calculate D2E/DX2 analytically  !
 ! D38   D(15,10,11,13)         59.824          calculate D2E/DX2 analytically  !
 ! D39   D(15,10,11,14)        179.9019         calculate D2E/DX2 analytically  !
 ! D40   D(19,10,11,12)         58.2491         calculate D2E/DX2 analytically  !
 ! D41   D(19,10,11,13)        179.1251         calculate D2E/DX2 analytically  !
 ! D42   D(19,10,11,14)        -60.797          calculate D2E/DX2 analytically  !
 ! D43   D(7,10,15,16)          57.5316         calculate D2E/DX2 analytically  !
 ! D44   D(7,10,15,17)         178.8129         calculate D2E/DX2 analytically  !
 ! D45   D(7,10,15,18)         -62.0743         calculate D2E/DX2 analytically  !
 ! D46   D(11,10,15,16)        -62.1405         calculate D2E/DX2 analytically  !
 ! D47   D(11,10,15,17)         59.1408         calculate D2E/DX2 analytically  !
 ! D48   D(11,10,15,18)        178.2536         calculate D2E/DX2 analytically  !
 ! D49   D(19,10,15,16)        178.1454         calculate D2E/DX2 analytically  !
 ! D50   D(19,10,15,17)        -60.5734         calculate D2E/DX2 analytically  !
 ! D51   D(19,10,15,18)         58.5394         calculate D2E/DX2 analytically  !
 ! D52   D(7,10,19,20)          53.0761         calculate D2E/DX2 analytically  !
 ! D53   D(7,10,19,21)         -63.6049         calculate D2E/DX2 analytically  !
 ! D54   D(7,10,19,22)         175.2149         calculate D2E/DX2 analytically  !
 ! D55   D(11,10,19,20)        175.7484         calculate D2E/DX2 analytically  !
 ! D56   D(11,10,19,21)         59.0674         calculate D2E/DX2 analytically  !
 ! D57   D(11,10,19,22)        -62.1128         calculate D2E/DX2 analytically  !
 ! D58   D(15,10,19,20)        -65.3536         calculate D2E/DX2 analytically  !
 ! D59   D(15,10,19,21)        177.9654         calculate D2E/DX2 analytically  !
 ! D60   D(15,10,19,22)         56.7852         calculate D2E/DX2 analytically  !
 ! D61   D(10,19,22,23)          5.4941         calculate D2E/DX2 analytically  !
 ! D62   D(10,19,22,24)       -175.1351         calculate D2E/DX2 analytically  !
 ! D63   D(20,19,22,23)        126.5836         calculate D2E/DX2 analytically  !
 ! D64   D(20,19,22,24)        -54.0455         calculate D2E/DX2 analytically  !
 ! D65   D(21,19,22,23)       -115.295          calculate D2E/DX2 analytically  !
 ! D66   D(21,19,22,24)         64.0758         calculate D2E/DX2 analytically  !
 --------------------------------------------------------------------------------
 Trust Radius=3.00D-01 FncErr=1.00D-07 GrdErr=1.00D-07 EigMax=2.50D+02 EigMin=1.00D-04
 Number of steps in this run=      2 maximum allowed number of steps=      2.
 GradGradGradGradGradGradGradGradGradGradGradGradGradGradGradGradGradGrad

                          Input orientation:                          
 ---------------------------------------------------------------------
 Center     Atomic      Atomic             Coordinates (Angstroms)
 Number     Number       Type             X           Y           Z
 ---------------------------------------------------------------------
      1          6           0        1.266445    0.531132   -0.353088
      2          1           0        0.549824    1.345837   -0.446542
      3          1           0        1.566470    0.256512   -1.374158
      4          6           0        0.606289   -0.678189    0.307424
      5          1           0        0.287516   -0.401832    1.311799
      6          1           0        1.368712   -1.447758    0.445866
      7          6           0       -0.527075   -1.308090   -0.500011
      8          1           0       -0.406174   -1.079072   -1.558928
      9          1           0       -0.515981   -2.392347   -0.396344
     10          7           0       -1.930017   -0.891405   -0.143793
     11          6           0       -2.294204   -1.383230    1.218299
     12          1           0       -3.318489   -1.068378    1.401213
     13          1           0       -2.192256   -2.466240    1.234539
     14          1           0       -1.628779   -0.934468    1.948869
     15          6           0       -2.852790   -1.519523   -1.138072
     16          1           0       -2.712129   -2.597890   -1.110315
     17          1           0       -3.864722   -1.233876   -0.864981
     18          1           0       -2.605145   -1.135572   -2.124668
     19          6           0       -2.082990    0.614451   -0.204707
     20          1           0       -1.733564    0.923583   -1.187728
     21          1           0       -1.426267    1.031035    0.554052
     22          6           0       -3.522776    1.208718    0.028363
     23          8           0       -4.427175    0.416869    0.351621
     24          8           0       -3.512340    2.424464   -0.145402
     25          7           0        2.367991    0.998713    0.474671
     26          1           0        3.158599    0.370506    0.424022
     27          1           0        2.687544    1.908873    0.176603
 ---------------------------------------------------------------------
                    Distance matrix (angstroms):
                    1          2          3          4          5
     1  C    0.000000
     2  H    1.089047   0.000000
     3  H    1.099097   1.755184   0.000000
     4  C    1.527919   2.160633   2.150192   0.000000
     5  H    2.144894   2.492973   3.046884   1.089384   0.000000
     6  H    2.136537   3.044856   2.501225   1.092105   1.735738
     7  C    2.573137   2.864594   2.755910   1.527495   2.183465
     8  H    2.616192   2.833993   2.389403   2.160800   3.030005
     9  H    3.424272   3.887477   3.508443   2.166360   2.743266
    10  N    3.504966   3.353583   3.880326   2.584938   2.697384
    11  C    4.337310   4.278784   4.930962   3.120839   2.763542
    12  H    5.163102   4.920008   5.772421   4.092983   3.668181
    13  H    4.844317   4.987682   5.324161   3.447974   3.227541
    14  H    3.978606   3.960315   4.761360   2.784879   2.088480
    15  C    4.667921   4.501809   4.768637   3.842204   4.136741
    16  H    5.117931   5.160806   5.150109   4.087436   4.437023
    17  H    5.450336   5.130129   5.654941   4.655455   4.761486
    18  H    4.572265   4.350554   4.461337   4.054328   4.551392
    19  C    3.353755   2.743195   3.848934   3.027444   2.991976
    20  H    3.138582   2.437523   3.371938   3.205630   3.476942
    21  H    2.885048   2.237236   3.643398   2.667125   2.358885
    22  C    4.851934   4.102487   5.364157   4.548348   4.331213
    23  O    5.738204   5.125482   6.239215   5.151395   4.880628
    24  O    5.144377   4.213703   5.657222   5.176350   4.954824
    25  N    1.455067   2.067574   2.147433   2.437943   2.643990
    26  H    2.051816   2.918024   2.404438   2.761818   3.102864
    27  H    2.048967   2.296774   2.528234   3.322895   3.519682
                    6          7          8          9         10
     6  H    0.000000
     7  C    2.123252   0.000000
     8  H    2.702841   1.090124   0.000000
     9  H    2.270162   1.089258   1.757370   0.000000
    10  N    3.396887   1.506242   2.088043   2.077524   0.000000
    11  C    3.744031   2.465965   3.371966   2.605276   1.493257
    12  H    4.798591   3.385870   4.152605   3.583037   2.084759
    13  H    3.786794   2.668858   3.594132   2.339901   2.109188
    14  H    3.392262   2.711155   3.717568   2.977206   2.114671
    15  C    4.509445   2.420904   2.521319   2.602433   1.494869
    16  H    4.516388   2.609697   2.797408   2.318419   2.111387
    17  H    5.399342   3.358363   3.530875   3.574317   2.092960
    18  H    4.743063   2.643416   2.271283   2.988510   2.106960
    19  C    4.073107   2.490831   2.741103   3.396038   1.514831
    20  H    4.232731   2.628485   2.431127   3.619970   2.102992
    21  H    3.737383   2.718658   3.155602   3.667617   2.106307
    22  C    5.581920   3.948130   4.179316   4.710505   2.641408
    23  O    6.089173   4.348741   4.696433   4.873252   2.862309
    24  O    6.258464   4.792652   4.890918   5.678274   3.674062
    25  N    2.642841   3.827891   4.018545   4.535994   4.735812
    26  H    2.551520   4.153999   4.329085   4.669999   5.273409
    27  H    3.616462   4.597873   4.637993   5.393638   5.409814
                   11         12         13         14         15
    11  C    0.000000
    12  H    1.087083   0.000000
    13  H    1.087919   1.802831   0.000000
    14  H    1.085316   1.781286   1.781600   0.000000
    15  C    2.425505   2.620759   2.638534   3.371898   0.000000
    16  H    2.659417   3.002474   2.405398   3.646810   1.087856
    17  H    2.613214   2.336963   2.953616   3.606499   1.086360
    18  H    3.366518   3.597946   3.636678   4.193738   1.087253
    19  C    2.461765   2.633885   3.402062   2.691346   2.453081
    20  H    3.380040   3.630773   4.191500   3.647132   2.687731
    21  H    2.650135   2.950546   3.644274   2.418620   3.376922
    22  C    3.105404   2.666762   4.090289   3.445114   3.041834
    23  O    2.922508   2.129974   3.753229   3.494042   2.906456
    24  O    4.223987   3.824858   5.250318   4.383627   4.120125
    25  N    5.287976   6.121062   5.777469   4.678100   6.016561
    26  H    5.782691   6.706561   6.110295   5.191060   6.492237
    27  H    6.061426   6.814407   6.638772   5.464079   6.646622
                   16         17         18         19         20
    16  H    0.000000
    17  H    1.802553   0.000000
    18  H    1.782901   1.784099   0.000000
    19  C    3.396333   2.650819   2.649807   0.000000
    20  H    3.655729   3.049693   2.424382   1.088114   0.000000
    21  H    4.194360   3.617947   3.641357   1.086528   1.771942
    22  C    4.055121   2.623215   3.312595   1.574947   2.182076
    23  O    3.763962   2.126366   3.444107   2.417384   3.143548
    24  O    5.176431   3.745052   4.173051   2.307099   2.550123
    25  N    6.423033   6.754689   6.003650   4.518898   4.426282
    26  H    6.755073   7.318648   6.479570   5.284796   5.180434
    27  H    7.150073   7.341251   6.525109   4.957714   4.730581
                   21         22         23         24         25
    21  H    0.000000
    22  C    2.168702   0.000000
    23  O    3.069793   1.244773   0.000000
    24  O    2.604338   1.228145   2.261503   0.000000
    25  N    3.795225   5.911381   6.821141   6.082396   0.000000
    26  H    4.634026   6.745362   7.586261   7.003171   1.011074
    27  H    4.223329   6.251421   7.271585   6.229613   1.009629
                   26         27
    26  H    0.000000
    27  H    1.627785   0.000000
 Stoichiometry    C7H16N2O2
 Framework group  C1[X(C7H16N2O2)]
 Deg. of freedom    75
 Full point group                 C1      NOp   1
 Largest Abelian subgroup         C1      NOp   1
 Largest concise Abelian subgroup C1      NOp   1
                         Standard orientation:                         
 ---------------------------------------------------------------------
 Center     Atomic      Atomic             Coordinates (Angstroms)
 Number     Number       Type             X           Y           Z
 ---------------------------------------------------------------------
      1          6           0        2.690541    0.608217   -0.422139
      2          1           0        1.945991    1.394948   -0.534932
      3          1           0        2.977318    0.297775   -1.436733
      4          6           0        2.084363   -0.590535    0.305927
      5          1           0        1.778437   -0.279697    1.304200
      6          1           0        2.874182   -1.328743    0.460616
      7          6           0        0.954971   -1.291316   -0.446814
      8          1           0        1.045586   -1.106209   -1.517279
      9          1           0        1.003505   -2.368961   -0.295790
     10          7           0       -0.452788   -0.903508   -0.077241
     11          6           0       -0.771453   -1.345127    1.313170
     12          1           0       -1.801259   -1.054827    1.505462
     13          1           0       -0.634053   -2.422577    1.374739
     14          1           0       -0.105413   -0.843392    2.007837
     15          6           0       -1.375822   -1.604235   -1.021499
     16          1           0       -1.199641   -2.675314   -0.949518
     17          1           0       -2.390397   -1.338671   -0.738139
     18          1           0       -1.162037   -1.257199   -2.029457
     19          6           0       -0.655870    0.592548   -0.200877
     20          1           0       -0.337875    0.868243   -1.204303
     21          1           0        0.003127    1.063141    0.523561
     22          6           0       -2.108860    1.151003    0.038725
     23          8           0       -2.979904    0.346315    0.417168
     24          8           0       -2.141658    2.357481   -0.188593
     25          7           0        3.793849    1.146828    0.358777
     26          1           0        4.603176    0.542198    0.317738
     27          1           0        4.077190    2.052354    0.013682
 ---------------------------------------------------------------------
 Rotational constants (GHZ):           1.5618397           0.6304380           0.5098680
 Standard basis: 6-311+G(2d,2p) (5D, 7F)
 There are   463 symmetry adapted cartesian basis functions of A   symmetry.
 There are   441 symmetry adapted basis functions of A   symmetry.
   441 basis functions,   638 primitive gaussians,   463 cartesian basis functions
    44 alpha electrons       44 beta electrons
       nuclear repulsion energy       682.1177295949 Hartrees.
 NAtoms=   27 NActive=   27 NUniq=   27 SFac= 1.00D+00 NAtFMM=   60 NAOKFM=F Big=F
 Integral buffers will be    131072 words long.
 Raffenetti 2 integral format.
 Two-electron integral symmetry is turned on.
 Nuclear repulsion after empirical dispersion term =      682.0961882488 Hartrees.
 One-electron integrals computed using PRISM.
 NBasis=   441 RedAO= T EigKep=  1.19D-05  NBF=   441
 NBsUse=   441 1.00D-06 EigRej= -1.00D+00 NBFU=   441
 Initial guess from the checkpoint file:  "aminopropyl_betaine_h.chk"
 B after Tr=    -0.000000    0.000000   -0.000000
         Rot=    1.000000   -0.000000    0.000000    0.000000 Ang=   0.00 deg.
 Requested convergence on RMS density matrix=1.00D-08 within  32 cycles.
 Requested convergence on MAX density matrix=1.00D-06.
 Requested convergence on             energy=1.00D-06.
 No special actions if energy rises.
 SCF Done:  E(RwB97XD) =  -536.304429040     A.U. after    1 cycles
            NFock=  1  Conv=0.23D-08     -V/T= 2.0039
 QCSCF skips out because SCF is already converged.
 DoSCS=F DFT=T ScalE2(SS,OS)=  1.000000  1.000000
 Range of M.O.s used for correlation:     1   441
 NBasis=   441 NAE=    44 NBE=    44 NFC=     0 NFV=     0
 NROrb=    441 NOA=    44 NOB=    44 NVA=   397 NVB=   397

 **** Warning!!: The largest alpha MO coefficient is  0.65203773D+02

 Symmetrizing basis deriv contribution to polar:
 IMax=3 JMax=2 DiffMx= 0.00D+00
 G2DrvN: will do    28 centers at a time, making    1 passes.
 Calling FoFCou, ICntrl=  3107 FMM=F I1Cent=   0 AccDes= 0.00D+00.
 End of G2Drv F.D. properties file   721 does not exist.
 End of G2Drv F.D. properties file   722 does not exist.
 End of G2Drv F.D. properties file   788 does not exist.
          IDoAtm=111111111111111111111111111
          Differentiating once with respect to electric field.
                with respect to dipole field.
          Differentiating once with respect to nuclear coordinates.
 CalDSu exits because no D1Ps are significant.
          There are    84 degrees of freedom in the 1st order CPHF.  IDoFFX=6 NUNeed=     3.
     81 vectors produced by pass  0 Test12= 2.08D-14 1.19D-09 XBig12= 4.45D+01 1.24D+00.
 AX will form    81 AO Fock derivatives at one time.
     81 vectors produced by pass  1 Test12= 2.08D-14 1.19D-09 XBig12= 5.98D+00 3.80D-01.
     81 vectors produced by pass  2 Test12= 2.08D-14 1.19D-09 XBig12= 2.28D-01 6.14D-02.
     81 vectors produced by pass  3 Test12= 2.08D-14 1.19D-09 XBig12= 3.64D-03 6.40D-03.
     81 vectors produced by pass  4 Test12= 2.08D-14 1.19D-09 XBig12= 3.84D-05 6.76D-04.
     81 vectors produced by pass  5 Test12= 2.08D-14 1.19D-09 XBig12= 2.50D-07 4.55D-05.
     79 vectors produced by pass  6 Test12= 2.08D-14 1.19D-09 XBig12= 1.64D-09 3.74D-06.
     14 vectors produced by pass  7 Test12= 2.08D-14 1.19D-09 XBig12= 9.16D-12 2.81D-07.
      3 vectors produced by pass  8 Test12= 2.08D-14 1.19D-09 XBig12= 5.75D-14 2.82D-08.
      2 vectors produced by pass  9 Test12= 2.08D-14 1.19D-09 XBig12= 5.00D-16 2.55D-09.
 InvSVY:  IOpt=1 It=  1 EMax= 4.44D-15
 Solved reduced A of dimension   584 with    84 vectors.
 Isotropic polarizability for W=    0.000000      108.30 Bohr**3.
 End of Minotr F.D. properties file   721 does not exist.
 End of Minotr F.D. properties file   722 does not exist.
 End of Minotr F.D. properties file   788 does not exist.

 **********************************************************************

            Population analysis using the SCF density.

 **********************************************************************

 Orbital symmetries:
       Occupied  (A) (A) (A) (A) (A) (A) (A) (A) (A) (A) (A) (A)
                 (A) (A) (A) (A) (A) (A) (A) (A) (A) (A) (A) (A)
                 (A) (A) (A) (A) (A) (A) (A) (A) (A) (A) (A) (A)
                 (A) (A) (A) (A) (A) (A) (A) (A)
       Virtual   (A) (A) (A) (A) (A) (A) (A) (A) (A) (A) (A) (A)
                 (A) (A) (A) (A) (A) (A) (A) (A) (A) (A) (A) (A)
                 (A) (A) (A) (A) (A) (A) (A) (A) (A) (A) (A) (A)
                 (A) (A) (A) (A) (A) (A) (A) (A) (A) (A) (A) (A)
                 (A) (A) (A) (A) (A) (A) (A) (A) (A) (A) (A) (A)
                 (A) (A) (A) (A) (A) (A) (A) (A) (A) (A) (A) (A)
                 (A) (A) (A) (A) (A) (A) (A) (A) (A) (A) (A) (A)
                 (A) (A) (A) (A) (A) (A) (A) (A) (A) (A) (A) (A)
                 (A) (A) (A) (A) (A) (A) (A) (A) (A) (A) (A) (A)
                 (A) (A) (A) (A) (A) (A) (A) (A) (A) (A) (A) (A)
                 (A) (A) (A) (A) (A) (A) (A) (A) (A) (A) (A) (A)
                 (A) (A) (A) (A) (A) (A) (A) (A) (A) (A) (A) (A)
                 (A) (A) (A) (A) (A) (A) (A) (A) (A) (A) (A) (A)
                 (A) (A) (A) (A) (A) (A) (A) (A) (A) (A) (A) (A)
                 (A) (A) (A) (A) (A) (A) (A) (A) (A) (A) (A) (A)
                 (A) (A) (A) (A) (A) (A) (A) (A) (A) (A) (A) (A)
                 (A) (A) (A) (A) (A) (A) (A) (A) (A) (A) (A) (A)
                 (A) (A) (A) (A) (A) (A) (A) (A) (A) (A) (A) (A)
                 (A) (A) (A) (A) (A) (A) (A) (A) (A) (A) (A) (A)
                 (A) (A) (A) (A) (A) (A) (A) (A) (A) (A) (A) (A)
                 (A) (A) (A) (A) (A) (A) (A) (A) (A) (A) (A) (A)
                 (A) (A) (A) (A) (A) (A) (A) (A) (A) (A) (A) (A)
                 (A) (A) (A) (A) (A) (A) (A) (A) (A) (A) (A) (A)
                 (A) (A) (A) (A) (A) (A) (A) (A) (A) (A) (A) (A)
                 (A) (A) (A) (A) (A) (A) (A) (A) (A) (A) (A) (A)
                 (A) (A) (A) (A) (A) (A) (A) (A) (A) (A) (A) (A)
                 (A) (A) (A) (A) (A) (A) (A) (A) (A) (A) (A) (A)
                 (A) (A) (A) (A) (A) (A) (A) (A) (A) (A) (A) (A)
                 (A) (A) (A) (A) (A) (A) (A) (A) (A) (A) (A) (A)
                 (A) (A) (A) (A) (A) (A) (A) (A) (A) (A) (A) (A)
                 (A) (A) (A) (A) (A) (A) (A) (A) (A) (A) (A) (A)
                 (A) (A) (A) (A) (A) (A) (A) (A) (A) (A) (A) (A)
                 (A) (A) (A) (A) (A) (A) (A) (A) (A) (A) (A) (A)
                 (A)
 The electronic state is 1-A.
 Alpha  occ. eigenvalues --  -19.15962 -19.15354 -14.58069 -14.43566 -10.37271
 Alpha  occ. eigenvalues --  -10.34807 -10.34471 -10.34372 -10.33495 -10.32892
 Alpha  occ. eigenvalues --  -10.32293  -1.14464  -1.10460  -1.02253  -1.01488
 Alpha  occ. eigenvalues --   -0.92185  -0.86848  -0.85757  -0.82598  -0.75005
 Alpha  occ. eigenvalues --   -0.72164  -0.64998  -0.64256  -0.62315  -0.60568
 Alpha  occ. eigenvalues --   -0.58043  -0.56859  -0.56538  -0.54882  -0.52794
 Alpha  occ. eigenvalues --   -0.51512  -0.51144  -0.51022  -0.50411  -0.48473
 Alpha  occ. eigenvalues --   -0.48036  -0.47500  -0.45786  -0.45451  -0.43359
 Alpha  occ. eigenvalues --   -0.35198  -0.30602  -0.29884  -0.29269
 Alpha virt. eigenvalues --    0.03189   0.04881   0.05281   0.06355   0.07274
 Alpha virt. eigenvalues --    0.07913   0.08381   0.09058   0.10302   0.10597
 Alpha virt. eigenvalues --    0.11499   0.12363   0.12882   0.13137   0.13970
 Alpha virt. eigenvalues --    0.14049   0.14800   0.15698   0.16173   0.16523
 Alpha virt. eigenvalues --    0.17312   0.17551   0.17979   0.18159   0.18568
 Alpha virt. eigenvalues --    0.19271   0.19595   0.20360   0.20743   0.20829
 Alpha virt. eigenvalues --    0.21571   0.22174   0.22608   0.23179   0.23366
 Alpha virt. eigenvalues --    0.23929   0.24317   0.24631   0.25804   0.26173
 Alpha virt. eigenvalues --    0.27291   0.27906   0.28040   0.28653   0.29486
 Alpha virt. eigenvalues --    0.29957   0.30660   0.31027   0.31466   0.31900
 Alpha virt. eigenvalues --    0.32281   0.33023   0.33672   0.34907   0.35426
 Alpha virt. eigenvalues --    0.35888   0.37230   0.37498   0.37836   0.39062
 Alpha virt. eigenvalues --    0.39583   0.40121   0.41035   0.41541   0.42769
 Alpha virt. eigenvalues --    0.43799   0.45140   0.45848   0.46298   0.47190
 Alpha virt. eigenvalues --    0.48160   0.48805   0.50906   0.52035   0.52546
 Alpha virt. eigenvalues --    0.53159   0.53738   0.53918   0.55621   0.55980
 Alpha virt. eigenvalues --    0.57021   0.58103   0.59017   0.60256   0.60858
 Alpha virt. eigenvalues --    0.61164   0.61410   0.62356   0.63452   0.63988
 Alpha virt. eigenvalues --    0.64993   0.65523   0.65787   0.66315   0.67125
 Alpha virt. eigenvalues --    0.68061   0.68728   0.69515   0.70140   0.70373
 Alpha virt. eigenvalues --    0.71573   0.71979   0.72600   0.72822   0.74308
 Alpha virt. eigenvalues --    0.74634   0.75604   0.76373   0.76989   0.77908
 Alpha virt. eigenvalues --    0.78314   0.79209   0.79858   0.81875   0.82870
 Alpha virt. eigenvalues --    0.84180   0.85105   0.86042   0.90020   0.90378
 Alpha virt. eigenvalues --    0.90943   0.92617   0.93939   0.95680   0.96223
 Alpha virt. eigenvalues --    0.97723   0.98308   1.00007   1.01613   1.02496
 Alpha virt. eigenvalues --    1.04572   1.04808   1.05982   1.06648   1.07387
 Alpha virt. eigenvalues --    1.09347   1.10202   1.10669   1.11775   1.12556
 Alpha virt. eigenvalues --    1.15062   1.15421   1.16385   1.17506   1.18584
 Alpha virt. eigenvalues --    1.19516   1.20601   1.21146   1.21994   1.22786
 Alpha virt. eigenvalues --    1.23598   1.24001   1.24437   1.27276   1.27963
 Alpha virt. eigenvalues --    1.28692   1.29248   1.29582   1.31051   1.32340
 Alpha virt. eigenvalues --    1.33179   1.33316   1.34046   1.35325   1.36702
 Alpha virt. eigenvalues --    1.36806   1.38308   1.38658   1.39248   1.40012
 Alpha virt. eigenvalues --    1.40770   1.41256   1.42901   1.43709   1.43890
 Alpha virt. eigenvalues --    1.44221   1.45896   1.46979   1.47911   1.48948
 Alpha virt. eigenvalues --    1.49815   1.50154   1.51224   1.51974   1.52304
 Alpha virt. eigenvalues --    1.53808   1.54362   1.55603   1.55680   1.56909
 Alpha virt. eigenvalues --    1.58442   1.59389   1.60833   1.61396   1.62328
 Alpha virt. eigenvalues --    1.64561   1.65089   1.65947   1.67379   1.67569
 Alpha virt. eigenvalues --    1.68369   1.69211   1.70751   1.71769   1.73380
 Alpha virt. eigenvalues --    1.74214   1.76168   1.77261   1.78706   1.79551
 Alpha virt. eigenvalues --    1.81728   1.82498   1.83977   1.88182   1.90129
 Alpha virt. eigenvalues --    1.91912   1.92562   1.95102   1.97480   1.98719
 Alpha virt. eigenvalues --    1.99252   2.00530   2.02271   2.04104   2.06657
 Alpha virt. eigenvalues --    2.08106   2.08473   2.15551   2.22328   2.40887
 Alpha virt. eigenvalues --    2.50189   2.65443   2.74988   2.79924   2.82750
 Alpha virt. eigenvalues --    2.84085   2.86138   2.87417   2.88859   2.90457
 Alpha virt. eigenvalues --    2.94161   2.95387   2.98372   3.00440   3.01462
 Alpha virt. eigenvalues --    3.08370   3.10561   3.12583   3.14528   3.16894
 Alpha virt. eigenvalues --    3.20672   3.22668   3.25857   3.29306   3.30238
 Alpha virt. eigenvalues --    3.30934   3.32752   3.34699   3.36642   3.38685
 Alpha virt. eigenvalues --    3.39352   3.42785   3.44203   3.45518   3.46777
 Alpha virt. eigenvalues --    3.47731   3.49471   3.50157   3.51739   3.53007
 Alpha virt. eigenvalues --    3.54305   3.55448   3.58048   3.58720   3.59435
 Alpha virt. eigenvalues --    3.61627   3.62549   3.63654   3.64477   3.66045
 Alpha virt. eigenvalues --    3.67215   3.68456   3.69279   3.71084   3.72767
 Alpha virt. eigenvalues --    3.74521   3.75529   3.76625   3.76990   3.79027
 Alpha virt. eigenvalues --    3.79562   3.81757   3.83658   3.84843   3.84997
 Alpha virt. eigenvalues --    3.88005   3.88669   3.91189   3.91787   3.93020
 Alpha virt. eigenvalues --    3.95028   3.95389   3.96430   3.99568   4.00700
 Alpha virt. eigenvalues --    4.01391   4.03235   4.03483   4.05165   4.05734
 Alpha virt. eigenvalues --    4.06521   4.09962   4.10279   4.11229   4.11650
 Alpha virt. eigenvalues --    4.14340   4.15491   4.16883   4.17668   4.19502
 Alpha virt. eigenvalues --    4.21280   4.22403   4.23136   4.23764   4.25546
 Alpha virt. eigenvalues --    4.25663   4.29483   4.30879   4.32202   4.33606
 Alpha virt. eigenvalues --    4.35776   4.36942   4.37551   4.40576   4.40768
 Alpha virt. eigenvalues --    4.42543   4.42841   4.43729   4.46662   4.48634
 Alpha virt. eigenvalues --    4.51070   4.52051   4.58164   4.63522   4.74444
 Alpha virt. eigenvalues --    4.85282   4.93712   5.00369   5.01135   5.02009
 Alpha virt. eigenvalues --    5.08944   5.10586   5.12228   5.12707   5.14261
 Alpha virt. eigenvalues --    5.15934   5.16087   5.18094   5.21830   5.23117
 Alpha virt. eigenvalues --    5.24409   5.26742   5.29347   5.29769   5.33909
 Alpha virt. eigenvalues --    5.38024   5.45634   5.48512   5.55289   5.69108
 Alpha virt. eigenvalues --    5.73833   5.76059   5.83853   5.98340   6.03758
 Alpha virt. eigenvalues --    6.34214   6.96866   7.05496   7.08635   7.10626
 Alpha virt. eigenvalues --    7.21147   7.32909   7.37064   7.41613   7.45670
 Alpha virt. eigenvalues --    7.54270  23.99415  24.04976  24.08263  24.15129
 Alpha virt. eigenvalues --   24.17145  24.19148  24.35579  35.57336  35.75154
 Alpha virt. eigenvalues --   50.18480  50.26958
          Condensed to atoms (all electrons):
               1          2          3          4          5          6
     1  C    5.121961   0.460640   0.452398   0.035165  -0.039160  -0.017936
     2  H    0.460640   0.520775  -0.034233  -0.025029  -0.006268   0.004322
     3  H    0.452398  -0.034233   0.586778  -0.013336   0.004385  -0.008401
     4  C    0.035165  -0.025029  -0.013336   5.880134   0.440746   0.452565
     5  H   -0.039160  -0.006268   0.004385   0.440746   0.479489  -0.023291
     6  H   -0.017936   0.004322  -0.008401   0.452565  -0.023291   0.518155
     7  C   -0.007740  -0.008415  -0.037980  -0.300873  -0.018669  -0.046102
     8  H   -0.000458  -0.001257   0.005142  -0.023989   0.002323   0.001712
     9  H    0.009088  -0.000268   0.000272  -0.061979   0.001001  -0.009092
    10  N    0.005933  -0.002005   0.003249  -0.055959   0.025935  -0.003097
    11  C    0.028965   0.001088  -0.000899  -0.045084  -0.006010   0.002135
    12  H   -0.000716  -0.000001   0.000002  -0.000598   0.000065  -0.000018
    13  H    0.001620   0.000002   0.000001  -0.011748   0.000172   0.000209
    14  H   -0.006832   0.000065  -0.000018   0.005294   0.004201  -0.000090
    15  C   -0.020927  -0.001161   0.000171  -0.091758   0.005707  -0.000003
    16  H    0.001981  -0.000002  -0.000023  -0.000800  -0.000009  -0.000007
    17  H   -0.000579   0.000005   0.000001   0.003925  -0.000042   0.000010
    18  H   -0.002219   0.000006   0.000047  -0.001157   0.000001   0.000009
    19  C    0.008890  -0.006982  -0.002474   0.049315  -0.016854   0.005682
    20  H   -0.008851  -0.001576  -0.000017  -0.020174   0.000323  -0.000153
    21  H   -0.000719  -0.002832   0.000456   0.059537  -0.003526  -0.000066
    22  C   -0.042887   0.007378  -0.001399   0.032946  -0.002002   0.001641
    23  O   -0.002568  -0.000027  -0.000001   0.009438  -0.000144  -0.000023
    24  O   -0.000017  -0.000678   0.000011  -0.010287   0.000150   0.000009
    25  N    0.255341  -0.034391  -0.047840  -0.039894  -0.001479  -0.001657
    26  H    0.004724   0.005075  -0.008798  -0.032685  -0.000063   0.003089
    27  H   -0.034035  -0.006679  -0.000897   0.011087   0.000150  -0.000121
               7          8          9         10         11         12
     1  C   -0.007740  -0.000458   0.009088   0.005933   0.028965  -0.000716
     2  H   -0.008415  -0.001257  -0.000268  -0.002005   0.001088  -0.000001
     3  H   -0.037980   0.005142   0.000272   0.003249  -0.000899   0.000002
     4  C   -0.300873  -0.023989  -0.061979  -0.055959  -0.045084  -0.000598
     5  H   -0.018669   0.002323   0.001001   0.025935  -0.006010   0.000065
     6  H   -0.046102   0.001712  -0.009092  -0.003097   0.002135  -0.000018
     7  C    5.543598   0.407187   0.467806   0.306446  -0.073453   0.009161
     8  H    0.407187   0.494930  -0.018079  -0.026938   0.001933  -0.000197
     9  H    0.467806  -0.018079   0.487025  -0.021190  -0.000904  -0.000305
    10  N    0.306446  -0.026938  -0.021190   6.963436   0.124795  -0.037692
    11  C   -0.073453   0.001933  -0.000904   0.124795   5.084854   0.425664
    12  H    0.009161  -0.000197  -0.000305  -0.037692   0.425664   0.418499
    13  H   -0.003655   0.000406   0.001884  -0.019568   0.426122  -0.018745
    14  H    0.000481  -0.000417  -0.000618  -0.019856   0.399046  -0.011645
    15  C   -0.010563   0.006999  -0.006263   0.191934  -0.074999  -0.002684
    16  H   -0.001360  -0.002014   0.002614  -0.018801  -0.019078  -0.000734
    17  H    0.003407   0.000113  -0.000208  -0.035726  -0.000983   0.001534
    18  H   -0.016463   0.005144  -0.000455  -0.023808   0.013462   0.000010
    19  C   -0.137088  -0.007278  -0.003447  -0.090018   0.026536  -0.003423
    20  H    0.028511  -0.001780  -0.000160  -0.008023   0.007272   0.000433
    21  H   -0.048267   0.000226   0.000042  -0.020244  -0.015800  -0.001438
    22  C   -0.016877   0.003984  -0.003351  -0.104107  -0.025948  -0.003234
    23  O    0.025013  -0.000542   0.000092   0.080751  -0.056189   0.017979
    24  O    0.011976   0.000118   0.000051   0.035242   0.001151  -0.000367
    25  N    0.007566  -0.000493  -0.000274  -0.002980   0.000482   0.000024
    26  H    0.003095  -0.000027  -0.000001   0.000157   0.000083  -0.000000
    27  H    0.005384  -0.000019  -0.000003  -0.000078   0.000008   0.000000
              13         14         15         16         17         18
     1  C    0.001620  -0.006832  -0.020927   0.001981  -0.000579  -0.002219
     2  H    0.000002   0.000065  -0.001161  -0.000002   0.000005   0.000006
     3  H    0.000001  -0.000018   0.000171  -0.000023   0.000001   0.000047
     4  C   -0.011748   0.005294  -0.091758  -0.000800   0.003925  -0.001157
     5  H    0.000172   0.004201   0.005707  -0.000009  -0.000042   0.000001
     6  H    0.000209  -0.000090  -0.000003  -0.000007   0.000010   0.000009
     7  C   -0.003655   0.000481  -0.010563  -0.001360   0.003407  -0.016463
     8  H    0.000406  -0.000417   0.006999  -0.002014   0.000113   0.005144
     9  H    0.001884  -0.000618  -0.006263   0.002614  -0.000208  -0.000455
    10  N   -0.019568  -0.019856   0.191934  -0.018801  -0.035726  -0.023808
    11  C    0.426122   0.399046  -0.074999  -0.019078  -0.000983   0.013462
    12  H   -0.018745  -0.011645  -0.002684  -0.000734   0.001534   0.000010
    13  H    0.516712  -0.026327  -0.013781   0.003318  -0.000575   0.000104
    14  H   -0.026327   0.513877   0.014644   0.000287   0.000003  -0.000534
    15  C   -0.013781   0.014644   5.115803   0.415617   0.424744   0.411818
    16  H    0.003318   0.000287   0.415617   0.523693  -0.018338  -0.027250
    17  H   -0.000575   0.000003   0.424744  -0.018338   0.422075  -0.012096
    18  H    0.000104  -0.000534   0.411818  -0.027250  -0.012096   0.508286
    19  C    0.017942  -0.027094  -0.123372   0.018959  -0.010586  -0.015743
    20  H   -0.000235  -0.000023  -0.021946  -0.000179  -0.001066   0.000567
    21  H   -0.000136   0.001825   0.001126  -0.000118   0.000509   0.000135
    22  C   -0.008878   0.017227   0.007638  -0.010953   0.004071   0.016908
    23  O    0.001383  -0.002828  -0.052750   0.001416   0.015419  -0.003339
    24  O    0.000033   0.000445   0.002206  -0.000009  -0.000064   0.000815
    25  N    0.000002  -0.000084   0.000360  -0.000010  -0.000003  -0.000002
    26  H   -0.000001   0.000015   0.000016   0.000000   0.000000  -0.000000
    27  H   -0.000000   0.000002   0.000010  -0.000000   0.000000   0.000000
              19         20         21         22         23         24
     1  C    0.008890  -0.008851  -0.000719  -0.042887  -0.002568  -0.000017
     2  H   -0.006982  -0.001576  -0.002832   0.007378  -0.000027  -0.000678
     3  H   -0.002474  -0.000017   0.000456  -0.001399  -0.000001   0.000011
     4  C    0.049315  -0.020174   0.059537   0.032946   0.009438  -0.010287
     5  H   -0.016854   0.000323  -0.003526  -0.002002  -0.000144   0.000150
     6  H    0.005682  -0.000153  -0.000066   0.001641  -0.000023   0.000009
     7  C   -0.137088   0.028511  -0.048267  -0.016877   0.025013   0.011976
     8  H   -0.007278  -0.001780   0.000226   0.003984  -0.000542   0.000118
     9  H   -0.003447  -0.000160   0.000042  -0.003351   0.000092   0.000051
    10  N   -0.090018  -0.008023  -0.020244  -0.104107   0.080751   0.035242
    11  C    0.026536   0.007272  -0.015800  -0.025948  -0.056189   0.001151
    12  H   -0.003423   0.000433  -0.001438  -0.003234   0.017979  -0.000367
    13  H    0.017942  -0.000235  -0.000136  -0.008878   0.001383   0.000033
    14  H   -0.027094  -0.000023   0.001825   0.017227  -0.002828   0.000445
    15  C   -0.123372  -0.021946   0.001126   0.007638  -0.052750   0.002206
    16  H    0.018959  -0.000179  -0.000118  -0.010953   0.001416  -0.000009
    17  H   -0.010586  -0.001066   0.000509   0.004071   0.015419  -0.000064
    18  H   -0.015743   0.000567   0.000135   0.016908  -0.003339   0.000815
    19  C    5.474570   0.389911   0.425931   0.181893  -0.110436  -0.003237
    20  H    0.389911   0.475619  -0.026372   0.028616   0.000145  -0.007214
    21  H    0.425931  -0.026372   0.496903  -0.018415  -0.002778  -0.003401
    22  C    0.181893   0.028616  -0.018415   4.826991   0.415665   0.328428
    23  O   -0.110436   0.000145  -0.002778   0.415665   8.361407  -0.066518
    24  O   -0.003237  -0.007214  -0.003401   0.328428  -0.066518   8.273343
    25  N   -0.001652   0.000813  -0.001238  -0.000827  -0.000037   0.000385
    26  H    0.000493  -0.000005  -0.000029   0.000213  -0.000000   0.000001
    27  H   -0.001044  -0.000007   0.000082  -0.000255   0.000000  -0.000012
              25         26         27
     1  C    0.255341   0.004724  -0.034035
     2  H   -0.034391   0.005075  -0.006679
     3  H   -0.047840  -0.008798  -0.000897
     4  C   -0.039894  -0.032685   0.011087
     5  H   -0.001479  -0.000063   0.000150
     6  H   -0.001657   0.003089  -0.000121
     7  C    0.007566   0.003095   0.005384
     8  H   -0.000493  -0.000027  -0.000019
     9  H   -0.000274  -0.000001  -0.000003
    10  N   -0.002980   0.000157  -0.000078
    11  C    0.000482   0.000083   0.000008
    12  H    0.000024  -0.000000   0.000000
    13  H    0.000002  -0.000001  -0.000000
    14  H   -0.000084   0.000015   0.000002
    15  C    0.000360   0.000016   0.000010
    16  H   -0.000010   0.000000  -0.000000
    17  H   -0.000003   0.000000   0.000000
    18  H   -0.000002  -0.000000   0.000000
    19  C   -0.001652   0.000493  -0.001044
    20  H    0.000813  -0.000005  -0.000007
    21  H   -0.001238  -0.000029   0.000082
    22  C   -0.000827   0.000213  -0.000255
    23  O   -0.000037  -0.000000   0.000000
    24  O    0.000385   0.000001  -0.000012
    25  N    6.458554   0.389916   0.415434
    26  H    0.389916   0.503746  -0.036181
    27  H    0.415434  -0.036181   0.469302
 Mulliken charges:
               1
     1  C   -0.201063
     2  H    0.132446
     3  H    0.103404
     4  C   -0.244802
     5  H    0.152867
     6  H    0.120519
     7  C   -0.092127
     8  H    0.153269
     9  H    0.156722
    10  N   -0.247788
    11  C   -0.224248
    12  H    0.208428
    13  H    0.133742
    14  H    0.138953
    15  C   -0.178587
    16  H    0.131801
    17  H    0.204450
    18  H    0.145755
    19  C   -0.039395
    20  H    0.165573
    21  H    0.158608
    22  C    0.365536
    23  O   -0.630528
    24  O   -0.562560
    25  N   -0.396016
    26  H    0.167169
    27  H    0.177870
 Sum of Mulliken charges =  -0.00000
 Mulliken charges with hydrogens summed into heavy atoms:
               1
     1  C    0.034788
     4  C    0.028584
     7  C    0.217864
    10  N   -0.247788
    11  C    0.256874
    15  C    0.303420
    19  C    0.284786
    22  C    0.365536
    23  O   -0.630528
    24  O   -0.562560
    25  N   -0.050977
 APT charges:
               1
     1  C    0.347934
     2  H   -0.006049
     3  H   -0.088115
     4  C    0.025601
     5  H    0.014750
     6  H   -0.020908
     7  C    0.261407
     8  H    0.007734
     9  H   -0.024797
    10  N   -0.424561
    11  C    0.124404
    12  H    0.137403
    13  H    0.013491
    14  H    0.028596
    15  C    0.145522
    16  H    0.012542
    17  H    0.131695
    18  H    0.025108
    19  C    0.112969
    20  H    0.009761
    21  H    0.017381
    22  C    1.306345
    23  O   -0.983116
    24  O   -0.967208
    25  N   -0.486996
    26  H    0.135659
    27  H    0.143447
 Sum of APT charges =  -0.00000
 APT charges with hydrogens summed into heavy atoms:
               1
     1  C    0.253770
     4  C    0.019443
     7  C    0.244344
    10  N   -0.424561
    11  C    0.303894
    15  C    0.314868
    19  C    0.140110
    22  C    1.306345
    23  O   -0.983116
    24  O   -0.967208
    25  N   -0.207891
 Electronic spatial extent (au):  <R**2>=           2296.8099
 Charge=              0.0000 electrons
 Dipole moment (field-independent basis, Debye):
    X=              9.1594    Y=             -8.0440    Z=             -1.7982  Tot=             12.3221
 Quadrupole moment (field-independent basis, Debye-Ang):
   XX=            -84.8830   YY=            -74.1769   ZZ=            -66.4273
   XY=             15.0682   XZ=             -1.5577   YZ=             -0.6415
 Traceless Quadrupole moment (field-independent basis, Debye-Ang):
   XX=             -9.7206   YY=              0.9855   ZZ=              8.7351
   XY=             15.0682   XZ=             -1.5577   YZ=             -0.6415
 Octapole moment (field-independent basis, Debye-Ang**2):
  XXX=            121.3075  YYY=            -40.6096  ZZZ=             -2.2777  XYY=             32.9562
  XXY=            -29.2928  XXZ=            -22.7679  XZZ=            -10.0189  YZZ=             -5.9344
  YYZ=              0.6115  XYZ=             -8.4656
 Hexadecapole moment (field-independent basis, Debye-Ang**3):
 XXXX=          -1937.1327 YYYY=           -786.6704 ZZZZ=           -265.2070 XXXY=            118.5504
 XXXZ=            -11.1979 YYYX=            109.5687 YYYZ=              2.7731 ZZZX=             -8.9250
 ZZZY=             -3.4847 XXYY=           -469.8267 XXZZ=           -397.4200 YYZZ=           -171.6730
 XXYZ=            -19.3725 YYXZ=            -15.1672 ZZXY=             -3.1905
 N-N= 6.820961882488D+02 E-N=-2.615343933169D+03  KE= 5.341965106716D+02
  Exact polarizability: 120.790   0.808 111.836  -0.436  -1.716  92.260
 Approx polarizability: 117.130   1.294 123.876  -1.491  -3.138 108.123
 Calling FoFJK, ICntrl=    100127 FMM=F ISym2X=0 I1Cent= 0 IOpClX= 0 NMat=1 NMatS=1 NMatT=0.
 Full mass-weighted force constant matrix:
 Low frequencies ---  -13.7588   -6.9927   -5.0852   -0.0007   -0.0003    0.0006
 Low frequencies ---   57.2401   70.4922   88.8341
 Diagonal vibrational polarizability:
       29.4369279      54.3166463      23.2555163
 Harmonic frequencies (cm**-1), IR intensities (KM/Mole), Raman scattering
 activities (A**4/AMU), depolarization ratios for plane and unpolarized
 incident light, reduced masses (AMU), force constants (mDyne/A),
 and normal coordinates:
                      1                      2                      3
                      A                      A                      A
 Frequencies --     57.2317                70.4791                88.7880
 Red. masses --      5.3156                 3.2494                 2.7561
 Frc consts  --      0.0103                 0.0095                 0.0128
 IR Inten    --      1.2911                 1.8153                 3.6533
  Atom  AN      X      Y      Z        X      Y      Z        X      Y      Z
     1   6     0.02  -0.08  -0.10    -0.05   0.11   0.08     0.16  -0.09  -0.02
     2   1    -0.01  -0.14  -0.35     0.02   0.22   0.40     0.20  -0.06  -0.19
     3   1     0.14  -0.28  -0.01    -0.34   0.24  -0.05     0.29  -0.18   0.04
     4   6    -0.03   0.04   0.07     0.01   0.05   0.04    -0.00   0.01  -0.01
     5   1    -0.10   0.22  -0.01     0.07  -0.03   0.08    -0.08   0.12  -0.06
     6   1    -0.05   0.06   0.25     0.05   0.07  -0.06    -0.08  -0.04   0.13
     7   6     0.01  -0.05   0.09     0.01   0.04   0.06    -0.00   0.08  -0.07
     8   1     0.05  -0.15   0.08     0.02   0.01   0.06    -0.01   0.18  -0.06
     9   1     0.02  -0.04   0.19     0.02   0.04   0.10    -0.01   0.07  -0.17
    10   7    -0.01  -0.03   0.00    -0.00   0.02   0.03    -0.00   0.05  -0.03
    11   6    -0.07   0.04   0.01    -0.03   0.03   0.02     0.08   0.12   0.01
    12   1    -0.08   0.03  -0.05    -0.04   0.01  -0.01     0.04  -0.00  -0.00
    13   1    -0.06   0.05   0.08    -0.03   0.03   0.03     0.23   0.15   0.10
    14   1    -0.11   0.09   0.01    -0.05   0.04   0.03     0.00   0.28  -0.04
    15   6     0.04  -0.08  -0.01     0.04  -0.01   0.00    -0.01  -0.05   0.05
    16   1     0.02  -0.08   0.08     0.08  -0.00   0.01    -0.02  -0.04   0.16
    17   1     0.03  -0.04  -0.08     0.02  -0.04  -0.03    -0.01  -0.02   0.04
    18   1     0.11  -0.16  -0.02     0.06  -0.00   0.01    -0.02  -0.16   0.01
    19   6     0.01  -0.04  -0.06    -0.03   0.01   0.02    -0.07   0.04  -0.12
    20   1    -0.06  -0.09  -0.10     0.01   0.03   0.04    -0.18  -0.02  -0.17
    21   1     0.06  -0.01  -0.14    -0.07   0.02   0.06    -0.00   0.11  -0.22
    22   6     0.04   0.01   0.02    -0.06  -0.02  -0.02    -0.07  -0.01   0.01
    23   8    -0.06  -0.02  -0.26    -0.07  -0.06  -0.15    -0.03  -0.06   0.01
    24   8     0.15   0.07   0.34    -0.05  -0.00   0.07    -0.13  -0.00   0.07
    25   7    -0.10   0.13  -0.09     0.23  -0.16  -0.13     0.07  -0.08   0.09
    26   1    -0.07   0.16   0.13     0.16  -0.23  -0.48     0.03  -0.16   0.31
    27   1    -0.10   0.07  -0.24     0.22  -0.12  -0.02     0.22  -0.15   0.01
                      4                      5                      6
                      A                      A                      A
 Frequencies --     92.7738               154.4020               193.5316
 Red. masses --      2.3801                 3.4651                 3.0412
 Frc consts  --      0.0121                 0.0487                 0.0671
 IR Inten    --      1.1936                12.4600                10.4937
  Atom  AN      X      Y      Z        X      Y      Z        X      Y      Z
     1   6     0.10  -0.09  -0.07    -0.05   0.07   0.06     0.05   0.10  -0.04
     2   1     0.13  -0.09  -0.28     0.00   0.13   0.10     0.12   0.16  -0.09
     3   1     0.16  -0.31   0.01    -0.15   0.05   0.04     0.09   0.06  -0.01
     4   6    -0.03   0.08   0.10    -0.09   0.11   0.10    -0.08   0.16  -0.04
     5   1    -0.14   0.29   0.00    -0.21   0.18   0.05    -0.19   0.26  -0.10
     6   1    -0.09   0.06   0.34    -0.07   0.16   0.24    -0.11   0.17   0.13
     7   6     0.01   0.03   0.07     0.01  -0.01   0.04    -0.03   0.09  -0.09
     8   1     0.05   0.02   0.08     0.10  -0.06   0.04    -0.10   0.22  -0.07
     9   1     0.02   0.03   0.08     0.06   0.01   0.11     0.11   0.08  -0.20
    10   7    -0.01   0.02   0.02    -0.03  -0.05  -0.09    -0.04  -0.07   0.03
    11   6    -0.08  -0.09  -0.03    -0.09   0.00  -0.08     0.06  -0.15   0.02
    12   1    -0.06  -0.03  -0.04    -0.13  -0.08  -0.17     0.07  -0.16   0.11
    13   1    -0.16  -0.11  -0.14     0.03   0.02  -0.01     0.04  -0.16  -0.06
    14   1    -0.05  -0.21   0.03    -0.20   0.12  -0.06     0.10  -0.21   0.02
    15   6     0.05   0.09  -0.09     0.03  -0.11  -0.09    -0.08  -0.10   0.09
    16   1     0.08   0.09  -0.21    -0.04  -0.11   0.05    -0.00  -0.09   0.03
    17   1     0.03   0.03  -0.10     0.02  -0.04  -0.20    -0.07  -0.16   0.19
    18   1     0.07   0.22  -0.05     0.14  -0.24  -0.11    -0.21  -0.04   0.08
    19   6     0.00   0.03   0.10    -0.03  -0.06  -0.19    -0.03  -0.07   0.07
    20   1     0.06   0.08   0.13    -0.18  -0.16  -0.27     0.03  -0.06   0.09
    21   1    -0.04  -0.01   0.16     0.09  -0.01  -0.34    -0.04  -0.10   0.10
    22   6    -0.03  -0.01   0.02     0.04   0.00   0.04     0.01   0.00  -0.02
    23   8    -0.01  -0.02   0.05     0.07   0.05   0.21    -0.07   0.07  -0.05
    24   8    -0.07  -0.03  -0.05     0.07   0.00   0.02     0.14   0.01  -0.04
    25   7     0.06   0.01  -0.09     0.05  -0.02  -0.02     0.05  -0.02   0.05
    26   1     0.02  -0.05   0.11     0.01  -0.06  -0.12    -0.07  -0.19   0.23
    27   1     0.15  -0.08  -0.27     0.07  -0.02  -0.01     0.28  -0.12  -0.03
                      7                      8                      9
                      A                      A                      A
 Frequencies --    228.1478               253.2092               259.4342
 Red. masses --      1.3279                 1.2159                 3.2569
 Frc consts  --      0.0407                 0.0459                 0.1292
 IR Inten    --     11.9128                 3.8130                20.9106
  Atom  AN      X      Y      Z        X      Y      Z        X      Y      Z
     1   6    -0.07   0.05  -0.01    -0.04  -0.03   0.03    -0.05  -0.01  -0.00
     2   1    -0.06   0.07   0.04    -0.06  -0.04   0.05     0.02   0.04  -0.07
     3   1    -0.10   0.08  -0.03    -0.09  -0.04   0.02    -0.04  -0.07   0.02
     4   6    -0.01   0.02  -0.03    -0.01  -0.03   0.04    -0.16   0.08   0.05
     5   1     0.02  -0.02  -0.00    -0.04  -0.05   0.04    -0.30   0.22  -0.04
     6   1     0.02   0.05  -0.09    -0.02  -0.03   0.03    -0.18   0.11   0.27
     7   6    -0.01  -0.02   0.02     0.00   0.03  -0.03    -0.07   0.03  -0.03
     8   1     0.00  -0.11   0.01     0.01   0.16  -0.00    -0.07   0.07  -0.02
     9   1    -0.01  -0.01   0.11    -0.00   0.01  -0.15    -0.05   0.03  -0.06
    10   7     0.01   0.02   0.00     0.01   0.00   0.01    -0.04   0.03   0.00
    11   6    -0.00   0.04   0.01     0.04  -0.04  -0.00     0.04   0.03   0.03
    12   1     0.02   0.10   0.02    -0.09  -0.43  -0.11     0.03  -0.05   0.06
    13   1    -0.06   0.03   0.01     0.49   0.02   0.09     0.13   0.04   0.02
    14   1     0.04   0.00  -0.00    -0.25   0.29   0.04     0.02   0.08   0.00
    15   6     0.01   0.02  -0.01     0.00   0.03  -0.00    -0.11   0.07   0.04
    16   1     0.04   0.03  -0.05    -0.21   0.00   0.19    -0.05   0.08  -0.06
    17   1     0.01  -0.01   0.01     0.02   0.25  -0.16    -0.09   0.02   0.15
    18   1    -0.01   0.07   0.00     0.20  -0.18  -0.03    -0.21   0.16   0.05
    19   6     0.04   0.02  -0.01     0.01   0.01   0.05     0.10   0.04  -0.01
    20   1     0.04   0.02  -0.00     0.04   0.03   0.06     0.14   0.02   0.00
    21   1     0.03   0.01  -0.00    -0.01  -0.01   0.08     0.09   0.01   0.01
    22   6     0.03  -0.01  -0.00     0.01   0.01   0.00     0.13  -0.03  -0.03
    23   8     0.06  -0.05  -0.01    -0.00   0.01  -0.02     0.21  -0.15  -0.07
    24   8    -0.01  -0.01   0.01     0.01   0.00  -0.02    -0.02  -0.03   0.01
    25   7    -0.06  -0.02   0.01    -0.02   0.01  -0.04    -0.03  -0.07   0.00
    26   1    -0.30  -0.39   0.49    -0.07  -0.05   0.06     0.10   0.13  -0.36
    27   1     0.42  -0.31  -0.37     0.05  -0.06  -0.19    -0.29   0.13   0.32
                     10                     11                     12
                      A                      A                      A
 Frequencies --    293.7110               308.0040               335.4988
 Red. masses --      1.4969                 1.3379                 3.0739
 Frc consts  --      0.0761                 0.0748                 0.2039
 IR Inten    --      6.0717                 0.1957                 6.0528
  Atom  AN      X      Y      Z        X      Y      Z        X      Y      Z
     1   6     0.06   0.06  -0.07    -0.04  -0.03   0.06     0.09   0.00   0.09
     2   1     0.09   0.09  -0.09    -0.06  -0.04   0.08     0.03  -0.04   0.13
     3   1     0.13   0.08  -0.06    -0.09  -0.05   0.05     0.04   0.02   0.07
     4   6     0.02   0.05  -0.09    -0.02  -0.02   0.08     0.08  -0.08   0.02
     5   1     0.07   0.06  -0.08    -0.08  -0.01   0.06     0.20  -0.25   0.11
     6   1     0.03   0.06  -0.10    -0.03  -0.02   0.12     0.03  -0.19  -0.21
     7   6    -0.01  -0.03   0.03     0.02   0.02  -0.03    -0.06   0.08  -0.03
     8   1    -0.04  -0.15   0.00     0.06   0.12  -0.01    -0.10   0.26   0.00
     9   1     0.00  -0.01   0.15     0.01   0.00  -0.13    -0.05   0.06  -0.21
    10   7    -0.02  -0.01   0.02     0.02   0.00  -0.02    -0.09  -0.00   0.01
    11   6    -0.08   0.00   0.01     0.08  -0.03  -0.02    -0.18  -0.04  -0.01
    12   1    -0.07   0.06  -0.02     0.21   0.29   0.16    -0.19  -0.04  -0.09
    13   1    -0.15  -0.01   0.01    -0.31  -0.08  -0.17    -0.19  -0.04  -0.05
    14   1    -0.07  -0.04   0.03     0.38  -0.37  -0.06    -0.23  -0.06   0.05
    15   6    -0.04   0.03  -0.00    -0.03   0.01   0.03    -0.12  -0.05   0.05
    16   1    -0.42  -0.01   0.34    -0.26  -0.02   0.26    -0.04  -0.04   0.03
    17   1    -0.01   0.43  -0.26     0.00   0.27  -0.09    -0.11  -0.11   0.14
    18   1     0.30  -0.33  -0.05     0.13  -0.24  -0.02    -0.24  -0.02   0.04
    19   6     0.02  -0.01   0.03    -0.00   0.01  -0.03     0.01  -0.01  -0.04
    20   1     0.04   0.00   0.04    -0.02  -0.00  -0.04     0.01  -0.06  -0.05
    21   1     0.01  -0.03   0.05     0.00   0.03  -0.05     0.06  -0.03  -0.06
    22   6     0.02  -0.02   0.01    -0.01   0.01  -0.01     0.06   0.00  -0.02
    23   8     0.01  -0.03  -0.00     0.00  -0.00  -0.01     0.12  -0.06  -0.02
    24   8    -0.01  -0.03  -0.00    -0.02   0.01   0.01    -0.01   0.01   0.01
    25   7     0.03  -0.01   0.05    -0.00   0.02  -0.04     0.12   0.17  -0.04
    26   1     0.04   0.01   0.01    -0.02  -0.00   0.00     0.08   0.11   0.16
    27   1     0.02   0.04   0.19     0.01  -0.03  -0.16     0.17   0.03  -0.37
                     13                     14                     15
                      A                      A                      A
 Frequencies --    346.6189               363.8308               428.7807
 Red. masses --      3.9286                 2.3487                 2.2036
 Frc consts  --      0.2781                 0.1832                 0.2387
 IR Inten    --      3.0646                 2.2694                 0.7387
  Atom  AN      X      Y      Z        X      Y      Z        X      Y      Z
     1   6     0.03   0.01   0.06    -0.03  -0.03  -0.00    -0.02  -0.01  -0.04
     2   1     0.02   0.01   0.06    -0.04  -0.04  -0.01    -0.03  -0.02  -0.04
     3   1     0.00   0.00   0.05    -0.03  -0.04  -0.00    -0.01   0.00  -0.04
     4   6     0.01   0.00   0.05    -0.04  -0.01  -0.01     0.03  -0.01  -0.02
     5   1    -0.04  -0.00   0.03    -0.06  -0.02  -0.02     0.16  -0.03   0.03
     6   1     0.00   0.00   0.09    -0.07  -0.04  -0.00     0.02  -0.04  -0.15
     7   6     0.02  -0.03  -0.01    -0.03   0.12  -0.10    -0.05   0.11   0.04
     8   1     0.05  -0.04  -0.01    -0.09   0.40  -0.05    -0.12   0.26   0.06
     9   1     0.02  -0.03   0.01     0.00   0.08  -0.38    -0.03   0.08  -0.13
    10   7     0.01  -0.01  -0.03    -0.00   0.02   0.01    -0.02   0.03   0.12
    11   6     0.04   0.14   0.01    -0.10   0.15   0.03    -0.02  -0.10   0.11
    12   1     0.04   0.16   0.01    -0.05   0.38  -0.05    -0.01  -0.13   0.16
    13   1     0.05   0.15   0.16    -0.32   0.13   0.12    -0.02  -0.11  -0.05
    14   1     0.05   0.24  -0.07    -0.02   0.08   0.00     0.02  -0.20   0.15
    15   6    -0.16   0.22  -0.04     0.12  -0.07  -0.04     0.09   0.11  -0.01
    16   1    -0.29   0.18  -0.26     0.17  -0.06   0.08     0.06   0.10  -0.09
    17   1    -0.09   0.32   0.13     0.07  -0.12  -0.19     0.06   0.11  -0.13
    18   1    -0.23   0.39   0.00     0.23  -0.15  -0.04     0.24   0.19   0.05
    19   6    -0.02  -0.09  -0.04     0.01  -0.01   0.10    -0.06  -0.02  -0.12
    20   1    -0.13  -0.07  -0.07     0.06   0.11   0.15    -0.29  -0.28  -0.27
    21   1    -0.03  -0.00  -0.10    -0.05  -0.07   0.19     0.09   0.20  -0.40
    22   6    -0.02  -0.16   0.02     0.03  -0.06   0.04     0.01  -0.02  -0.02
    23   8    -0.14  -0.03   0.02    -0.01  -0.03   0.03     0.01  -0.02  -0.01
    24   8     0.18  -0.17  -0.01     0.09  -0.07  -0.02     0.05  -0.02  -0.01
    25   7     0.06   0.07  -0.01    -0.04  -0.03  -0.02    -0.04  -0.05   0.00
    26   1     0.04   0.04   0.05    -0.02  -0.01  -0.04    -0.04  -0.03  -0.02
    27   1     0.09   0.01  -0.16    -0.06  -0.01   0.01    -0.05  -0.01   0.10
                     16                     17                     18
                      A                      A                      A
 Frequencies --    470.4221               516.0060               569.0856
 Red. masses --      2.5975                 2.7876                 2.6632
 Frc consts  --      0.3387                 0.4373                 0.5082
 IR Inten    --      7.5738                 0.2553                 4.4636
  Atom  AN      X      Y      Z        X      Y      Z        X      Y      Z
     1   6    -0.04  -0.01  -0.03     0.00  -0.02  -0.02    -0.03  -0.01  -0.08
     2   1    -0.05  -0.02  -0.01    -0.00  -0.03  -0.06    -0.06  -0.04  -0.09
     3   1    -0.05   0.00  -0.03     0.02  -0.07  -0.00    -0.03  -0.06  -0.06
     4   6     0.03   0.01   0.01     0.04   0.01   0.03     0.17   0.06   0.10
     5   1    -0.09   0.06  -0.04     0.30  -0.05   0.13     0.40   0.08   0.16
     6   1     0.08   0.08   0.13     0.01  -0.08  -0.24     0.21   0.05  -0.11
     7   6     0.12   0.00  -0.05    -0.08   0.10   0.14     0.11   0.12   0.09
     8   1     0.11   0.08  -0.04     0.05  -0.14   0.11     0.16   0.37   0.13
     9   1     0.10  -0.00  -0.11    -0.18   0.12   0.36     0.19   0.09  -0.17
    10   7     0.14   0.06  -0.01    -0.07   0.16  -0.07    -0.02  -0.08  -0.03
    11   6    -0.14  -0.04  -0.11     0.06  -0.02  -0.14    -0.00   0.03  -0.00
    12   1    -0.19  -0.05  -0.38     0.06  -0.15   0.04     0.01   0.08   0.01
    13   1    -0.18  -0.05  -0.20     0.16  -0.01  -0.34    -0.01   0.04   0.13
    14   1    -0.34  -0.12   0.14     0.11  -0.10  -0.13     0.03   0.11  -0.09
    15   6     0.00   0.05   0.20    -0.03  -0.06   0.03    -0.12  -0.03  -0.06
    16   1    -0.00   0.05   0.23     0.12  -0.02   0.23    -0.22  -0.05  -0.14
    17   1     0.07   0.08   0.40    -0.05  -0.15   0.03    -0.07   0.08   0.05
    18   1    -0.24  -0.02   0.12    -0.09  -0.23  -0.04    -0.17   0.04  -0.05
    19   6     0.05   0.05  -0.04    -0.07   0.11   0.01    -0.01  -0.09   0.00
    20   1    -0.06   0.03  -0.08    -0.04   0.22   0.05     0.16  -0.02   0.07
    21   1     0.06   0.14  -0.10    -0.13   0.07   0.10    -0.09  -0.17   0.13
    22   6    -0.01  -0.03   0.01     0.00  -0.06   0.01     0.00   0.02  -0.05
    23   8    -0.05   0.00   0.00    -0.01  -0.05   0.02     0.03   0.02   0.01
    24   8     0.00  -0.04   0.00     0.13  -0.06  -0.02    -0.04   0.03   0.02
    25   7    -0.06  -0.06  -0.01    -0.03  -0.03   0.00    -0.10  -0.10  -0.01
    26   1    -0.06  -0.06  -0.04    -0.01  -0.01   0.00    -0.11  -0.10  -0.01
    27   1    -0.04  -0.03   0.09    -0.04  -0.00   0.06    -0.05  -0.02   0.23
                     19                     20                     21
                      A                      A                      A
 Frequencies --    613.3527               705.4421               764.3147
 Red. masses --      2.6516                 3.5962                 1.8806
 Frc consts  --      0.5877                 1.0544                 0.6473
 IR Inten    --      3.6708                32.2569                17.3900
  Atom  AN      X      Y      Z        X      Y      Z        X      Y      Z
     1   6    -0.01   0.01  -0.00    -0.01   0.00   0.02     0.03  -0.00  -0.03
     2   1    -0.00   0.01  -0.04     0.12   0.09  -0.23    -0.11  -0.08   0.37
     3   1    -0.01  -0.02   0.01     0.08  -0.22   0.11    -0.16   0.34  -0.19
     4   6     0.02   0.01   0.03    -0.10   0.04   0.01     0.10  -0.05  -0.00
     5   1     0.08  -0.01   0.05     0.23  -0.25   0.20    -0.14   0.34  -0.19
     6   1     0.04   0.02  -0.04    -0.10  -0.06  -0.45     0.01  -0.03   0.46
     7   6     0.01   0.01   0.02    -0.12   0.07   0.06     0.00  -0.01   0.00
     8   1     0.05   0.03   0.02    -0.08   0.09   0.07    -0.04   0.05   0.01
     9   1     0.02   0.01   0.01    -0.06   0.07   0.03    -0.05  -0.03  -0.07
    10   7    -0.01  -0.02  -0.02     0.02   0.00  -0.01    -0.05   0.06   0.01
    11   6     0.01   0.02  -0.03     0.03   0.00  -0.05    -0.01  -0.02   0.07
    12   1     0.02   0.04  -0.01     0.02  -0.02  -0.04    -0.02  -0.10   0.17
    13   1    -0.01   0.02   0.02     0.05   0.00  -0.09     0.06  -0.02  -0.05
    14   1     0.04   0.04  -0.07     0.03  -0.01  -0.04     0.03  -0.06   0.05
    15   6    -0.04  -0.04  -0.04     0.04   0.01   0.02    -0.05  -0.05  -0.06
    16   1    -0.01  -0.03  -0.03     0.07   0.01   0.04     0.05  -0.02   0.01
    17   1    -0.04  -0.05  -0.02     0.04  -0.01   0.03    -0.09  -0.13  -0.12
    18   1    -0.07  -0.04  -0.05     0.03  -0.01   0.01    -0.02  -0.09  -0.07
    19   6     0.04   0.01   0.09     0.25  -0.08  -0.06     0.09   0.09  -0.04
    20   1    -0.57  -0.12  -0.14     0.35  -0.12  -0.04     0.10   0.08  -0.04
    21   1     0.55   0.01  -0.38     0.25  -0.14  -0.02     0.07   0.08  -0.01
    22   6     0.08   0.06   0.30     0.10  -0.08  -0.04     0.06  -0.06  -0.01
    23   8    -0.03  -0.01  -0.10    -0.10   0.17   0.00    -0.05   0.07   0.00
    24   8    -0.04  -0.02  -0.10    -0.13  -0.11   0.06    -0.03  -0.07   0.02
    25   7    -0.01  -0.01  -0.00     0.01   0.01  -0.00    -0.02  -0.00  -0.02
    26   1    -0.02  -0.02  -0.02     0.02   0.02  -0.04    -0.01   0.01   0.18
    27   1    -0.00  -0.00   0.03    -0.01   0.00  -0.03    -0.01   0.04   0.11
                     22                     23                     24
                      A                      A                      A
 Frequencies --    802.1962               833.4590               868.6148
 Red. masses --      2.2582                 1.3902                 2.3627
 Frc consts  --      0.8562                 0.5690                 1.0503
 IR Inten    --     10.3636               121.0688                47.1537
  Atom  AN      X      Y      Z        X      Y      Z        X      Y      Z
     1   6    -0.04   0.03   0.02     0.03   0.04  -0.01     0.01  -0.08   0.10
     2   1     0.07   0.07  -0.39     0.11   0.12   0.01     0.03  -0.05   0.12
     3   1     0.18  -0.30   0.18    -0.13  -0.07  -0.03    -0.12  -0.14   0.07
     4   6    -0.02   0.03   0.03    -0.05  -0.01   0.05    -0.01   0.06  -0.05
     5   1     0.04  -0.26   0.13     0.04  -0.16   0.12    -0.10  -0.16  -0.01
     6   1     0.13   0.14  -0.24    -0.01  -0.01  -0.13    -0.06  -0.01  -0.14
     7   6     0.08  -0.04  -0.05    -0.02  -0.05  -0.00     0.10   0.11  -0.09
     8   1     0.12   0.00  -0.04     0.02   0.08   0.02     0.13  -0.43  -0.18
     9   1     0.12  -0.05  -0.08    -0.01  -0.07  -0.12     0.10   0.20   0.49
    10   7     0.02   0.01  -0.01     0.02  -0.02  -0.00     0.01   0.04  -0.03
    11   6    -0.03  -0.05   0.15     0.00  -0.00   0.01    -0.01  -0.03   0.10
    12   1    -0.03  -0.05   0.12     0.00   0.01  -0.01    -0.03   0.01  -0.00
    13   1    -0.04  -0.05   0.12    -0.02  -0.01   0.03    -0.05  -0.03   0.08
    14   1    -0.04  -0.07   0.18    -0.01  -0.00   0.01    -0.05  -0.02   0.14
    15   6    -0.08  -0.06  -0.09     0.00  -0.00   0.00    -0.01  -0.00  -0.02
    16   1    -0.05  -0.06  -0.06    -0.01  -0.01  -0.02    -0.02  -0.00   0.01
    17   1    -0.08  -0.09  -0.09     0.00  -0.00   0.00     0.00   0.03   0.01
    18   1    -0.08  -0.09  -0.10     0.00   0.00   0.00    -0.05  -0.03  -0.04
    19   6     0.05   0.20  -0.04     0.02   0.05  -0.01    -0.12  -0.04   0.03
    20   1     0.03   0.21  -0.04     0.03   0.04  -0.01    -0.15   0.04   0.04
    21   1     0.02   0.21  -0.01     0.02   0.04  -0.00    -0.13  -0.00   0.02
    22   6    -0.02  -0.03  -0.01    -0.04   0.01   0.01     0.12  -0.04  -0.01
    23   8    -0.04  -0.01   0.02    -0.01  -0.03   0.01     0.04   0.08  -0.03
    24   8     0.03  -0.02   0.00     0.02   0.02  -0.01    -0.04  -0.05   0.02
    25   7     0.01  -0.01   0.03     0.01  -0.01  -0.12    -0.02  -0.03  -0.07
    26   1    -0.04  -0.06  -0.30     0.04   0.02   0.65     0.06   0.08   0.32
    27   1     0.04  -0.07  -0.14     0.01   0.23   0.59    -0.16   0.07   0.11
                     25                     26                     27
                      A                      A                      A
 Frequencies --    887.0853               925.2298               965.7815
 Red. masses --      3.0228                 2.7248                 2.5916
 Frc consts  --      1.4015                 1.3743                 1.4242
 IR Inten    --     56.2716                13.4037                14.7652
  Atom  AN      X      Y      Z        X      Y      Z        X      Y      Z
     1   6     0.03  -0.11   0.05     0.02  -0.03  -0.03     0.01   0.00  -0.03
     2   1    -0.01  -0.10   0.38     0.00  -0.01   0.20    -0.01  -0.00   0.04
     3   1    -0.16   0.16  -0.08    -0.06   0.19  -0.12     0.00   0.06  -0.05
     4   6    -0.03   0.06  -0.09    -0.07  -0.01  -0.04    -0.01  -0.00   0.02
     5   1     0.05   0.14  -0.09     0.13   0.13  -0.02     0.11   0.06   0.04
     6   1    -0.20  -0.13  -0.08    -0.16  -0.11  -0.08    -0.03  -0.04  -0.03
     7   6    -0.04   0.15   0.03    -0.09   0.02   0.11    -0.02  -0.01   0.00
     8   1    -0.04  -0.16  -0.02    -0.08   0.16   0.13     0.09   0.03   0.02
     9   1     0.13   0.20   0.32     0.06  -0.01  -0.09    -0.03  -0.02  -0.07
    10   7     0.09  -0.03  -0.02     0.13  -0.15   0.02    -0.03  -0.03  -0.13
    11   6     0.00  -0.03   0.06     0.04  -0.02  -0.05    -0.05  -0.04   0.11
    12   1    -0.01   0.03  -0.09     0.04   0.16  -0.29    -0.03  -0.07   0.21
    13   1    -0.06  -0.03   0.11    -0.12  -0.03   0.24     0.03  -0.03   0.09
    14   1    -0.07  -0.01   0.11    -0.07   0.09  -0.02     0.07  -0.01  -0.03
    15   6    -0.03  -0.04  -0.05     0.01  -0.06  -0.02     0.10   0.06   0.07
    16   1    -0.13  -0.06  -0.07    -0.28  -0.12  -0.22    -0.03   0.03   0.03
    17   1     0.03   0.08   0.07     0.12   0.21   0.17     0.15   0.14   0.18
    18   1    -0.11  -0.02  -0.06    -0.07   0.10   0.01    -0.06   0.04   0.03
    19   6     0.18   0.00  -0.05    -0.11   0.19   0.02    -0.05   0.00  -0.19
    20   1     0.26  -0.03  -0.04    -0.20   0.17  -0.01     0.38   0.43   0.07
    21   1     0.19  -0.06  -0.02    -0.15   0.25   0.01    -0.31  -0.37   0.30
    22   6    -0.16   0.07   0.04     0.08  -0.05  -0.02     0.06   0.03   0.20
    23   8    -0.06  -0.12   0.04     0.03   0.06  -0.02    -0.01  -0.00  -0.04
    24   8     0.06   0.08  -0.03    -0.02  -0.05   0.02    -0.01  -0.02  -0.04
    25   7    -0.03  -0.02  -0.00     0.01   0.01   0.03     0.00   0.01   0.02
    26   1     0.10   0.14   0.11     0.07   0.08   0.02     0.00   0.00  -0.04
    27   1    -0.21  -0.04  -0.22    -0.05  -0.02  -0.12     0.02  -0.01  -0.03
                     28                     29                     30
                      A                      A                      A
 Frequencies --    994.2867              1030.0603              1039.3805
 Red. masses --      2.5423                 2.0261                 1.6481
 Frc consts  --      1.4808                 1.2666                 1.0490
 IR Inten    --     17.3863                 1.1648                13.6898
  Atom  AN      X      Y      Z        X      Y      Z        X      Y      Z
     1   6    -0.02   0.08  -0.09    -0.01   0.00   0.04    -0.02   0.06   0.04
     2   1    -0.12  -0.02  -0.16     0.02   0.01  -0.07    -0.18  -0.14  -0.24
     3   1     0.10   0.08  -0.06     0.05  -0.11   0.09     0.16  -0.12   0.15
     4   6    -0.03  -0.13   0.05     0.00  -0.00  -0.06     0.10  -0.05   0.03
     5   1    -0.11  -0.03  -0.00    -0.17  -0.09  -0.08    -0.17  -0.02  -0.06
     6   1    -0.12  -0.20   0.14     0.07   0.08   0.02     0.01  -0.10   0.24
     7   6    -0.07   0.06   0.03     0.03  -0.00   0.03    -0.07   0.09  -0.06
     8   1     0.11  -0.03   0.03    -0.16   0.07   0.03    -0.18  -0.29  -0.13
     9   1    -0.31   0.05   0.07     0.06  -0.01  -0.02    -0.04   0.14   0.29
    10   7     0.16   0.11  -0.05     0.04   0.03   0.15    -0.03  -0.08   0.01
    11   6     0.03  -0.01   0.11     0.05   0.08  -0.07     0.01  -0.02  -0.04
    12   1    -0.03   0.02  -0.22    -0.01  -0.08  -0.19     0.03   0.09  -0.08
    13   1    -0.08  -0.03  -0.05    -0.00   0.05  -0.38    -0.05  -0.02   0.18
    14   1    -0.16  -0.12   0.38    -0.11  -0.17   0.27     0.00   0.10  -0.12
    15   6    -0.04  -0.04  -0.10    -0.08  -0.08  -0.02     0.03  -0.01   0.04
    16   1    -0.07  -0.04   0.04    -0.11  -0.10  -0.26    -0.10  -0.04  -0.12
    17   1     0.06   0.06   0.16    -0.12   0.00  -0.22     0.04   0.09  -0.01
    18   1    -0.26  -0.14  -0.19     0.21   0.18   0.13     0.10   0.12   0.10
    19   6    -0.02  -0.13   0.02    -0.03  -0.03  -0.10     0.02   0.07  -0.02
    20   1    -0.08   0.01   0.04     0.33   0.03   0.04     0.10  -0.02  -0.02
    21   1    -0.09  -0.01   0.00    -0.33   0.00   0.16     0.07  -0.03   0.01
    22   6     0.00   0.02   0.00     0.03   0.02   0.12    -0.00  -0.00   0.00
    23   8     0.01   0.00  -0.00    -0.00  -0.00  -0.02    -0.01  -0.01   0.00
    24   8    -0.01   0.02  -0.00    -0.01  -0.01  -0.02     0.01  -0.00  -0.00
    25   7     0.03   0.04   0.02     0.00  -0.01  -0.02    -0.01   0.01  -0.04
    26   1    -0.11  -0.15  -0.15     0.00  -0.00   0.05    -0.21  -0.23  -0.16
    27   1     0.27   0.05   0.22    -0.03   0.01   0.02     0.24   0.06   0.30
                     31                     32                     33
                      A                      A                      A
 Frequencies --   1087.1899              1097.6595              1121.8559
 Red. masses --      2.1279                 1.9975                 2.5577
 Frc consts  --      1.4819                 1.4180                 1.8966
 IR Inten    --      3.5190                 7.4819                27.5633
  Atom  AN      X      Y      Z        X      Y      Z        X      Y      Z
     1   6    -0.04   0.01   0.00     0.03   0.03   0.16     0.23   0.14   0.05
     2   1    -0.08  -0.04  -0.14     0.10   0.05  -0.11     0.27   0.20   0.11
     3   1     0.08  -0.03   0.05     0.20  -0.15   0.26     0.35   0.36   0.01
     4   6    -0.09  -0.11  -0.13     0.09   0.05  -0.08    -0.07  -0.07   0.03
     5   1    -0.38  -0.21  -0.19    -0.05   0.13  -0.14    -0.09  -0.20   0.07
     6   1    -0.15  -0.12   0.09     0.22   0.23   0.12    -0.24  -0.26   0.02
     7   6     0.15   0.08   0.14    -0.10  -0.06   0.05     0.05   0.01   0.03
     8   1     0.08   0.21   0.16    -0.32   0.12   0.06     0.23   0.03   0.05
     9   1     0.25   0.07   0.02    -0.13  -0.09  -0.19    -0.00   0.01   0.02
    10   7    -0.04  -0.01   0.01     0.05   0.03  -0.02    -0.02  -0.01  -0.01
    11   6    -0.06   0.01  -0.03    -0.03   0.01   0.02     0.02  -0.01   0.00
    12   1     0.00  -0.08   0.39    -0.01  -0.05   0.15     0.01   0.03  -0.06
    13   1     0.16   0.04  -0.02     0.09   0.02  -0.05    -0.04  -0.01   0.03
    14   1     0.17   0.03  -0.27     0.07  -0.02  -0.06    -0.04   0.01   0.04
    15   6     0.03  -0.01  -0.02     0.05  -0.01  -0.07    -0.02   0.01   0.02
    16   1    -0.11  -0.02   0.03    -0.11  -0.02   0.11     0.04   0.01  -0.03
    17   1     0.11   0.10   0.19     0.19   0.13   0.31    -0.07  -0.05  -0.10
    18   1    -0.18  -0.03  -0.07    -0.32  -0.13  -0.19     0.10   0.03   0.06
    19   6     0.01   0.02   0.01    -0.01  -0.03   0.01    -0.01   0.01   0.00
    20   1     0.00  -0.02  -0.01    -0.07   0.04   0.01     0.02   0.00   0.00
    21   1     0.04   0.01  -0.01    -0.03   0.03  -0.00     0.03  -0.03  -0.01
    22   6    -0.00  -0.00  -0.01     0.00   0.00  -0.00     0.00  -0.00  -0.00
    23   8    -0.00  -0.00   0.00     0.01   0.00  -0.00    -0.00  -0.00   0.00
    24   8     0.00  -0.00   0.00    -0.00   0.00   0.00     0.00   0.00   0.00
    25   7     0.04   0.03  -0.01    -0.06  -0.05  -0.08    -0.17  -0.07  -0.09
    26   1    -0.03  -0.07   0.01    -0.05  -0.03   0.04    -0.19  -0.07  -0.26
    27   1     0.12   0.06   0.15    -0.16  -0.02  -0.05    -0.16  -0.12  -0.24
                     34                     35                     36
                      A                      A                      A
 Frequencies --   1142.2901              1173.8048              1191.9737
 Red. masses --      1.3003                 1.4610                 1.3376
 Frc consts  --      0.9997                 1.1860                 1.1197
 IR Inten    --      1.0565                 3.4737                 1.7094
  Atom  AN      X      Y      Z        X      Y      Z        X      Y      Z
     1   6    -0.01  -0.00   0.02     0.02   0.03  -0.09     0.05  -0.03   0.02
     2   1    -0.02  -0.02  -0.03     0.23   0.25   0.06    -0.23  -0.28   0.11
     3   1     0.04  -0.03   0.05    -0.19  -0.01  -0.14     0.08   0.11  -0.01
     4   6    -0.00  -0.00  -0.03     0.01  -0.03   0.09    -0.04   0.06   0.04
     5   1    -0.03   0.02  -0.05    -0.19  -0.28   0.10     0.29   0.14   0.12
     6   1     0.01   0.01   0.01     0.14   0.09   0.03    -0.26  -0.22  -0.16
     7   6     0.01  -0.00   0.04     0.00   0.03  -0.06     0.00  -0.04  -0.06
     8   1     0.01   0.07   0.05    -0.18  -0.16  -0.10    -0.08  -0.08  -0.07
     9   1     0.03  -0.01  -0.03    -0.12   0.05   0.11     0.18  -0.03   0.01
    10   7     0.01   0.01   0.03     0.01   0.02   0.08     0.04  -0.01   0.06
    11   6     0.03  -0.08  -0.03    -0.03  -0.01  -0.04    -0.05   0.04  -0.02
    12   1     0.08   0.22  -0.21     0.02   0.03   0.19    -0.04  -0.11   0.24
    13   1    -0.14  -0.07   0.42     0.06   0.01   0.10     0.15   0.05  -0.14
    14   1    -0.05   0.20  -0.15     0.08   0.07  -0.21     0.13  -0.05  -0.13
    15   6    -0.05   0.08  -0.03     0.03  -0.03  -0.05     0.00   0.00  -0.04
    16   1     0.33   0.16   0.31    -0.14  -0.05   0.03     0.01   0.01   0.08
    17   1    -0.15  -0.27  -0.08     0.13   0.12   0.20     0.03  -0.01   0.07
    18   1    -0.05  -0.25  -0.14    -0.22  -0.03  -0.11    -0.11  -0.08  -0.09
    19   6    -0.01  -0.01  -0.03    -0.01   0.01  -0.00     0.00  -0.01   0.00
    20   1     0.21  -0.17  -0.01     0.23  -0.25   0.00     0.05  -0.14  -0.01
    21   1    -0.23   0.19   0.04    -0.12   0.19  -0.01    -0.21   0.27   0.02
    22   6     0.01   0.01   0.05     0.01   0.01   0.03     0.00   0.00   0.03
    23   8    -0.00  -0.00  -0.01    -0.01  -0.00  -0.00     0.01   0.00  -0.01
    24   8    -0.00  -0.00  -0.01    -0.00  -0.00  -0.01    -0.00  -0.00  -0.00
    25   7     0.01   0.00  -0.01    -0.01  -0.02   0.04    -0.02   0.03  -0.02
    26   1    -0.01  -0.02   0.02     0.12   0.15   0.05    -0.18  -0.18  -0.18
    27   1     0.01   0.01   0.03    -0.13  -0.06  -0.20     0.19   0.04   0.19
                     37                     38                     39
                      A                      A                      A
 Frequencies --   1250.2269              1262.4142              1289.2195
 Red. masses --      1.2882                 1.5633                 1.5100
 Frc consts  --      1.1863                 1.4679                 1.4787
 IR Inten    --      0.8099                 7.0703                 0.7139
  Atom  AN      X      Y      Z        X      Y      Z        X      Y      Z
     1   6    -0.03  -0.00   0.04    -0.01   0.03  -0.01    -0.08   0.05   0.01
     2   1    -0.01   0.01  -0.06     0.07   0.10  -0.05     0.14   0.24  -0.21
     3   1     0.16   0.06   0.08    -0.01  -0.04   0.01     0.23   0.07   0.10
     4   6    -0.03  -0.01  -0.03     0.02  -0.03   0.01    -0.00  -0.10   0.01
     5   1     0.25   0.32  -0.04    -0.05   0.00  -0.02     0.25   0.39  -0.06
     6   1     0.01   0.03  -0.04     0.03  -0.01   0.05    -0.01  -0.09   0.08
     7   6     0.02  -0.01  -0.02    -0.04   0.03   0.01    -0.02   0.04  -0.03
     8   1     0.43   0.01   0.01    -0.08  -0.03  -0.01     0.20  -0.11  -0.04
     9   1    -0.38  -0.03  -0.06     0.01   0.04   0.04     0.15   0.07   0.09
    10   7    -0.01   0.09   0.00     0.13   0.00  -0.03     0.01  -0.10  -0.01
    11   6    -0.02  -0.05  -0.01    -0.09  -0.03  -0.00    -0.01   0.07   0.02
    12   1     0.02   0.10   0.02    -0.02   0.02   0.28    -0.07  -0.17   0.03
    13   1    -0.02  -0.03   0.21     0.23   0.02   0.08     0.08   0.06  -0.27
    14   1     0.03   0.12  -0.19     0.21   0.03  -0.33     0.06  -0.16   0.11
    15   6     0.01  -0.07   0.02    -0.08  -0.01   0.05    -0.01   0.05  -0.01
    16   1    -0.21  -0.12  -0.23     0.18   0.02  -0.14     0.12   0.07   0.12
    17   1     0.06   0.17  -0.01    -0.16  -0.06  -0.23    -0.04  -0.11   0.01
    18   1     0.06   0.20   0.13     0.33   0.06   0.16    -0.02  -0.13  -0.07
    19   6     0.01  -0.01   0.01     0.05  -0.06  -0.01    -0.03   0.04   0.02
    20   1     0.17  -0.24   0.00    -0.32   0.34  -0.01     0.16  -0.25  -0.00
    21   1    -0.07   0.17  -0.03    -0.23   0.21   0.07    -0.01   0.08  -0.02
    22   6     0.01   0.01   0.01    -0.02   0.00   0.00     0.00  -0.00   0.01
    23   8    -0.01  -0.01   0.00     0.02   0.01  -0.01     0.00   0.00  -0.00
    24   8     0.00  -0.00  -0.00    -0.00   0.01  -0.00    -0.00  -0.00  -0.00
    25   7     0.02  -0.00  -0.02     0.00  -0.01   0.00     0.03  -0.03  -0.01
    26   1     0.02  -0.00   0.06     0.06   0.07   0.06     0.15   0.13   0.20
    27   1    -0.04   0.01   0.00    -0.08  -0.02  -0.07    -0.19  -0.02  -0.14
                     40                     41                     42
                      A                      A                      A
 Frequencies --   1331.8433              1338.6804              1358.0578
 Red. masses --      1.4678                 1.4729                 1.1903
 Frc consts  --      1.5340                 1.5551                 1.2934
 IR Inten    --      7.6827                 5.8999                49.7366
  Atom  AN      X      Y      Z        X      Y      Z        X      Y      Z
     1   6    -0.05   0.02  -0.00    -0.01   0.02  -0.01    -0.02  -0.03  -0.02
     2   1    -0.01   0.05  -0.10    -0.10  -0.06  -0.03    -0.28  -0.28   0.02
     3   1     0.26   0.19   0.04     0.13   0.09   0.01     0.50   0.48  -0.02
     4   6    -0.04  -0.04   0.04     0.02   0.00   0.01    -0.03   0.02   0.03
     5   1     0.27   0.22   0.05    -0.09  -0.08   0.01    -0.16  -0.25   0.08
     6   1    -0.07  -0.08   0.00     0.00  -0.01  -0.01     0.28   0.33  -0.06
     7   6     0.05  -0.01  -0.04    -0.00   0.00   0.00    -0.02   0.01  -0.00
     8   1    -0.28  -0.04  -0.07     0.01   0.03   0.01     0.00   0.02   0.01
     9   1     0.14   0.01   0.10     0.11   0.01   0.03    -0.01   0.02   0.05
    10   7    -0.02   0.05   0.12    -0.11  -0.03  -0.04     0.02  -0.00  -0.01
    11   6     0.02  -0.04  -0.04     0.05   0.01   0.02    -0.01   0.00  -0.00
    12   1     0.05   0.10  -0.05     0.00  -0.03  -0.16     0.01  -0.01   0.08
    13   1    -0.06  -0.03   0.15    -0.15  -0.02  -0.09     0.02   0.01   0.02
    14   1    -0.05   0.11  -0.07    -0.09   0.03   0.14    -0.01  -0.02   0.01
    15   6     0.01  -0.01  -0.04     0.05  -0.01   0.01    -0.01   0.00   0.00
    16   1    -0.09  -0.02   0.09    -0.08  -0.02   0.01     0.03   0.01  -0.02
    17   1     0.04   0.00   0.07     0.09   0.09   0.07    -0.02  -0.01  -0.02
    18   1    -0.14   0.01  -0.06    -0.08   0.06   0.01     0.03  -0.02   0.00
    19   6     0.02  -0.02  -0.05     0.11  -0.05   0.01    -0.01   0.01   0.00
    20   1    -0.28   0.50   0.00    -0.34   0.07  -0.09     0.06  -0.09  -0.00
    21   1     0.10  -0.32   0.07    -0.50   0.58   0.16     0.06  -0.07  -0.00
    22   6     0.01  -0.01  -0.02     0.02  -0.00   0.01    -0.06   0.02   0.01
    23   8    -0.01  -0.01   0.01    -0.01  -0.01   0.00     0.03   0.03  -0.01
    24   8    -0.00   0.01   0.00    -0.00   0.03  -0.01     0.01  -0.04   0.01
    25   7     0.02  -0.02  -0.01     0.01  -0.02  -0.00     0.03  -0.02  -0.02
    26   1     0.08   0.06   0.12     0.07   0.06   0.09     0.07   0.03   0.12
    27   1    -0.10  -0.00  -0.07    -0.09  -0.01  -0.06    -0.08   0.00  -0.03
                     43                     44                     45
                      A                      A                      A
 Frequencies --   1364.7064              1378.3988              1391.6011
 Red. masses --      3.9946                 1.4246                 1.3711
 Frc consts  --      4.3833                 1.5947                 1.5644
 IR Inten    --    193.4899                23.1910                10.6147
  Atom  AN      X      Y      Z        X      Y      Z        X      Y      Z
     1   6     0.02  -0.06   0.00     0.05  -0.06   0.02    -0.01  -0.01  -0.00
     2   1    -0.06  -0.12   0.10     0.26   0.16   0.16     0.09   0.09  -0.02
     3   1     0.18   0.24  -0.04    -0.12  -0.03  -0.05     0.07   0.09  -0.00
     4   6    -0.05  -0.01   0.00    -0.08  -0.10  -0.01    -0.01  -0.04   0.02
     5   1    -0.05  -0.09   0.02     0.17   0.22  -0.03     0.11   0.04   0.04
     6   1     0.36   0.42  -0.05     0.48   0.49  -0.03     0.03   0.02   0.06
     7   6    -0.01   0.03  -0.01    -0.02   0.03  -0.02    -0.01  -0.03   0.01
     8   1     0.20  -0.01   0.01     0.12   0.01  -0.01    -0.46   0.04  -0.01
     9   1    -0.23   0.02   0.03     0.16   0.07   0.14     0.67   0.01   0.04
    10   7     0.03  -0.06   0.03    -0.02  -0.01   0.02    -0.00   0.09  -0.09
    11   6    -0.03   0.01   0.01     0.01   0.00  -0.00     0.01  -0.03   0.03
    12   1    -0.04   0.05  -0.06    -0.01  -0.01  -0.05     0.01   0.08  -0.07
    13   1     0.19   0.03  -0.12    -0.02  -0.00  -0.03    -0.04  -0.04  -0.01
    14   1     0.13  -0.07  -0.09     0.00   0.01  -0.00    -0.02   0.11  -0.04
    15   6    -0.03   0.01  -0.02     0.01   0.00  -0.01    -0.01  -0.04   0.03
    16   1     0.21   0.06   0.08    -0.01   0.01   0.05     0.07  -0.03  -0.13
    17   1     0.00   0.03   0.13     0.02  -0.00   0.03     0.02   0.21  -0.08
    18   1     0.13  -0.06  -0.01    -0.03   0.01  -0.01     0.05   0.10   0.08
    19   6    -0.03   0.00  -0.00     0.03  -0.01  -0.01    -0.04  -0.01   0.03
    20   1    -0.00   0.14   0.04    -0.12   0.11  -0.02     0.25  -0.18   0.07
    21   1     0.04  -0.01  -0.05    -0.08   0.06   0.04     0.07   0.13  -0.16
    22   6     0.31  -0.10  -0.06    -0.05   0.02   0.01     0.04  -0.01  -0.00
    23   8    -0.19  -0.14   0.07     0.03   0.02  -0.01    -0.02  -0.02   0.01
    24   8    -0.03   0.21  -0.03     0.01  -0.03   0.01    -0.00   0.02  -0.00
    25   7    -0.00   0.02  -0.01    -0.03   0.05  -0.01    -0.00   0.00  -0.00
    26   1    -0.06  -0.07  -0.06    -0.17  -0.13  -0.20    -0.01  -0.01  -0.01
    27   1     0.09   0.02   0.08     0.23   0.03   0.16     0.02   0.01   0.02
                     46                     47                     48
                      A                      A                      A
 Frequencies --   1423.4419              1432.9686              1450.9738
 Red. masses --      1.1503                 1.2814                 1.4271
 Frc consts  --      1.3733                 1.5502                 1.7702
 IR Inten    --      6.9265                11.1470                 7.9615
  Atom  AN      X      Y      Z        X      Y      Z        X      Y      Z
     1   6    -0.00   0.00   0.00     0.02   0.03  -0.01    -0.09  -0.13   0.01
     2   1     0.01   0.01  -0.01    -0.14  -0.11  -0.04     0.48   0.42  -0.01
     3   1    -0.02  -0.02  -0.00    -0.09  -0.09  -0.01     0.26   0.36  -0.04
     4   6     0.02   0.01  -0.00     0.03   0.01  -0.01     0.07   0.06   0.00
     5   1    -0.03  -0.00  -0.01    -0.08  -0.15   0.01    -0.17  -0.17  -0.00
     6   1    -0.03  -0.04  -0.00    -0.01  -0.01   0.11    -0.18  -0.20   0.01
     7   6    -0.04  -0.01  -0.02    -0.11  -0.03  -0.03    -0.02  -0.01  -0.00
     8   1     0.20   0.06   0.01     0.56   0.06   0.04     0.16   0.04   0.02
     9   1     0.13   0.00   0.04     0.48   0.01   0.04    -0.02  -0.01  -0.01
    10   7    -0.01   0.01   0.01    -0.01   0.03   0.06    -0.01  -0.01   0.02
    11   6     0.02   0.02  -0.06    -0.02  -0.03   0.03    -0.00  -0.00   0.00
    12   1     0.05  -0.21   0.35    -0.01   0.26  -0.26     0.00   0.05  -0.03
    13   1    -0.26  -0.00   0.24     0.24   0.00  -0.17     0.04  -0.00  -0.07
    14   1    -0.19  -0.02   0.18     0.13   0.05  -0.17     0.01   0.03  -0.03
    15   6    -0.05  -0.04  -0.05     0.01  -0.02  -0.03     0.01   0.00  -0.01
    16   1     0.41   0.05   0.13    -0.04  -0.01   0.12    -0.06  -0.00   0.09
    17   1     0.14   0.35   0.36     0.05   0.03   0.09     0.00  -0.06   0.02
    18   1     0.29   0.09   0.07    -0.02   0.10   0.01    -0.01   0.06   0.01
    19   6    -0.00  -0.00  -0.00    -0.00  -0.00  -0.01    -0.01  -0.02   0.00
    20   1    -0.02   0.04   0.00    -0.02   0.05  -0.00     0.08   0.20   0.08
    21   1     0.02  -0.03  -0.00     0.03  -0.11   0.02     0.04   0.14  -0.14
    22   6    -0.00   0.00  -0.00    -0.01   0.01  -0.00    -0.01   0.00   0.00
    23   8     0.00   0.00   0.00     0.00   0.00  -0.00     0.01   0.00  -0.00
    24   8     0.00  -0.00   0.00     0.00  -0.01   0.00     0.00  -0.01   0.00
    25   7    -0.00  -0.00   0.00     0.00  -0.02   0.01    -0.00   0.04  -0.01
    26   1     0.00   0.00   0.00     0.05   0.05   0.04    -0.12  -0.10  -0.09
    27   1    -0.00  -0.00  -0.00    -0.06  -0.02  -0.05     0.13   0.06   0.15
                     49                     50                     51
                      A                      A                      A
 Frequencies --   1468.2700              1473.4016              1481.9977
 Red. masses --      1.2199                 1.1059                 1.0682
 Frc consts  --      1.5494                 1.4145                 1.3822
 IR Inten    --     39.2873                24.5509                 0.6166
  Atom  AN      X      Y      Z        X      Y      Z        X      Y      Z
     1   6    -0.01  -0.02  -0.00     0.02   0.03   0.00    -0.00  -0.00  -0.00
     2   1     0.10   0.09   0.00    -0.13  -0.12  -0.02     0.02   0.02   0.04
     3   1     0.02   0.03  -0.01    -0.07  -0.07   0.00     0.04  -0.00   0.01
     4   6     0.02   0.01  -0.01     0.00  -0.01   0.01     0.00  -0.01   0.02
     5   1    -0.01  -0.07   0.01    -0.08   0.07  -0.05    -0.11   0.11  -0.06
     6   1    -0.01  -0.01   0.08     0.06   0.03  -0.09     0.03  -0.02  -0.17
     7   6    -0.06  -0.02  -0.02    -0.03  -0.00  -0.01     0.01   0.01   0.02
     8   1     0.17   0.15   0.04     0.12   0.08   0.02    -0.08  -0.15  -0.02
     9   1     0.25   0.02   0.13     0.09   0.02   0.09     0.06  -0.02  -0.16
    10   7     0.04   0.04  -0.00     0.02  -0.01  -0.00    -0.01   0.01  -0.03
    11   6     0.00   0.01  -0.05     0.01   0.01  -0.03    -0.02   0.01  -0.03
    12   1     0.04  -0.15   0.29     0.02  -0.19   0.23     0.01   0.13  -0.06
    13   1    -0.13   0.01   0.26    -0.21  -0.01   0.08     0.33   0.07   0.35
    14   1    -0.11  -0.07   0.13    -0.10   0.05   0.04     0.06  -0.41   0.21
    15   6     0.03   0.02   0.04     0.03   0.01   0.00     0.01  -0.02  -0.03
    16   1    -0.26  -0.04  -0.20    -0.29  -0.03   0.18    -0.08   0.00   0.41
    17   1    -0.09  -0.20  -0.24    -0.08  -0.27  -0.18    -0.02  -0.06  -0.07
    18   1    -0.19  -0.13  -0.07    -0.13   0.18   0.04    -0.02   0.42   0.13
    19   6     0.01   0.02  -0.01    -0.03  -0.05   0.01     0.01   0.01   0.00
    20   1    -0.22  -0.29  -0.15     0.26   0.35   0.20    -0.05  -0.11  -0.05
    21   1    -0.14  -0.24   0.29     0.16   0.28  -0.35    -0.04  -0.04   0.07
    22   6     0.03  -0.03  -0.00     0.01  -0.02   0.00     0.00  -0.00  -0.00
    23   8    -0.02  -0.01   0.01    -0.00  -0.00   0.00    -0.00  -0.00   0.00
    24   8    -0.01   0.03  -0.00    -0.00   0.01  -0.00    -0.00   0.00  -0.00
    25   7    -0.00   0.01  -0.00     0.00  -0.01   0.00    -0.00   0.00  -0.00
    26   1    -0.02  -0.01  -0.02     0.03   0.03   0.02    -0.01  -0.00  -0.01
    27   1     0.03   0.01   0.02    -0.04  -0.01  -0.04     0.01   0.00   0.01
                     52                     53                     54
                      A                      A                      A
 Frequencies --   1493.6766              1505.9031              1522.1878
 Red. masses --      1.0790                 1.0712                 1.0903
 Frc consts  --      1.4183                 1.4312                 1.4885
 IR Inten    --      9.4460                18.5212                12.8581
  Atom  AN      X      Y      Z        X      Y      Z        X      Y      Z
     1   6    -0.00  -0.01   0.01     0.00   0.00   0.00    -0.01   0.00  -0.02
     2   1     0.01  -0.01  -0.09    -0.01  -0.01  -0.06     0.01   0.04   0.16
     3   1    -0.05   0.06  -0.03    -0.05   0.01  -0.02     0.11  -0.10   0.06
     4   6    -0.03   0.02  -0.06    -0.01   0.01  -0.02     0.01   0.00   0.01
     5   1     0.44  -0.36   0.22     0.18  -0.13   0.08    -0.09   0.03  -0.03
     6   1    -0.05   0.11   0.59    -0.04   0.01   0.23    -0.01  -0.03  -0.08
     7   6     0.00   0.03   0.02     0.01  -0.04  -0.04     0.01  -0.02  -0.01
     8   1    -0.00  -0.24  -0.04    -0.08   0.51   0.06    -0.07   0.24   0.03
     9   1    -0.03  -0.01  -0.22    -0.14   0.04   0.50    -0.11   0.02   0.23
    10   7     0.01  -0.01  -0.01    -0.01  -0.01  -0.01     0.04  -0.01  -0.01
    11   6     0.00   0.01   0.00    -0.01   0.02  -0.01     0.01   0.00   0.05
    12   1    -0.02  -0.11   0.05    -0.07  -0.05  -0.19    -0.09  -0.26  -0.10
    13   1    -0.11  -0.01  -0.00     0.18   0.05   0.25    -0.29  -0.05  -0.21
    14   1    -0.01   0.04  -0.01     0.18  -0.33   0.06     0.14   0.25  -0.27
    15   6     0.00  -0.01  -0.02     0.00  -0.00   0.01    -0.01  -0.03  -0.02
    16   1    -0.06   0.00   0.22     0.08   0.01  -0.02     0.04   0.01   0.38
    17   1    -0.02  -0.08  -0.04     0.02   0.10  -0.03    -0.03   0.03  -0.14
    18   1     0.00   0.21   0.07    -0.05  -0.02  -0.01    -0.07   0.38   0.11
    19   6     0.00  -0.00   0.00    -0.00  -0.01   0.00     0.00   0.03  -0.00
    20   1    -0.01  -0.01  -0.01     0.07   0.07   0.04    -0.09  -0.18  -0.09
    21   1    -0.02   0.02   0.01     0.02   0.09  -0.08    -0.04  -0.16   0.15
    22   6    -0.00  -0.00   0.00    -0.01   0.01   0.00     0.00  -0.01  -0.00
    23   8     0.00   0.00  -0.00     0.00   0.00  -0.00    -0.00   0.00   0.00
    24   8    -0.00   0.00  -0.00     0.00  -0.01   0.00    -0.00   0.00  -0.00
    25   7     0.00   0.00   0.00     0.00  -0.00   0.00    -0.00   0.00  -0.00
    26   1    -0.00  -0.01   0.01     0.01   0.00   0.01     0.00   0.00  -0.01
    27   1    -0.00   0.00  -0.00    -0.01  -0.00  -0.01     0.01   0.00   0.01
                     55                     56                     57
                      A                      A                      A
 Frequencies --   1529.0527              1530.8065              1551.3066
 Red. masses --      1.0611                 1.0880                 1.0535
 Frc consts  --      1.4616                 1.5021                 1.4937
 IR Inten    --     13.9044                 3.5079                32.5297
  Atom  AN      X      Y      Z        X      Y      Z        X      Y      Z
     1   6    -0.01   0.01  -0.01    -0.03   0.02  -0.07     0.00   0.00   0.00
     2   1    -0.01   0.02   0.14    -0.04   0.10   0.66    -0.00  -0.00   0.01
     3   1     0.08  -0.11   0.05     0.43  -0.43   0.24    -0.01  -0.03   0.01
     4   6    -0.01  -0.00  -0.01    -0.00   0.01  -0.02    -0.00   0.00  -0.01
     5   1     0.08  -0.01   0.02     0.07  -0.08   0.03     0.06  -0.00   0.01
     6   1    -0.01   0.00   0.07    -0.03   0.00   0.12    -0.01   0.01   0.05
     7   6     0.01  -0.01  -0.01    -0.01   0.01   0.00     0.00  -0.00  -0.01
     8   1    -0.12   0.20   0.01     0.06  -0.09  -0.01     0.02   0.11   0.01
     9   1    -0.04   0.02   0.20     0.04  -0.00  -0.08    -0.11   0.01   0.12
    10   7     0.00   0.00  -0.03    -0.01   0.00   0.01     0.01  -0.04  -0.00
    11   6    -0.00  -0.03   0.00    -0.00   0.01  -0.01    -0.00  -0.03  -0.02
    12   1     0.10   0.27   0.15    -0.01  -0.02  -0.02     0.18   0.43   0.32
    13   1     0.12  -0.01  -0.15     0.03   0.01   0.09     0.20  -0.01  -0.25
    14   1    -0.20   0.11   0.10     0.02  -0.08   0.03    -0.36   0.17   0.20
    15   6    -0.01   0.02  -0.03     0.00   0.00   0.01     0.01  -0.02   0.01
    16   1    -0.30  -0.03   0.08     0.05   0.00  -0.10     0.21   0.03   0.11
    17   1     0.01  -0.40   0.41     0.00   0.08  -0.06    -0.02   0.24  -0.33
    18   1     0.44   0.04   0.08    -0.08  -0.09  -0.04    -0.30   0.12  -0.01
    19   6     0.00   0.01   0.01    -0.00  -0.01   0.00    -0.00   0.01   0.00
    20   1    -0.00  -0.10  -0.03     0.04   0.08   0.04    -0.00  -0.01  -0.00
    21   1    -0.03   0.00   0.03     0.04   0.05  -0.08    -0.01   0.01   0.01
    22   6     0.00  -0.00   0.00    -0.00   0.00  -0.00     0.00   0.00   0.00
    23   8    -0.00  -0.00  -0.00     0.00   0.00   0.00    -0.00  -0.00   0.00
    24   8    -0.00   0.00  -0.00     0.00  -0.00   0.00     0.00  -0.00   0.00
    25   7    -0.00  -0.00  -0.00    -0.00   0.00  -0.01     0.00  -0.00   0.00
    26   1     0.01   0.01   0.00     0.02   0.03  -0.01    -0.00  -0.00   0.00
    27   1     0.01  -0.00   0.00     0.04  -0.00   0.02    -0.00   0.00  -0.00
                     58                     59                     60
                      A                      A                      A
 Frequencies --   1675.6352              1789.7781              2978.1206
 Red. masses --      1.0925                11.1354                 1.0740
 Frc consts  --      1.8074                21.0161                 5.6122
 IR Inten    --     33.4009               580.7002                59.6834
  Atom  AN      X      Y      Z        X      Y      Z        X      Y      Z
     1   6    -0.01  -0.00   0.02    -0.00   0.00  -0.00     0.02  -0.01  -0.07
     2   1    -0.02  -0.02  -0.05     0.01   0.01   0.00     0.10  -0.09  -0.01
     3   1     0.01   0.05   0.02    -0.00  -0.00   0.00    -0.28   0.28   0.90
     4   6     0.00   0.00  -0.00     0.00  -0.00   0.00    -0.00   0.00   0.00
     5   1     0.01   0.01  -0.00     0.00   0.00  -0.00     0.01  -0.02  -0.04
     6   1    -0.02  -0.01   0.00    -0.00  -0.00   0.00     0.02  -0.02   0.01
     7   6     0.00  -0.00   0.00    -0.01  -0.00   0.00    -0.00   0.00   0.00
     8   1     0.00   0.00   0.00    -0.00   0.00   0.00     0.01   0.01  -0.02
     9   1    -0.01  -0.00  -0.00     0.02   0.00  -0.00     0.00  -0.00   0.00
    10   7     0.00  -0.00   0.00     0.03  -0.01  -0.00     0.00  -0.00   0.00
    11   6    -0.00  -0.00  -0.00     0.01   0.01  -0.01    -0.00   0.00  -0.00
    12   1     0.00   0.00   0.00    -0.02  -0.13   0.16    -0.00  -0.00   0.00
    13   1     0.00  -0.00  -0.00    -0.09  -0.00   0.03     0.00   0.00   0.00
    14   1    -0.00   0.00   0.00    -0.03   0.02   0.01    -0.00   0.00   0.00
    15   6    -0.00  -0.00  -0.00     0.01   0.01   0.01     0.00  -0.00   0.00
    16   1     0.00   0.00   0.00    -0.10  -0.01   0.02     0.00  -0.00   0.00
    17   1    -0.00   0.00  -0.00    -0.08  -0.16  -0.09    -0.00   0.00   0.00
    18   1    -0.00   0.00  -0.00    -0.03   0.02  -0.00     0.00   0.00  -0.00
    19   6    -0.00   0.00  -0.00    -0.02  -0.01   0.01    -0.00  -0.00  -0.00
    20   1     0.00   0.00   0.00    -0.16   0.06  -0.03     0.00  -0.00  -0.00
    21   1     0.00  -0.00  -0.00    -0.10   0.05   0.06    -0.00  -0.00   0.00
    22   6     0.00   0.00  -0.00     0.26   0.73  -0.21    -0.00  -0.00   0.00
    23   8    -0.00  -0.00   0.00    -0.19  -0.18   0.08     0.00   0.00  -0.00
    24   8     0.00  -0.00   0.00     0.01  -0.35   0.07     0.00   0.00   0.00
    25   7    -0.07  -0.03  -0.02     0.00  -0.00   0.00    -0.00  -0.00  -0.00
    26   1     0.41   0.57  -0.05    -0.00  -0.01  -0.00     0.00  -0.01   0.00
    27   1     0.66  -0.19   0.08    -0.01   0.00   0.00    -0.00   0.00  -0.00
                     61                     62                     63
                      A                      A                      A
 Frequencies --   3065.5213              3068.7357              3074.3943
 Red. masses --      1.0601                 1.0395                 1.0365
 Frc consts  --      5.8695                 5.7676                 5.7720
 IR Inten    --      6.8601                19.0626                36.2747
  Atom  AN      X      Y      Z        X      Y      Z        X      Y      Z
     1   6     0.01  -0.01   0.00     0.00  -0.00   0.00    -0.00   0.00  -0.00
     2   1    -0.07   0.08  -0.01    -0.04   0.04  -0.01     0.01  -0.01   0.00
     3   1     0.00   0.00   0.01     0.00  -0.00   0.00     0.00   0.00  -0.00
     4   6    -0.04   0.04  -0.03    -0.02   0.02  -0.02     0.00  -0.00  -0.01
     5   1    -0.10   0.10   0.28    -0.05   0.05   0.14    -0.03   0.03   0.10
     6   1     0.56  -0.53   0.10     0.30  -0.28   0.05     0.01  -0.01   0.00
     7   6     0.00  -0.02  -0.01     0.00  -0.00   0.01    -0.00   0.02   0.02
     8   1    -0.01  -0.03   0.16     0.00   0.01  -0.06     0.02   0.05  -0.24
     9   1    -0.01   0.26  -0.04    -0.00   0.02  -0.00     0.01  -0.25   0.04
    10   7     0.00  -0.00  -0.00     0.00  -0.00  -0.00    -0.00  -0.00   0.00
    11   6    -0.00  -0.00   0.01     0.01   0.01  -0.01    -0.02  -0.02   0.03
    12   1     0.12  -0.03  -0.02    -0.19   0.05   0.04     0.51  -0.14  -0.10
    13   1    -0.01   0.12  -0.01     0.02  -0.21   0.01    -0.07   0.56  -0.03
    14   1    -0.06  -0.05  -0.06     0.08   0.06   0.08    -0.25  -0.19  -0.26
    15   6     0.01   0.01   0.01    -0.02  -0.02  -0.02    -0.01  -0.01  -0.01
    16   1     0.04  -0.23   0.02    -0.08   0.50  -0.04    -0.03   0.17  -0.01
    17   1    -0.21   0.05   0.06     0.46  -0.11  -0.12     0.15  -0.04  -0.04
    18   1     0.04   0.07  -0.19    -0.09  -0.15   0.41    -0.03  -0.06   0.16
    19   6     0.00   0.00  -0.00    -0.00  -0.00   0.00    -0.00  -0.00   0.00
    20   1    -0.00  -0.00   0.00     0.00   0.00  -0.02     0.01   0.01  -0.03
    21   1     0.00  -0.00  -0.00     0.00   0.00   0.00     0.02   0.01   0.02
    22   6    -0.00  -0.00   0.00     0.00   0.00  -0.00     0.00   0.00  -0.00
    23   8     0.00   0.00  -0.00    -0.00  -0.00   0.00    -0.00  -0.00   0.00
    24   8     0.00   0.00  -0.00    -0.00  -0.00   0.00    -0.00  -0.00   0.00
    25   7     0.00   0.00   0.00     0.00   0.00   0.00     0.00   0.00   0.00
    26   1     0.00   0.00  -0.00     0.00   0.00  -0.00    -0.00   0.00   0.00
    27   1     0.00   0.00   0.00     0.00   0.00   0.00     0.00  -0.00   0.00
                     64                     65                     66
                      A                      A                      A
 Frequencies --   3082.9011              3105.4306              3114.9061
 Red. masses --      1.0566                 1.0606                 1.0868
 Frc consts  --      5.9168                 6.0260                 6.2126
 IR Inten    --     37.2634                10.6619                 5.0705
  Atom  AN      X      Y      Z        X      Y      Z        X      Y      Z
     1   6    -0.00   0.00  -0.00     0.01  -0.02   0.00    -0.04   0.04  -0.00
     2   1     0.02  -0.02   0.00    -0.17   0.18  -0.02     0.44  -0.45   0.06
     3   1    -0.00  -0.00   0.01    -0.00   0.00   0.02     0.00  -0.00  -0.03
     4   6     0.01  -0.01   0.02    -0.00   0.00   0.01     0.03  -0.03  -0.05
     5   1     0.06  -0.05  -0.16     0.03  -0.03  -0.09    -0.20   0.20   0.62
     6   1    -0.14   0.12  -0.02    -0.01   0.01  -0.00    -0.15   0.14  -0.04
     7   6     0.01  -0.04  -0.05     0.00  -0.00  -0.00     0.00  -0.01   0.00
     8   1    -0.06  -0.13   0.66    -0.00  -0.00   0.02     0.00  -0.00   0.00
     9   1    -0.03   0.54  -0.09    -0.00   0.04  -0.00    -0.01   0.15  -0.02
    10   7     0.00  -0.00  -0.00     0.00  -0.00  -0.00     0.00  -0.00  -0.00
    11   6    -0.01  -0.01   0.01    -0.00  -0.00   0.00     0.00   0.00   0.00
    12   1     0.17  -0.04  -0.04     0.04  -0.01  -0.01    -0.03   0.01   0.01
    13   1    -0.02   0.18  -0.01    -0.01   0.04  -0.00     0.01  -0.06   0.00
    14   1    -0.08  -0.06  -0.08    -0.01  -0.01  -0.01    -0.02  -0.01  -0.02
    15   6    -0.01  -0.01  -0.01    -0.00  -0.00  -0.00    -0.00  -0.00  -0.00
    16   1    -0.02   0.17  -0.01    -0.00   0.03  -0.00    -0.00   0.01  -0.00
    17   1     0.16  -0.04  -0.04     0.03  -0.01  -0.01     0.01  -0.00  -0.00
    18   1    -0.03  -0.05   0.14    -0.00  -0.01   0.02    -0.00  -0.00   0.00
    19   6    -0.00  -0.00   0.00     0.05   0.04  -0.03     0.01   0.01  -0.01
    20   1     0.02   0.02  -0.07    -0.21  -0.19   0.71    -0.05  -0.04   0.17
    21   1     0.03   0.02   0.03    -0.34  -0.25  -0.40    -0.09  -0.06  -0.10
    22   6     0.00   0.00  -0.00    -0.00   0.00  -0.00    -0.00   0.00  -0.00
    23   8    -0.00   0.00   0.00    -0.00  -0.00   0.00    -0.00  -0.00   0.00
    24   8     0.00  -0.00   0.00    -0.00  -0.00   0.00    -0.00  -0.00   0.00
    25   7    -0.00  -0.00   0.00    -0.00   0.00  -0.00     0.00  -0.00   0.00
    26   1    -0.00   0.00   0.00     0.00  -0.00  -0.00    -0.01   0.01   0.00
    27   1    -0.00   0.00  -0.00     0.00  -0.00   0.00    -0.00   0.00  -0.00
                     67                     68                     69
                      A                      A                      A
 Frequencies --   3128.1872              3131.0841              3169.1570
 Red. masses --      1.0951                 1.1058                 1.1078
 Frc consts  --      6.3137                 6.3875                 6.5554
 IR Inten    --     19.5491                12.2464                 4.1248
  Atom  AN      X      Y      Z        X      Y      Z        X      Y      Z
     1   6     0.04  -0.05  -0.00     0.00  -0.00   0.00     0.00  -0.00   0.00
     2   1    -0.48   0.51  -0.07    -0.05   0.06  -0.01    -0.00   0.00  -0.00
     3   1    -0.03   0.02   0.11     0.00   0.00  -0.00     0.00   0.00  -0.00
     4   6     0.03  -0.03  -0.04     0.00  -0.00   0.01    -0.00   0.00   0.00
     5   1    -0.17   0.17   0.53     0.03  -0.03  -0.10     0.00  -0.00  -0.01
     6   1    -0.24   0.23  -0.06    -0.06   0.06  -0.01     0.00  -0.00   0.00
     7   6     0.00  -0.00  -0.01    -0.00  -0.07   0.06    -0.00  -0.00   0.00
     8   1    -0.00  -0.01   0.07     0.05   0.11  -0.64     0.00   0.00  -0.02
     9   1    -0.00   0.02  -0.00    -0.03   0.72  -0.10    -0.00   0.02  -0.00
    10   7    -0.00  -0.00  -0.00    -0.00  -0.00   0.00    -0.00  -0.00   0.00
    11   6     0.00   0.00   0.00    -0.00   0.00   0.00    -0.04   0.05   0.01
    12   1    -0.03   0.01   0.01     0.03  -0.01  -0.01     0.45  -0.11  -0.09
    13   1     0.01  -0.05   0.00    -0.00   0.02  -0.00     0.06  -0.48   0.02
    14   1    -0.02  -0.01  -0.02    -0.01  -0.01  -0.01    -0.03  -0.01  -0.03
    15   6    -0.00  -0.00   0.00     0.00   0.01  -0.01     0.03  -0.06   0.02
    16   1    -0.00   0.00  -0.00     0.01  -0.04   0.00    -0.10   0.55  -0.04
    17   1     0.00  -0.00  -0.00    -0.00   0.00  -0.00    -0.29   0.06   0.08
    18   1     0.00  -0.00  -0.00    -0.01  -0.02   0.06     0.06   0.08  -0.27
    19   6    -0.01  -0.00   0.01    -0.00  -0.00  -0.00    -0.01  -0.00  -0.02
    20   1     0.04   0.03  -0.12     0.00   0.01  -0.02    -0.03  -0.03   0.10
    21   1     0.03   0.02   0.04     0.03   0.02   0.03     0.10   0.07   0.11
    22   6    -0.00   0.00   0.00    -0.00   0.00   0.00     0.00   0.00  -0.00
    23   8     0.00   0.00  -0.00     0.00   0.00  -0.00    -0.00   0.00  -0.00
    24   8     0.00   0.00  -0.00     0.00  -0.00   0.00    -0.00  -0.00   0.00
    25   7    -0.00   0.00  -0.00    -0.00   0.00  -0.00    -0.00   0.00  -0.00
    26   1     0.01  -0.01  -0.00     0.00  -0.00  -0.00     0.00  -0.00  -0.00
    27   1     0.00  -0.00   0.00    -0.00  -0.00   0.00     0.00  -0.00   0.00
                     70                     71                     72
                      A                      A                      A
 Frequencies --   3171.8001              3176.4770              3177.9799
 Red. masses --      1.1072                 1.1084                 1.1078
 Frc consts  --      6.5631                 6.5894                 6.5920
 IR Inten    --      6.6049                14.1451                 9.7464
  Atom  AN      X      Y      Z        X      Y      Z        X      Y      Z
     1   6    -0.00   0.00  -0.00     0.00  -0.00   0.00     0.00  -0.00  -0.00
     2   1     0.00  -0.00   0.00    -0.01   0.01  -0.00    -0.01   0.01  -0.00
     3   1     0.00  -0.00  -0.00    -0.00   0.00   0.00    -0.00   0.00   0.00
     4   6    -0.00   0.00   0.00    -0.00   0.00   0.00     0.00  -0.00  -0.00
     5   1     0.00  -0.00  -0.00     0.00  -0.00  -0.01    -0.01   0.01   0.02
     6   1     0.01  -0.00   0.00     0.00  -0.00   0.00    -0.01   0.01  -0.00
     7   6     0.00   0.00  -0.00     0.00   0.00  -0.00    -0.00   0.00  -0.00
     8   1    -0.00  -0.01   0.04     0.00   0.00   0.00    -0.00  -0.01   0.04
     9   1     0.00  -0.05   0.01     0.00  -0.01   0.00     0.00  -0.01   0.00
    10   7    -0.00   0.00  -0.00    -0.00   0.00   0.00     0.00  -0.00  -0.00
    11   6    -0.04   0.04   0.00    -0.01   0.03   0.01     0.02  -0.02  -0.00
    12   1     0.42  -0.10  -0.08     0.16  -0.04  -0.03    -0.20   0.05   0.04
    13   1     0.05  -0.42   0.02     0.03  -0.25   0.01    -0.02   0.17  -0.00
    14   1     0.02   0.02   0.02    -0.10  -0.07  -0.09    -0.01  -0.01  -0.01
    15   6     0.01   0.05  -0.05    -0.06   0.03   0.04     0.03   0.00  -0.03
    16   1     0.08  -0.43   0.03     0.06  -0.33   0.03    -0.00   0.02  -0.00
    17   1    -0.11   0.04   0.02     0.62  -0.14  -0.16    -0.30   0.07   0.08
    18   1    -0.13  -0.20   0.59     0.06   0.11  -0.30    -0.06  -0.10   0.30
    19   6     0.00   0.00   0.01    -0.01  -0.01  -0.04    -0.02  -0.01  -0.08
    20   1     0.01   0.01  -0.04    -0.08  -0.07   0.25    -0.15  -0.13   0.47
    21   1    -0.04  -0.03  -0.05     0.23   0.16   0.25     0.41   0.29   0.44
    22   6     0.00   0.00  -0.00     0.00   0.00  -0.00    -0.00  -0.00  -0.00
    23   8    -0.00  -0.00   0.00    -0.00  -0.00   0.00     0.00   0.00  -0.00
    24   8    -0.00  -0.00   0.00    -0.00  -0.00   0.00     0.00   0.00   0.00
    25   7     0.00  -0.00   0.00    -0.00   0.00   0.00    -0.00  -0.00   0.00
    26   1     0.00   0.00   0.00     0.00  -0.00  -0.00     0.00  -0.00  -0.00
    27   1    -0.00   0.00  -0.00     0.00  -0.00   0.00    -0.00  -0.00   0.00
                     73                     74                     75
                      A                      A                      A
 Frequencies --   3190.2692              3561.8900              3645.0204
 Red. masses --      1.1046                 1.0503                 1.0930
 Frc consts  --      6.6237                 7.8511                 8.5563
 IR Inten    --     15.3629                 1.4839                 6.5798
  Atom  AN      X      Y      Z        X      Y      Z        X      Y      Z
     1   6     0.00  -0.00  -0.00    -0.00   0.00   0.00     0.00  -0.00   0.00
     2   1    -0.00   0.01  -0.00     0.01  -0.01  -0.00    -0.01   0.01  -0.00
     3   1    -0.00   0.00   0.00     0.01  -0.00  -0.01    -0.00   0.00   0.00
     4   6     0.00  -0.00  -0.01     0.00  -0.00  -0.00     0.00   0.00  -0.00
     5   1    -0.02   0.02   0.07     0.00   0.00  -0.00     0.00  -0.00   0.00
     6   1    -0.01   0.01  -0.00    -0.00   0.00   0.00     0.00   0.00  -0.00
     7   6     0.00  -0.00  -0.00    -0.00  -0.00   0.00     0.00   0.00   0.00
     8   1     0.00   0.00  -0.00    -0.00  -0.00  -0.00     0.00   0.00  -0.00
     9   1    -0.00   0.01  -0.00    -0.00  -0.00  -0.00    -0.00  -0.00  -0.00
    10   7    -0.00  -0.00  -0.00     0.00  -0.00  -0.00    -0.00  -0.00  -0.00
    11   6    -0.07  -0.05  -0.04     0.00  -0.00  -0.00    -0.00   0.00   0.00
    12   1     0.32  -0.10  -0.07    -0.00   0.00   0.00     0.00  -0.00  -0.00
    13   1    -0.04   0.27  -0.02    -0.00   0.00   0.00     0.00   0.00  -0.00
    14   1     0.55   0.41   0.55    -0.00   0.00   0.00    -0.00  -0.00  -0.00
    15   6    -0.01   0.00   0.01    -0.00  -0.00   0.00    -0.00   0.00   0.00
    16   1     0.00  -0.01   0.00    -0.00   0.00   0.00     0.00   0.00   0.00
    17   1     0.09  -0.02  -0.02    -0.00   0.00  -0.00     0.00  -0.00  -0.00
    18   1     0.01   0.02  -0.07    -0.00   0.00  -0.00     0.00   0.00  -0.00
    19   6    -0.00  -0.00  -0.01     0.00   0.00  -0.00     0.00  -0.00   0.00
    20   1    -0.02  -0.01   0.06    -0.00  -0.00   0.00     0.00   0.00  -0.00
    21   1     0.06   0.04   0.06     0.00   0.00   0.00    -0.00   0.00   0.00
    22   6     0.00   0.00  -0.00    -0.00   0.00  -0.00    -0.00   0.00   0.00
    23   8    -0.00   0.00   0.00     0.00  -0.00   0.00     0.00   0.00  -0.00
    24   8    -0.00  -0.00   0.00     0.00  -0.00   0.00     0.00  -0.00   0.00
    25   7    -0.00   0.00   0.00    -0.06  -0.00   0.01     0.02  -0.08   0.02
    26   1    -0.00  -0.00  -0.00     0.63  -0.49  -0.01    -0.48   0.35   0.03
    27   1    -0.00   0.00   0.00     0.14   0.55  -0.18     0.22   0.72  -0.27

 -------------------
 - Thermochemistry -
 -------------------
 Temperature   298.150 Kelvin.  Pressure   1.00000 Atm.
 Atom     1 has atomic number  6 and mass  12.00000
 Atom     2 has atomic number  1 and mass   1.00783
 Atom     3 has atomic number  1 and mass   1.00783
 Atom     4 has atomic number  6 and mass  12.00000
 Atom     5 has atomic number  1 and mass   1.00783
 Atom     6 has atomic number  1 and mass   1.00783
 Atom     7 has atomic number  6 and mass  12.00000
 Atom     8 has atomic number  1 and mass   1.00783
 Atom     9 has atomic number  1 and mass   1.00783
 Atom    10 has atomic number  7 and mass  14.00307
 Atom    11 has atomic number  6 and mass  12.00000
 Atom    12 has atomic number  1 and mass   1.00783
 Atom    13 has atomic number  1 and mass   1.00783
 Atom    14 has atomic number  1 and mass   1.00783
 Atom    15 has atomic number  6 and mass  12.00000
 Atom    16 has atomic number  1 and mass   1.00783
 Atom    17 has atomic number  1 and mass   1.00783
 Atom    18 has atomic number  1 and mass   1.00783
 Atom    19 has atomic number  6 and mass  12.00000
 Atom    20 has atomic number  1 and mass   1.00783
 Atom    21 has atomic number  1 and mass   1.00783
 Atom    22 has atomic number  6 and mass  12.00000
 Atom    23 has atomic number  8 and mass  15.99491
 Atom    24 has atomic number  8 and mass  15.99491
 Atom    25 has atomic number  7 and mass  14.00307
 Atom    26 has atomic number  1 and mass   1.00783
 Atom    27 has atomic number  1 and mass   1.00783
 Molecular mass:   160.12118 amu.
 Principal axes and moments of inertia in atomic units:
                           1         2         3
     Eigenvalues --  1155.522722862.678223539.62448
           X            0.99938   0.03533  -0.00047
           Y           -0.03533   0.99937  -0.00282
           Z            0.00037   0.00284   1.00000
 This molecule is an asymmetric top.
 Rotational symmetry number  1.
 Warning -- assumption of classical behavior for rotation
           may cause significant error
 Rotational temperatures (Kelvin)      0.07496     0.03026     0.02447
 Rotational constants (GHZ):           1.56184     0.63044     0.50987
 Zero-point vibrational energy     636475.3 (Joules/Mol)
                                  152.12124 (Kcal/Mol)
 Warning -- explicit consideration of  19 degrees of freedom as
           vibrations may cause significant error
 Vibrational temperatures:     82.34   101.40   127.75   133.48   222.15
          (Kelvin)            278.45   328.25   364.31   373.27   422.58
                              443.15   482.71   498.71   523.47   616.92
                              676.83   742.42   818.79   882.48  1014.97
                             1099.68  1154.18  1199.16  1249.74  1276.32
                             1331.20  1389.54  1430.56  1482.03  1495.44
                             1564.22  1579.29  1614.10  1643.50  1688.84
                             1714.98  1798.80  1816.33  1854.90  1916.23
                             1926.06  1953.94  1963.51  1983.21  2002.20
                             2048.02  2061.72  2087.63  2112.51  2119.90
                             2132.26  2149.07  2166.66  2190.09  2199.97
                             2202.49  2231.98  2410.87  2575.09  4284.85
                             4410.60  4415.23  4423.37  4435.61  4468.02
                             4481.66  4500.76  4504.93  4559.71  4563.51
                             4570.24  4572.40  4590.09  5124.77  5244.37
 
 Zero-point correction=                           0.242421 (Hartree/Particle)
 Thermal correction to Energy=                    0.254996
 Thermal correction to Enthalpy=                  0.255941
 Thermal correction to Gibbs Free Energy=         0.203703
 Sum of electronic and zero-point Energies=           -536.062008
 Sum of electronic and thermal Energies=              -536.049433
 Sum of electronic and thermal Enthalpies=            -536.048488
 Sum of electronic and thermal Free Energies=         -536.100726
 
                     E (Thermal)             CV                S
                      KCal/Mol        Cal/Mol-Kelvin    Cal/Mol-Kelvin
 Total                  160.013             46.513            109.943
 Electronic               0.000              0.000              0.000
 Translational            0.889              2.981             41.121
 Rotational               0.889              2.981             30.838
 Vibrational            158.235             40.552             37.984
 Vibration     1          0.596              1.975              4.550
 Vibration     2          0.598              1.968              4.140
 Vibration     3          0.602              1.957              3.687
 Vibration     4          0.602              1.954              3.601
 Vibration     5          0.620              1.898              2.617
 Vibration     6          0.635              1.849              2.194
 Vibration     7          0.651              1.798              1.893
 Vibration     8          0.664              1.757              1.708
 Vibration     9          0.668              1.747              1.666
 Vibration    10          0.689              1.685              1.452
 Vibration    11          0.698              1.658              1.373
 Vibration    12          0.717              1.605              1.233
 Vibration    13          0.725              1.582              1.182
 Vibration    14          0.737              1.547              1.106
 Vibration    15          0.790              1.408              0.863
 Vibration    16          0.827              1.316              0.736
 Vibration    17          0.871              1.215              0.619
 Vibration    18          0.925              1.098              0.506
 Vibration    19          0.973              1.004              0.427
                       Q            Log10(Q)             Ln(Q)
 Total Bot       0.201019D-93        -93.696763       -215.744770
 Total V=0       0.644001D+18         17.808886         41.006476
 Vib (Bot)       0.206068-107       -107.685990       -247.956155
 Vib (Bot)    1  0.360932D+01          0.557425          1.283519
 Vib (Bot)    2  0.292610D+01          0.466290          1.073672
 Vib (Bot)    3  0.231617D+01          0.364770          0.839914
 Vib (Bot)    4  0.221511D+01          0.345395          0.795302
 Vib (Bot)    5  0.131156D+01          0.117788          0.271218
 Vib (Bot)    6  0.103281D+01          0.014019          0.032281
 Vib (Bot)    7  0.863989D+00         -0.063492         -0.146195
 Vib (Bot)    8  0.769613D+00         -0.113727         -0.261867
 Vib (Bot)    9  0.748881D+00         -0.125587         -0.289175
 Vib (Bot)   10  0.649769D+00         -0.187241         -0.431139
 Vib (Bot)   11  0.614639D+00         -0.211380         -0.486721
 Vib (Bot)   12  0.555026D+00         -0.255687         -0.588740
 Vib (Bot)   13  0.533447D+00         -0.272909         -0.628396
 Vib (Bot)   14  0.502490D+00         -0.298873         -0.688180
 Vib (Bot)   15  0.406744D+00         -0.390678         -0.899570
 Vib (Bot)   16  0.358431D+00         -0.445594         -1.026019
 Vib (Bot)   17  0.313957D+00         -0.503129         -1.158498
 Vib (Bot)   18  0.270687D+00         -0.567533         -1.306792
 Vib (Bot)   19  0.240099D+00         -0.619610         -1.426704
 Vib (V=0)       0.660176D+04          3.819660          8.795091
 Vib (V=0)    1  0.414379D+01          0.617397          1.421610
 Vib (V=0)    2  0.346852D+01          0.540144          1.243727
 Vib (V=0)    3  0.286952D+01          0.457810          1.054146
 Vib (V=0)    4  0.277084D+01          0.442611          1.019150
 Vib (V=0)    5  0.190363D+01          0.279584          0.643765
 Vib (V=0)    6  0.164747D+01          0.216818          0.499242
 Vib (V=0)    7  0.149824D+01          0.175580          0.404289
 Vib (V=0)    8  0.141777D+01          0.151606          0.349086
 Vib (V=0)    9  0.140046D+01          0.146270          0.336799
 Vib (V=0)   10  0.131988D+01          0.120534          0.277539
 Vib (V=0)   11  0.129233D+01          0.111372          0.256444
 Vib (V=0)   12  0.124703D+01          0.095877          0.220765
 Vib (V=0)   13  0.123114D+01          0.090307          0.207940
 Vib (V=0)   14  0.120887D+01          0.082379          0.189686
 Vib (V=0)   15  0.114455D+01          0.058634          0.135009
 Vib (V=0)   16  0.111520D+01          0.047353          0.109035
 Vib (V=0)   17  0.109040D+01          0.037585          0.086542
 Vib (V=0)   18  0.106857D+01          0.028803          0.066321
 Vib (V=0)   19  0.105466D+01          0.023112          0.053218
 Electronic      0.100000D+01          0.000000          0.000000
 Translational   0.796392D+08          7.901127         18.193017
 Rotational      0.122490D+07          6.088100         14.018368
 ***** Axes restored to original set *****
 -------------------------------------------------------------------
 Center     Atomic                   Forces (Hartrees/Bohr)
 Number     Number              X              Y              Z
 -------------------------------------------------------------------
      1        6           0.000021366    0.000003399    0.000016471
      2        1          -0.000002550   -0.000000645    0.000000813
      3        1          -0.000002415   -0.000000702   -0.000003947
      4        6          -0.000017804   -0.000025338    0.000001204
      5        1          -0.000002131    0.000002185    0.000001713
      6        1           0.000002065    0.000008595    0.000000622
      7        6           0.000012999    0.000015957    0.000001498
      8        1          -0.000000193   -0.000001244   -0.000000054
      9        1           0.000000950   -0.000001163   -0.000001896
     10        7          -0.000005272   -0.000011314    0.000003621
     11        6          -0.000002052   -0.000005008   -0.000005409
     12        1           0.000002525    0.000000629    0.000000763
     13        1           0.000002802   -0.000000070   -0.000000164
     14        1           0.000000819    0.000001717    0.000001354
     15        6           0.000002887    0.000003443   -0.000000712
     16        1           0.000000825   -0.000001072    0.000000354
     17        1           0.000001549   -0.000002915    0.000000110
     18        1           0.000001677   -0.000001270   -0.000000386
     19        6          -0.000005484    0.000006012   -0.000007740
     20        1           0.000004365   -0.000002757   -0.000000436
     21        1          -0.000001891    0.000000585   -0.000001213
     22        6           0.000003372    0.000010505    0.000018231
     23        8          -0.000005370    0.000002874   -0.000007800
     24        8          -0.000004089   -0.000007120   -0.000006157
     25        7           0.000026051    0.000011050   -0.000032941
     26        1          -0.000020972    0.000004648    0.000009907
     27        1          -0.000014028   -0.000010979    0.000012196
 -------------------------------------------------------------------
 Cartesian Forces:  Max     0.000032941 RMS     0.000008796
 FormGI is forming the generalized inverse of G from B-inverse, IUseBI=4.

 GradGradGradGradGradGradGradGradGradGradGradGradGradGradGradGradGradGrad
 Berny optimization.
 Internal  Forces:  Max     0.000018855 RMS     0.000004570
 Search for a local minimum.
 Step number   1 out of a maximum of    2
 All quantities printed in internal units (Hartrees-Bohrs-Radians)
 Second derivative matrix not updated -- analytic derivatives used.
 ITU=  0
     Eigenvalues ---    0.00130   0.00188   0.00223   0.00280   0.00286
     Eigenvalues ---    0.00439   0.00800   0.01577   0.02755   0.03462
     Eigenvalues ---    0.03859   0.03926   0.04006   0.04123   0.04443
     Eigenvalues ---    0.04636   0.04761   0.04791   0.05087   0.05113
     Eigenvalues ---    0.05168   0.05476   0.05737   0.06083   0.07335
     Eigenvalues ---    0.07785   0.08116   0.08588   0.08784   0.11007
     Eigenvalues ---    0.12328   0.12759   0.12891   0.13487   0.13605
     Eigenvalues ---    0.14818   0.15037   0.16173   0.16767   0.16978
     Eigenvalues ---    0.17423   0.18229   0.19324   0.20105   0.20381
     Eigenvalues ---    0.21997   0.24317   0.26110   0.26956   0.27835
     Eigenvalues ---    0.28060   0.29448   0.31262   0.31364   0.33110
     Eigenvalues ---    0.33549   0.33945   0.34187   0.34487   0.34621
     Eigenvalues ---    0.34667   0.34807   0.34867   0.34963   0.35102
     Eigenvalues ---    0.35216   0.35460   0.35694   0.38176   0.41039
     Eigenvalues ---    0.46165   0.46767   0.53694   0.63056   0.81658
 Angle between quadratic step and forces=  76.08 degrees.
 Linear search not attempted -- first point.
 Iteration  1 RMS(Cart)=  0.00027845 RMS(Int)=  0.00000006
 Iteration  2 RMS(Cart)=  0.00000007 RMS(Int)=  0.00000000
 Variable       Old X    -DE/DX   Delta X   Delta X   Delta X     New X
                                 (Linear)    (Quad)   (Total)
    R1        2.05800   0.00000   0.00000   0.00002   0.00002   2.05802
    R2        2.07699   0.00000   0.00000   0.00002   0.00002   2.07702
    R3        2.88735   0.00001   0.00000   0.00004   0.00004   2.88739
    R4        2.74968  -0.00001   0.00000  -0.00010  -0.00010   2.74958
    R5        2.05864   0.00000   0.00000   0.00000   0.00000   2.05864
    R6        2.06378  -0.00000   0.00000  -0.00002  -0.00002   2.06376
    R7        2.88655  -0.00001   0.00000  -0.00004  -0.00004   2.88651
    R8        2.06004  -0.00000   0.00000  -0.00000  -0.00000   2.06004
    R9        2.05840   0.00000   0.00000   0.00000   0.00000   2.05840
   R10        2.84639   0.00000   0.00000   0.00001   0.00001   2.84640
   R11        2.82185  -0.00000   0.00000  -0.00002  -0.00002   2.82183
   R12        2.82489  -0.00000   0.00000  -0.00002  -0.00002   2.82487
   R13        2.86262   0.00001   0.00000   0.00005   0.00005   2.86267
   R14        2.05429  -0.00000   0.00000  -0.00001  -0.00001   2.05428
   R15        2.05587   0.00000   0.00000   0.00000   0.00000   2.05587
   R16        2.05095   0.00000   0.00000   0.00001   0.00001   2.05095
   R17        2.05575   0.00000   0.00000   0.00000   0.00000   2.05575
   R18        2.05292  -0.00000   0.00000  -0.00000  -0.00000   2.05292
   R19        2.05461  -0.00000   0.00000  -0.00000  -0.00000   2.05461
   R20        2.05624   0.00000   0.00000   0.00000   0.00000   2.05624
   R21        2.05324  -0.00000   0.00000  -0.00000  -0.00000   2.05324
   R22        2.97622   0.00001   0.00000   0.00002   0.00002   2.97624
   R23        2.35228  -0.00000   0.00000  -0.00000  -0.00000   2.35228
   R24        2.32086  -0.00001   0.00000  -0.00001  -0.00001   2.32085
   R25        1.91065  -0.00002   0.00000  -0.00006  -0.00006   1.91059
   R26        1.90792  -0.00002   0.00000  -0.00006  -0.00006   1.90786
    A1        1.86170   0.00000   0.00000  -0.00003  -0.00003   1.86167
    A2        1.92292  -0.00000   0.00000  -0.00010  -0.00010   1.92282
    A3        1.88239  -0.00000   0.00000   0.00002   0.00002   1.88240
    A4        1.89841  -0.00001   0.00000  -0.00005  -0.00005   1.89837
    A5        1.98464  -0.00000   0.00000   0.00004   0.00004   1.98468
    A6        1.91294   0.00001   0.00000   0.00011   0.00011   1.91305
    A7        1.90097   0.00000   0.00000  -0.00002  -0.00002   1.90095
    A8        1.88693  -0.00000   0.00000   0.00000   0.00000   1.88694
    A9        2.00254  -0.00001   0.00000  -0.00016  -0.00016   2.00238
   A10        1.84021  -0.00000   0.00000   0.00003   0.00003   1.84025
   A11        1.95503   0.00000   0.00000   0.00001   0.00001   1.95504
   A12        1.86964   0.00001   0.00000   0.00015   0.00015   1.86978
   A13        1.92255   0.00000   0.00000   0.00003   0.00003   1.92258
   A14        1.93116  -0.00000   0.00000   0.00005   0.00005   1.93121
   A15        2.03980   0.00000   0.00000  -0.00004  -0.00004   2.03976
   A16        1.87595  -0.00000   0.00000  -0.00003  -0.00003   1.87592
   A17        1.84929  -0.00000   0.00000  -0.00002  -0.00002   1.84927
   A18        1.83625  -0.00000   0.00000   0.00001   0.00001   1.83625
   A19        1.93026  -0.00000   0.00000   0.00000   0.00000   1.93026
   A20        1.87698  -0.00000   0.00000   0.00000   0.00000   1.87698
   A21        1.93858  -0.00000   0.00000  -0.00004  -0.00004   1.93854
   A22        1.89416   0.00000   0.00000   0.00001   0.00001   1.89417
   A23        1.91714   0.00000   0.00000   0.00004   0.00004   1.91718
   A24        1.90563  -0.00000   0.00000  -0.00001  -0.00001   1.90562
   A25        1.86282   0.00000   0.00000   0.00002   0.00002   1.86283
   A26        1.89509  -0.00000   0.00000   0.00000   0.00000   1.89509
   A27        1.90529  -0.00000   0.00000   0.00000   0.00000   1.90530
   A28        1.95423   0.00000   0.00000   0.00004   0.00004   1.95427
   A29        1.92269  -0.00000   0.00000  -0.00005  -0.00005   1.92264
   A30        1.92209   0.00000   0.00000  -0.00001  -0.00001   1.92209
   A31        1.89624  -0.00000   0.00000  -0.00000  -0.00000   1.89624
   A32        1.87268   0.00000   0.00000  -0.00000  -0.00000   1.87268
   A33        1.89080   0.00000   0.00000   0.00001   0.00001   1.89081
   A34        1.95484  -0.00000   0.00000  -0.00002  -0.00002   1.95482
   A35        1.92171   0.00000   0.00000  -0.00000  -0.00000   1.92171
   A36        1.92562   0.00000   0.00000   0.00002   0.00002   1.92564
   A37        1.86117  -0.00001   0.00000  -0.00004  -0.00004   1.86113
   A38        1.86713  -0.00000   0.00000  -0.00000  -0.00000   1.86713
   A39        2.05043   0.00002   0.00000   0.00003   0.00003   2.05046
   A40        1.90484   0.00000   0.00000  -0.00003  -0.00003   1.90481
   A41        1.89660  -0.00000   0.00000   0.00004   0.00004   1.89664
   A42        1.88025  -0.00001   0.00000  -0.00000  -0.00000   1.88025
   A43        2.05173   0.00001   0.00000   0.00000   0.00000   2.05173
   A44        1.92283  -0.00000   0.00000  -0.00000  -0.00000   1.92283
   A45        2.30856  -0.00001   0.00000   0.00000   0.00000   2.30856
   A46        1.94315  -0.00000   0.00000   0.00009   0.00009   1.94324
   A47        1.94051   0.00000   0.00000   0.00011   0.00011   1.94062
   A48        1.87322   0.00001   0.00000   0.00022   0.00022   1.87344
    D1       -1.08445  -0.00000   0.00000  -0.00007  -0.00007  -1.08452
    D2       -3.07567  -0.00000   0.00000  -0.00010  -0.00010  -3.07576
    D3        1.12260  -0.00000   0.00000  -0.00019  -0.00019   1.12242
    D4       -3.11934   0.00000   0.00000   0.00005   0.00005  -3.11929
    D5        1.17263   0.00000   0.00000   0.00002   0.00002   1.17265
    D6       -0.91229   0.00000   0.00000  -0.00007  -0.00007  -0.91236
    D7        0.98423  -0.00000   0.00000  -0.00004  -0.00004   0.98419
    D8       -1.00698   0.00000   0.00000  -0.00007  -0.00007  -1.00705
    D9       -3.09190  -0.00000   0.00000  -0.00016  -0.00016  -3.09206
   D10       -2.91281  -0.00001   0.00000  -0.00041  -0.00041  -2.91322
   D11       -0.82501   0.00000   0.00000   0.00000   0.00000  -0.82501
   D12       -0.85207  -0.00001   0.00000  -0.00041  -0.00041  -0.85248
   D13        1.23573   0.00000   0.00000   0.00000   0.00000   1.23573
   D14        1.27675  -0.00000   0.00000  -0.00037  -0.00037   1.27638
   D15       -2.91864   0.00000   0.00000   0.00005   0.00005  -2.91860
   D16        0.42066  -0.00000   0.00000  -0.00055  -0.00055   0.42012
   D17        2.49246  -0.00000   0.00000  -0.00054  -0.00054   2.49192
   D18       -1.69028  -0.00000   0.00000  -0.00052  -0.00052  -1.69080
   D19        2.59958  -0.00000   0.00000  -0.00069  -0.00069   2.59888
   D20       -1.61181  -0.00000   0.00000  -0.00068  -0.00068  -1.61250
   D21        0.48864  -0.00000   0.00000  -0.00067  -0.00067   0.48797
   D22       -1.67387   0.00000   0.00000  -0.00056  -0.00056  -1.67443
   D23        0.39792   0.00000   0.00000  -0.00055  -0.00055   0.39737
   D24        2.49837   0.00000   0.00000  -0.00053  -0.00053   2.49784
   D25       -1.17181   0.00000   0.00000   0.00024   0.00024  -1.17157
   D26        3.04583   0.00000   0.00000   0.00023   0.00023   3.04606
   D27        0.96163   0.00000   0.00000   0.00026   0.00026   0.96189
   D28        2.96227  -0.00000   0.00000   0.00024   0.00024   2.96250
   D29        0.89672  -0.00000   0.00000   0.00023   0.00023   0.89695
   D30       -1.18748   0.00000   0.00000   0.00026   0.00026  -1.18722
   D31        0.97826   0.00000   0.00000   0.00028   0.00028   0.97853
   D32       -1.08729   0.00000   0.00000   0.00027   0.00027  -1.08702
   D33        3.11170   0.00000   0.00000   0.00030   0.00030   3.11200
   D34       -3.12060  -0.00000   0.00000   0.00013   0.00013  -3.12047
   D35       -1.01091   0.00000   0.00000   0.00018   0.00018  -1.01073
   D36        1.08484   0.00000   0.00000   0.00017   0.00017   1.08502
   D37       -1.06556  -0.00000   0.00000   0.00014   0.00014  -1.06542
   D38        1.04413   0.00000   0.00000   0.00019   0.00019   1.04432
   D39        3.13988  -0.00000   0.00000   0.00018   0.00018   3.14006
   D40        1.01664  -0.00000   0.00000   0.00015   0.00015   1.01679
   D41        3.12632   0.00000   0.00000   0.00021   0.00021   3.12653
   D42       -1.06111   0.00000   0.00000   0.00020   0.00020  -1.06091
   D43        1.00412  -0.00000   0.00000   0.00014   0.00014   1.00425
   D44        3.12087  -0.00000   0.00000   0.00011   0.00011   3.12098
   D45       -1.08340  -0.00000   0.00000   0.00014   0.00014  -1.08326
   D46       -1.08456   0.00000   0.00000   0.00013   0.00013  -1.08443
   D47        1.03220   0.00000   0.00000   0.00010   0.00010   1.03230
   D48        3.11111   0.00000   0.00000   0.00013   0.00013   3.11124
   D49        3.10922  -0.00000   0.00000   0.00009   0.00009   3.10931
   D50       -1.05720  -0.00000   0.00000   0.00006   0.00006  -1.05715
   D51        1.02171  -0.00000   0.00000   0.00009   0.00009   1.02179
   D52        0.92635  -0.00000   0.00000   0.00007   0.00007   0.92642
   D53       -1.11011   0.00000   0.00000   0.00012   0.00012  -1.10999
   D54        3.05808   0.00000   0.00000   0.00011   0.00011   3.05818
   D55        3.06739  -0.00000   0.00000   0.00007   0.00007   3.06746
   D56        1.03092  -0.00000   0.00000   0.00012   0.00012   1.03105
   D57       -1.08407  -0.00000   0.00000   0.00011   0.00011  -1.08396
   D58       -1.14064  -0.00000   0.00000   0.00010   0.00010  -1.14054
   D59        3.10608   0.00000   0.00000   0.00015   0.00015   3.10623
   D60        0.99109   0.00000   0.00000   0.00013   0.00013   0.99122
   D61        0.09589  -0.00000   0.00000  -0.00025  -0.00025   0.09564
   D62       -3.05668   0.00001   0.00000  -0.00012  -0.00012  -3.05681
   D63        2.20930  -0.00000   0.00000  -0.00026  -0.00026   2.20904
   D64       -0.94327   0.00001   0.00000  -0.00013  -0.00013  -0.94340
   D65       -2.01228  -0.00001   0.00000  -0.00027  -0.00027  -2.01255
   D66        1.11833   0.00000   0.00000  -0.00014  -0.00014   1.11819
         Item               Value     Threshold  Converged?
 Maximum Force            0.000019     0.000450     YES
 RMS     Force            0.000005     0.000300     YES
 Maximum Displacement     0.001249     0.001800     YES
 RMS     Displacement     0.000278     0.001200     YES
 Predicted change in Energy=-1.489090D-08
 Optimization completed.
    -- Stationary point found.
                           ----------------------------
                           !   Optimized Parameters   !
                           ! (Angstroms and Degrees)  !
 --------------------------                            --------------------------
 ! Name  Definition              Value          Derivative Info.                !
 --------------------------------------------------------------------------------
 ! R1    R(1,2)                  1.089          -DE/DX =    0.0                 !
 ! R2    R(1,3)                  1.0991         -DE/DX =    0.0                 !
 ! R3    R(1,4)                  1.5279         -DE/DX =    0.0                 !
 ! R4    R(1,25)                 1.4551         -DE/DX =    0.0                 !
 ! R5    R(4,5)                  1.0894         -DE/DX =    0.0                 !
 ! R6    R(4,6)                  1.0921         -DE/DX =    0.0                 !
 ! R7    R(4,7)                  1.5275         -DE/DX =    0.0                 !
 ! R8    R(7,8)                  1.0901         -DE/DX =    0.0                 !
 ! R9    R(7,9)                  1.0893         -DE/DX =    0.0                 !
 ! R10   R(7,10)                 1.5062         -DE/DX =    0.0                 !
 ! R11   R(10,11)                1.4933         -DE/DX =    0.0                 !
 ! R12   R(10,15)                1.4949         -DE/DX =    0.0                 !
 ! R13   R(10,19)                1.5148         -DE/DX =    0.0                 !
 ! R14   R(11,12)                1.0871         -DE/DX =    0.0                 !
 ! R15   R(11,13)                1.0879         -DE/DX =    0.0                 !
 ! R16   R(11,14)                1.0853         -DE/DX =    0.0                 !
 ! R17   R(15,16)                1.0879         -DE/DX =    0.0                 !
 ! R18   R(15,17)                1.0864         -DE/DX =    0.0                 !
 ! R19   R(15,18)                1.0873         -DE/DX =    0.0                 !
 ! R20   R(19,20)                1.0881         -DE/DX =    0.0                 !
 ! R21   R(19,21)                1.0865         -DE/DX =    0.0                 !
 ! R22   R(19,22)                1.5749         -DE/DX =    0.0                 !
 ! R23   R(22,23)                1.2448         -DE/DX =    0.0                 !
 ! R24   R(22,24)                1.2281         -DE/DX =    0.0                 !
 ! R25   R(25,26)                1.0111         -DE/DX =    0.0                 !
 ! R26   R(25,27)                1.0096         -DE/DX =    0.0                 !
 ! A1    A(2,1,3)              106.6677         -DE/DX =    0.0                 !
 ! A2    A(2,1,4)              110.175          -DE/DX =    0.0                 !
 ! A3    A(2,1,25)             107.8529         -DE/DX =    0.0                 !
 ! A4    A(3,1,4)              108.771          -DE/DX =    0.0                 !
 ! A5    A(3,1,25)             113.7116         -DE/DX =    0.0                 !
 ! A6    A(4,1,25)             109.6032         -DE/DX =    0.0                 !
 ! A7    A(1,4,5)              108.9174         -DE/DX =    0.0                 !
 ! A8    A(1,4,6)              108.1134         -DE/DX =    0.0                 !
 ! A9    A(1,4,7)              114.7371         -DE/DX =    0.0                 !
 ! A10   A(5,4,6)              105.4365         -DE/DX =    0.0                 !
 ! A11   A(5,4,7)              112.015          -DE/DX =    0.0                 !
 ! A12   A(6,4,7)              107.1223         -DE/DX =    0.0                 !
 ! A13   A(4,7,8)              110.1541         -DE/DX =    0.0                 !
 ! A14   A(4,7,9)              110.6475         -DE/DX =    0.0                 !
 ! A15   A(4,7,10)             116.8721         -DE/DX =    0.0                 !
 ! A16   A(8,7,9)              107.484          -DE/DX =    0.0                 !
 ! A17   A(8,7,10)             105.9564         -DE/DX =    0.0                 !
 ! A18   A(9,7,10)             105.2094         -DE/DX =    0.0                 !
 ! A19   A(7,10,11)            110.5955         -DE/DX =    0.0                 !
 ! A20   A(7,10,15)            107.543          -DE/DX =    0.0                 !
 ! A21   A(7,10,19)            111.0724         -DE/DX =    0.0                 !
 ! A22   A(11,10,15)           108.5276         -DE/DX =    0.0                 !
 ! A23   A(11,10,19)           109.8442         -DE/DX =    0.0                 !
 ! A24   A(15,10,19)           109.1845         -DE/DX =    0.0                 !
 ! A25   A(10,11,12)           106.7315         -DE/DX =    0.0                 !
 ! A26   A(10,11,13)           108.5807         -DE/DX =    0.0                 !
 ! A27   A(10,11,14)           109.1653         -DE/DX =    0.0                 !
 ! A28   A(12,11,13)           111.9691         -DE/DX =    0.0                 !
 ! A29   A(12,11,14)           110.162          -DE/DX =    0.0                 !
 ! A30   A(13,11,14)           110.1279         -DE/DX =    0.0                 !
 ! A31   A(10,15,16)           108.6466         -DE/DX =    0.0                 !
 ! A32   A(10,15,17)           107.2966         -DE/DX =    0.0                 !
 ! A33   A(10,15,18)           108.3346         -DE/DX =    0.0                 !
 ! A34   A(16,15,17)           112.0042         -DE/DX =    0.0                 !
 ! A35   A(16,15,18)           110.1062         -DE/DX =    0.0                 !
 ! A36   A(17,15,18)           110.3297         -DE/DX =    0.0                 !
 ! A37   A(10,19,20)           106.6375         -DE/DX =    0.0                 !
 ! A38   A(10,19,21)           106.9789         -DE/DX =    0.0                 !
 ! A39   A(10,19,22)           117.4811         -DE/DX =    0.0                 !
 ! A40   A(20,19,21)           109.1391         -DE/DX =    0.0                 !
 ! A41   A(20,19,22)           108.6669         -DE/DX =    0.0                 !
 ! A42   A(21,19,22)           107.7304         -DE/DX =    0.0                 !
 ! A43   A(19,22,23)           117.5553         -DE/DX =    0.0                 !
 ! A44   A(19,22,24)           110.1702         -DE/DX =    0.0                 !
 ! A45   A(23,22,24)           132.2707         -DE/DX =    0.0                 !
 ! A46   A(1,25,26)            111.3343         -DE/DX =    0.0                 !
 ! A47   A(1,25,27)            111.183          -DE/DX =    0.0                 !
 ! A48   A(26,25,27)           107.3275         -DE/DX =    0.0                 !
 ! D1    D(2,1,4,5)            -62.1344         -DE/DX =    0.0                 !
 ! D2    D(2,1,4,6)           -176.2227         -DE/DX =    0.0                 !
 ! D3    D(2,1,4,7)             64.3204         -DE/DX =    0.0                 !
 ! D4    D(3,1,4,5)           -178.725          -DE/DX =    0.0                 !
 ! D5    D(3,1,4,6)             67.1868         -DE/DX =    0.0                 !
 ! D6    D(3,1,4,7)            -52.2702         -DE/DX =    0.0                 !
 ! D7    D(25,1,4,5)            56.3924         -DE/DX =    0.0                 !
 ! D8    D(25,1,4,6)           -57.6959         -DE/DX =    0.0                 !
 ! D9    D(25,1,4,7)          -177.1529         -DE/DX =    0.0                 !
 ! D10   D(2,1,25,26)         -166.8916         -DE/DX =    0.0                 !
 ! D11   D(2,1,25,27)          -47.2697         -DE/DX =    0.0                 !
 ! D12   D(3,1,25,26)          -48.8199         -DE/DX =    0.0                 !
 ! D13   D(3,1,25,27)           70.802          -DE/DX =    0.0                 !
 ! D14   D(4,1,25,26)           73.1521         -DE/DX =    0.0                 !
 ! D15   D(4,1,25,27)         -167.226          -DE/DX =    0.0                 !
 ! D16   D(1,4,7,8)             24.1022         -DE/DX =    0.0                 !
 ! D17   D(1,4,7,9)            142.8073         -DE/DX =    0.0                 !
 ! D18   D(1,4,7,10)           -96.8458         -DE/DX =    0.0                 !
 ! D19   D(5,4,7,8)            148.9448         -DE/DX =    0.0                 !
 ! D20   D(5,4,7,9)            -92.3501         -DE/DX =    0.0                 !
 ! D21   D(5,4,7,10)            27.9968         -DE/DX =    0.0                 !
 ! D22   D(6,4,7,8)            -95.9059         -DE/DX =    0.0                 !
 ! D23   D(6,4,7,9)             22.7993         -DE/DX =    0.0                 !
 ! D24   D(6,4,7,10)           143.1462         -DE/DX =    0.0                 !
 ! D25   D(4,7,10,11)          -67.1397         -DE/DX =    0.0                 !
 ! D26   D(4,7,10,15)          174.5134         -DE/DX =    0.0                 !
 ! D27   D(4,7,10,19)           55.0975         -DE/DX =    0.0                 !
 ! D28   D(8,7,10,11)          169.7253         -DE/DX =    0.0                 !
 ! D29   D(8,7,10,15)           51.3784         -DE/DX =    0.0                 !
 ! D30   D(8,7,10,19)          -68.0375         -DE/DX =    0.0                 !
 ! D31   D(9,7,10,11)           56.05           -DE/DX =    0.0                 !
 ! D32   D(9,7,10,15)          -62.2969         -DE/DX =    0.0                 !
 ! D33   D(9,7,10,19)          178.2871         -DE/DX =    0.0                 !
 ! D34   D(7,10,11,12)        -178.7971         -DE/DX =    0.0                 !
 ! D35   D(7,10,11,13)         -57.9211         -DE/DX =    0.0                 !
 ! D36   D(7,10,11,14)          62.1568         -DE/DX =    0.0                 !
 ! D37   D(15,10,11,12)        -61.052          -DE/DX =    0.0                 !
 ! D38   D(15,10,11,13)         59.824          -DE/DX =    0.0                 !
 ! D39   D(15,10,11,14)        179.9019         -DE/DX =    0.0                 !
 ! D40   D(19,10,11,12)         58.2491         -DE/DX =    0.0                 !
 ! D41   D(19,10,11,13)        179.1251         -DE/DX =    0.0                 !
 ! D42   D(19,10,11,14)        -60.797          -DE/DX =    0.0                 !
 ! D43   D(7,10,15,16)          57.5316         -DE/DX =    0.0                 !
 ! D44   D(7,10,15,17)         178.8129         -DE/DX =    0.0                 !
 ! D45   D(7,10,15,18)         -62.0743         -DE/DX =    0.0                 !
 ! D46   D(11,10,15,16)        -62.1405         -DE/DX =    0.0                 !
 ! D47   D(11,10,15,17)         59.1408         -DE/DX =    0.0                 !
 ! D48   D(11,10,15,18)        178.2536         -DE/DX =    0.0                 !
 ! D49   D(19,10,15,16)        178.1454         -DE/DX =    0.0                 !
 ! D50   D(19,10,15,17)        -60.5734         -DE/DX =    0.0                 !
 ! D51   D(19,10,15,18)         58.5394         -DE/DX =    0.0                 !
 ! D52   D(7,10,19,20)          53.0761         -DE/DX =    0.0                 !
 ! D53   D(7,10,19,21)         -63.6049         -DE/DX =    0.0                 !
 ! D54   D(7,10,19,22)         175.2149         -DE/DX =    0.0                 !
 ! D55   D(11,10,19,20)        175.7484         -DE/DX =    0.0                 !
 ! D56   D(11,10,19,21)         59.0674         -DE/DX =    0.0                 !
 ! D57   D(11,10,19,22)        -62.1128         -DE/DX =    0.0                 !
 ! D58   D(15,10,19,20)        -65.3536         -DE/DX =    0.0                 !
 ! D59   D(15,10,19,21)        177.9654         -DE/DX =    0.0                 !
 ! D60   D(15,10,19,22)         56.7852         -DE/DX =    0.0                 !
 ! D61   D(10,19,22,23)          5.4941         -DE/DX =    0.0                 !
 ! D62   D(10,19,22,24)       -175.1351         -DE/DX =    0.0                 !
 ! D63   D(20,19,22,23)        126.5836         -DE/DX =    0.0                 !
 ! D64   D(20,19,22,24)        -54.0455         -DE/DX =    0.0                 !
 ! D65   D(21,19,22,23)       -115.295          -DE/DX =    0.0                 !
 ! D66   D(21,19,22,24)         64.0758         -DE/DX =    0.0                 !
 --------------------------------------------------------------------------------
 GradGradGradGradGradGradGradGradGradGradGradGradGradGradGradGradGradGrad


 ----------------------------------------------------------------------

 Electric dipole moment (input orientation):
 (Debye = 10**-18 statcoulomb cm , SI units = C m)
                  (au)            (Debye)         (10**-30 SI)
   Tot        0.484787D+01      0.123221D+02      0.411020D+02
   x          0.351737D+01      0.894025D+01      0.298215D+02
   y         -0.324591D+01     -0.825028D+01     -0.275200D+02
   z         -0.770753D+00     -0.195906D+01     -0.653472D+01

 Dipole polarizability, Alpha (input orientation).
 (esu units = cm**3 , SI units = C**2 m**2 J**-1)
 Alpha(0;0):
               (au)            (10**-24 esu)      (10**-40 SI)
   iso        0.108295D+03      0.160477D+02      0.178555D+02
   aniso      0.254960D+02      0.377812D+01      0.420372D+01
   xx         0.120840D+03      0.179066D+02      0.199238D+02
   yx         0.555056D+00      0.822509D-01      0.915164D-01
   yy         0.111905D+03      0.165826D+02      0.184506D+02
   zx         0.189326D+00      0.280553D-01      0.312157D-01
   zy        -0.822792D+00     -0.121925D+00     -0.135660D+00
   zz         0.921420D+02      0.136540D+02      0.151922D+02

 ----------------------------------------------------------------------

 Dipole orientation:
     6          1.24279691         -2.06534475          1.17046325
     1          1.02085616         -2.56002181         -0.81483431
     1         -0.06525736         -3.27670016          2.23606753
     6          0.50964719          0.69460790          1.59700574
     1          1.77685003          1.89767738          0.50851505
     1          0.87626173          1.15762538          3.57447685
     6         -2.26530261          1.30061375          1.08265070
     1         -3.41107187         -0.40034832          1.27678974
     1         -2.97054690          2.67939918          2.43859533
     7         -2.89383950          2.37973470         -1.47515075
     6         -1.79148079          4.96153192         -1.76142190
     1         -2.34774655          5.63944881         -3.61913647
     1         -2.52190104          6.15628943         -0.25621808
     1          0.25197110          4.83881675         -1.63636873
     6         -5.70635346          2.58046022         -1.64688799
     1         -6.37737613          3.75374524         -0.09793925
     1         -6.14937002          3.39653056         -3.47780612
     1         -6.49952022          0.69107807         -1.49673071
     6         -1.94236835          0.67888722         -3.57190785
     1         -2.68492062         -1.19989112         -3.18860830
     1          0.10527162          0.63601891         -3.42653988
     6         -2.63709153          1.42559722         -6.36791608
     8         -3.75388594          3.46854010         -6.70314224
     8         -1.90160025         -0.21129943         -7.83965045
     7          3.88422448         -2.43234055          1.84046695
     1          4.13261929         -2.39470599          3.73453095
     1          4.52605889         -4.11725915          1.21655437

 Electric dipole moment (dipole orientation):
 (Debye = 10**-18 statcoulomb cm , SI units = C m)
                  (au)            (Debye)         (10**-30 SI)
   Tot        0.484787D+01      0.123221D+02      0.411020D+02
   x          0.000000D+00      0.000000D+00      0.000000D+00
   y          0.000000D+00      0.000000D+00      0.000000D+00
   z          0.484787D+01      0.123221D+02      0.411020D+02

 Dipole polarizability, Alpha (dipole orientation).
 (esu units = cm**3 , SI units = C**2 m**2 J**-1)
 Alpha(0;0):
               (au)            (10**-24 esu)      (10**-40 SI)
   iso        0.108295D+03      0.160477D+02      0.178555D+02
   aniso      0.254960D+02      0.377812D+01      0.420372D+01
   xx         0.104066D+03      0.154210D+02      0.171582D+02
   yx        -0.117812D+02     -0.174580D+01     -0.194246D+01
   yy         0.105470D+03      0.156290D+02      0.173896D+02
   zx         0.632174D+01      0.936786D+00      0.104231D+01
   zy        -0.311496D+00     -0.461589D-01     -0.513587D-01
   zz         0.115351D+03      0.170932D+02      0.190188D+02

 ----------------------------------------------------------------------
 1\1\GINC-CCLEARN2\Freq\RwB97XD\6-311+G(2d,2p)\C7H16N2O2\TROUPPER\28-Se
 p-2026\0\\#N Geom=AllCheck Guess=TCheck SCRF=Check GenChk RwB97XD/6-31
 1+G(2d,2p) Freq\\opt freq\\0,1\C,1.2664447294,0.5311319522,-0.35308784
 83\H,0.549823507,1.3458371497,-0.4465422241\H,1.5664695118,0.256511560
 5,-1.3741578335\C,0.6062887632,-0.6781887365,0.3074235574\H,0.28751600
 09,-0.4018318243,1.3117985813\H,1.3687122127,-1.4477581671,0.445865604
 7\C,-0.5270747268,-1.3080900957,-0.5000114458\H,-0.4061743396,-1.07907
 16239,-1.5589280737\H,-0.5159811431,-2.3923465852,-0.3963440387\N,-1.9
 300172654,-0.8914052123,-0.1437931053\C,-2.2942039549,-1.383230098,1.2
 182986007\H,-3.318489452,-1.0683783199,1.4012130741\H,-2.192256016,-2.
 4662401623,1.2345388623\H,-1.6287794979,-0.9344675881,1.9488685778\C,-
 2.8527903385,-1.5195233555,-1.1380719453\H,-2.7121288041,-2.5978904466
 ,-1.1103147174\H,-3.8647220753,-1.2338757583,-0.8649811108\H,-2.605144
 6509,-1.1355718754,-2.124668338\C,-2.0829902196,0.6144506941,-0.204707
 2388\H,-1.7335644726,0.9235827408,-1.1877283658\H,-1.4262669635,1.0310
 349378,0.5540523304\C,-3.5227758837,1.2087183536,0.0283629269\O,-4.427
 1754924,0.4168687304,0.3516205353\O,-3.5123395221,2.4244638057,-0.1454
 016689\N,2.3679905466,0.9987128392,0.474671233\H,3.1585986561,0.370505
 7423,0.4240223146\H,2.6875442806,1.908873283,0.176603246\\Version=EM64
 M-G16RevA.03\State=1-A\HF=-536.304429\RMSD=2.309e-09\RMSF=8.796e-06\Ze
 roPoint=0.2424206\Thermal=0.2549964\Dipole=3.517365,-3.2459093,-0.7707
 531\DipoleDeriv=0.4800537,0.1833161,0.1047208,0.188386,0.2346995,0.123
 1379,0.0452067,0.1115628,0.3290477,-0.0111555,0.0561202,-0.0241544,0.0
 886707,-0.0384833,0.0235803,-0.0282266,-0.0106915,0.0314932,-0.0368579
 ,-0.0336265,0.0077234,-0.0490068,-0.0082088,-0.1001427,-0.0218954,-0.0
 717024,-0.2192786,0.0325724,-0.0431233,-0.0057633,-0.078522,0.033704,-
 0.0353094,-0.0082239,0.0076666,0.0105266,0.0542978,-0.0035553,0.054593
 5,-0.0141958,0.0412444,-0.041548,0.0722363,-0.0073691,-0.0512914,-0.08
 82367,0.0725587,-0.0297766,0.0613396,-0.04539,0.0265939,0.0005339,0.00
 83954,0.070903,0.5105289,-0.0622688,-0.0252544,-0.073414,0.1310682,0.0
 22626,-0.0476271,0.0365892,0.142625,0.0235807,0.0083193,0.0031784,0.01
 38409,0.0708536,0.0637234,0.0066709,0.0088918,-0.0712332,-0.0370692,-0
 .0281562,0.0022814,-0.0034986,-0.1132892,-0.0090499,-0.004234,0.023100
 7,0.075968,-0.4202656,0.0654957,-0.0247744,0.0733301,-0.5191074,-0.009
 4562,-0.0132161,-0.0248252,-0.3343094,-0.0594047,0.0927089,-0.0546063,
 0.0795569,0.1432789,-0.0784932,-0.0094179,-0.0911225,0.289338,0.136920
 9,-0.1102995,0.0590897,-0.0661573,0.1832337,-0.0342529,0.011804,-0.035
 6267,0.0920553,0.0912014,0.0488025,-0.0010647,0.0225804,-0.0950165,0.0
 245782,0.0106759,-0.0398894,0.0442874,0.038647,-0.0368918,-0.0776579,-
 0.0730465,0.0376159,-0.0309981,-0.0507986,-0.0086553,0.0095255,0.04486
 65,0.1250983,0.1469038,0.1169348,0.1663934,0.0595982,0.15796,0.0577657
 ,0.2253065,0.0748111,0.0687515,-0.0173994,0.0184783,-0.0924262,-0.0180
 406,-0.034088,0.028387,0.0552425,0.0959088,-0.0977604,-0.0545016,-0.04
 27706,0.1990387,0.0391479,-0.0218279,0.064702,0.1001369,0.061298,-0.03
 22965,0.0529926,-0.0493609,0.0494752,0.0578592,0.0103682,0.0169,-0.035
 4478,-0.3115962,0.0877927,0.0665596,-0.0279011,0.511624,-0.026,0.08873
 68,-0.0385615,0.1388781,0.0664058,-0.0022515,0.049743,0.0226974,0.0016
 367,-0.006755,0.1066507,-0.0015874,-0.0387588,0.0433143,-0.0170428,-0.
 0518142,-0.0043106,-0.0007864,-0.0012896,-0.1255215,0.0008268,0.009614
 ,1.5528702,0.025774,-0.3011815,-0.0566545,2.1085246,-0.280796,-0.32312
 93,-0.2888576,0.2576399,-1.2224198,-0.3642753,0.2092794,-0.1576562,-1.
 1848259,0.1289155,0.2044145,0.180982,-0.5421033,-0.7326042,0.1933881,0
 .0316346,0.1612152,-1.6991811,0.1503919,0.041112,0.1352321,-0.4698374,
 -0.5571766,-0.1749904,-0.0852895,-0.1815206,-0.3299894,-0.0803029,-0.1
 282886,-0.1265127,-0.5738231,0.0725031,0.0306585,-0.0078342,0.0710514,
 0.0900938,-0.0369048,0.039034,-0.0608279,0.2443797,0.0970058,-0.052246
 4,-0.0276279,-0.0400664,0.1242195,0.069187,0.0210912,0.1252271,0.20911
 56\Polar=120.839826,0.5550564,111.9046886,0.1893263,-0.822792,92.14197
 69\Quadrupole=-6.4530508,0.0473456,6.4057052,11.4919118,-0.9640526,-0.
 4597953\PG=C01 [X(C7H16N2O2)]\NImag=0\\0.54051446,-0.07239370,0.557683
 49,-0.00346260,0.01075447,0.54410745,-0.16148803,0.12903299,-0.0121085
 6,0.18731878,0.13407444,-0.20339240,0.01421202,-0.13946796,0.21779074,
 -0.00794537,0.00851762,-0.05327812,0.01686340,-0.01461802,0.05673547,-
 0.07613259,0.02170289,0.06995830,-0.00581354,0.00488767,0.01976127,0.0
 8184375,0.02252695,-0.06790803,-0.05355874,0.00816325,-0.00533761,-0.0
 2332643,-0.01517559,0.07251486,0.07113497,-0.05153713,-0.24560144,0.00
 061374,0.00025287,0.00212695,-0.07035895,0.06104859,0.27632879,-0.0925
 4867,-0.02282375,0.02142913,0.01142550,0.01695680,-0.00983344,-0.00495
 061,-0.01166867,0.00711069,0.52126682,-0.03089604,-0.14716607,0.045745
 54,-0.01243001,-0.02082382,0.01240091,0.00313204,0.00374911,-0.0033981
 1,-0.05521321,0.52178934,0.02364580,0.04915158,-0.10890384,0.00143499,
 0.00211419,-0.00156848,0.01302072,0.02583377,-0.01501697,-0.01995642,0
 .02386214,0.56513900,-0.00461262,0.00276357,0.01300496,0.00040464,0.00
 003998,-0.00081556,-0.00072038,-0.00259377,0.00059571,-0.07070476,0.02
 109932,0.07360418,0.07980852,-0.01046642,0.00621389,0.02711866,0.00084
 665,0.00127742,-0.00024482,-0.00288085,-0.00390956,0.00246573,0.020035
 94,-0.06494139,-0.06803759,-0.02082467,0.07047975,0.00544946,-0.003274
 31,-0.01609414,-0.00041012,-0.00016152,0.00043707,0.00083285,0.0026706
 7,-0.00053430,0.07331147,-0.06547499,-0.27190437,-0.08143493,0.0697853
 1,0.29686263,0.00953297,-0.01201209,0.00173126,-0.00088844,-0.00314486
 ,0.00103525,0.00078246,0.00071995,-0.00061364,-0.17567352,0.12824397,-
 0.02154119,-0.00732783,0.00700908,-0.00095021,0.19387864,0.01896118,-0
 .02294547,0.00368439,-0.00337176,-0.00318692,0.00270474,-0.00023141,0.
 00135835,-0.00001026,0.13150725,-0.17689520,0.02111486,0.00615344,-0.0
 0646950,0.00112708,-0.13544056,0.19743706,-0.01169133,0.01474774,-0.00
 229802,0.00188570,0.00247949,-0.00068953,-0.00068930,-0.00047346,0.000
 28200,-0.02064670,0.02146022,-0.05116364,0.02180695,-0.02171545,0.0039
 7578,0.02455011,-0.02410317,0.05312440,-0.01304570,-0.00802615,-0.0065
 7002,0.00080693,0.00066050,-0.00009289,0.00055919,0.00091223,-0.000916
 23,-0.13412458,-0.03439341,-0.03899347,0.00884072,0.00584678,0.0030810
 1,-0.01825900,-0.01192424,-0.01391007,0.43643709,-0.01894878,-0.008798
 14,-0.01861115,0.00081767,0.00045185,-0.00034223,0.00040287,0.00101335
 ,-0.00031160,-0.03672642,-0.10374716,-0.02708512,-0.00609415,-0.004022
 33,-0.00302110,0.01647323,0.00758741,0.01089909,0.03081660,0.60085776,
 0.00780864,-0.00285312,0.00847736,-0.00035355,0.00012415,0.00031551,0.
 00202431,0.00177090,-0.00032234,-0.03865584,-0.02859130,-0.11910000,-0
 .02536021,-0.00985216,-0.01479074,-0.00095168,-0.00180612,-0.00250192,
 0.00676294,-0.04328155,0.59210462,0.00085602,-0.00010455,-0.00235393,-
 0.00001372,-0.00029384,0.00025302,-0.00065210,0.00010580,0.00082078,0.
 00373557,0.00219951,-0.02315696,-0.00344659,-0.00110683,-0.00159351,-0
 .00046335,0.00023898,0.00004402,-0.04968487,-0.00167586,0.01815567,0.0
 6776320,-0.00025396,0.00007468,-0.00143654,0.00024772,-0.00004922,-0.0
 0010615,-0.00030240,0.00023776,0.00027898,0.00091097,0.00357955,-0.015
 33725,-0.00196381,-0.00084620,-0.00151334,-0.00035403,-0.00010119,-0.0
 0033839,-0.00683189,-0.06491602,0.06120888,0.00692671,0.06530988,0.001
 82775,0.00149967,0.00076155,-0.00013936,-0.00031339,0.00001125,-0.0006
 8035,-0.00077358,0.00084217,-0.00024972,0.00140562,-0.01626520,-0.0024
 0367,-0.00003463,-0.00065091,-0.00052841,-0.00039610,-0.00072144,0.029
 89993,0.05712304,-0.29886176,-0.02924977,-0.06073449,0.32415970,-0.001
 24753,-0.00037668,-0.00369791,0.00015773,0.00002293,0.00003153,0.00001
 988,0.00013401,0.00000430,-0.00321864,-0.02238351,0.00238492,-0.000404
 15,-0.00063504,-0.00044554,0.00006146,-0.00137375,-0.00013117,-0.04547
 171,-0.00612727,0.00283152,0.00070481,-0.00405540,-0.00034471,0.066434
 63,-0.00087411,0.00084274,-0.00228632,0.00017081,0.00020075,-0.0000569
 6,0.00003944,0.00007725,0.00002508,-0.00064533,-0.00999641,0.00274079,
 -0.00026696,-0.00030830,-0.00013694,-0.00023423,0.00160827,0.00011324,
 0.00337229,-0.31403227,0.02882237,-0.00044506,-0.00554196,0.00045491,-
 0.00374840,0.33856047,-0.00049284,0.00027182,-0.00239061,-0.00000557,-
 0.00012354,-0.00010219,-0.00020476,-0.00001534,0.00032851,-0.00176754,
 -0.01934372,0.00336734,-0.00003775,-0.00021846,-0.00047606,0.00054849,
 0.00019981,0.00149911,-0.00096309,0.03241870,-0.05471207,-0.00147500,0
 .03144884,-0.00175709,0.00007827,-0.03043061,0.05403007,-0.00062484,0.
 00100180,-0.00067359,0.00021410,-0.00033327,0.00008717,0.00000530,0.00
 012356,0.00002156,-0.02456144,0.00897248,0.00159833,0.00112293,-0.0000
 1408,0.00148930,-0.00283447,-0.00335535,-0.00093189,-0.13647785,0.0227
 9663,0.01988032,-0.01319614,0.00446833,0.00377228,-0.01154193,0.003740
 54,0.00436440,0.51628947,-0.00138130,0.00017711,-0.00073114,-0.0000093
 4,-0.00006318,0.00005380,0.00011717,0.00012056,-0.00009013,-0.00949573
 ,0.00519867,0.00881680,0.00098081,0.00080269,-0.00014496,-0.00179172,-
 0.00008884,-0.00114463,0.00814939,-0.09680013,-0.00541545,-0.00680377,
 0.00116169,0.00248292,0.03703611,-0.01474218,-0.01239215,0.01214728,0.
 51089198,0.00018778,0.00062605,-0.00148947,-0.00006613,-0.00019153,-0.
 00012188,-0.00032610,0.00005768,0.00053594,-0.01617733,0.01048211,0.00
 732300,0.00110198,0.00055133,-0.00017513,-0.00364956,-0.00229822,-0.00
 236191,0.01210548,-0.00762909,-0.09647709,0.03427410,-0.01281072,-0.01
 133559,-0.00179358,0.00083582,-0.00066727,-0.00287403,0.00104241,0.552
 03631,-0.00020825,0.00043848,0.00071101,-0.00003096,-0.00007814,-0.000
 00813,-0.00001903,-0.00023236,-0.00021812,0.00013762,-0.00124690,0.000
 37070,-0.00123567,0.00012294,0.00085769,0.00022156,0.00014288,0.000142
 32,-0.01243296,-0.00931169,0.03595737,-0.00606601,0.00097320,0.0017236
 4,0.00108812,-0.00171138,0.00014788,-0.09763949,-0.00356366,0.01606648
 ,0.62089000,0.00003942,-0.00057436,-0.00015741,0.00003090,0.00008696,0
 .00006134,0.00002209,0.00010366,0.00000887,-0.00012865,0.00030411,0.00
 004524,-0.00047068,-0.00014087,-0.00010225,0.00037501,0.00006844,0.000
 03270,-0.00049846,0.00391328,-0.00773113,0.00277780,-0.00084258,-0.001
 36215,0.00163931,0.00037372,-0.00193466,-0.00780390,-0.09957823,0.0265
 2146,-0.02140255,0.61252777,0.00010820,-0.00026165,-0.00080341,0.00008
 939,0.00014458,0.00005670,0.00017187,0.00027691,-0.00025695,-0.0000184
 5,0.00153477,0.00093683,-0.00078442,-0.00102531,-0.00030226,-0.0006415
 8,-0.00033917,-0.00019807,0.01463130,0.00022279,-0.01146985,-0.0003769
 8,0.00045633,0.00107993,-0.00168314,0.00094200,0.00061190,0.01699640,0
 .01914784,-0.15687856,0.04897192,0.05776640,0.48045181,-0.00001428,-0.
 00005626,0.00008551,-0.00000262,0.00003273,-0.00000596,-0.00001322,-0.
 00001457,-0.00002017,0.00011932,0.00005442,0.00009470,0.00008011,0.000
 00791,0.00001338,-0.00002639,0.00001609,0.00000579,0.00063043,-0.00046
 517,0.00016641,0.00002048,0.00022886,-0.00018066,-0.00008142,0.0002038
 3,0.00003807,-0.00777323,0.00085097,0.00324286,-0.29786657,0.06963147,
 0.04931697,0.31616936,-0.00002763,0.00032121,0.00018022,-0.00000312,-0
 .00007303,-0.00000864,-0.00004357,-0.00011622,0.00000862,0.00003484,-0
 .00003032,0.00025647,0.00035468,0.00024252,0.00009153,-0.00008184,-0.0
 0002633,0.00000467,-0.00000078,-0.00149023,0.00208650,-0.00076685,0.00
 059735,0.00041490,-0.00000906,0.00032691,0.00003297,-0.01430340,0.0024
 8256,0.00418234,0.07733873,-0.07403049,-0.01837868,-0.07466257,0.07387
 296,0.00003617,0.00002314,0.00019561,-0.00000745,0.00002445,-0.0000112
 7,-0.00009116,-0.00007610,0.00011469,-0.00043468,-0.00045937,-0.000337
 86,0.00012894,0.00028655,0.00041816,0.00004437,0.00007858,0.00005556,-
 0.00068413,0.00266133,-0.00616816,0.00199582,-0.00039670,-0.00054376,-
 0.00025217,0.00007253,0.00005383,0.03556176,-0.00816078,-0.01343311,0.
 03512437,-0.01265061,-0.05595382,-0.05255236,0.01443082,0.06905420,-0.
 00004995,-0.00005376,0.00002068,0.00002010,0.00004010,-0.00001414,0.00
 001260,0.00002341,0.00000508,-0.00017987,0.00018607,-0.00015614,0.0002
 0439,-0.00005332,-0.00002220,-0.00011050,0.00000649,0.00006713,0.00052
 005,-0.00202190,0.00013511,0.00008516,0.00015785,-0.00014959,-0.000267
 14,0.00018639,0.00067856,-0.00165756,-0.01032205,0.00190753,-0.0527416
 5,0.03053077,-0.00042929,0.00448458,0.02821392,-0.00056669,0.04891168,
 0.00004230,-0.00006274,0.00003847,0.00003263,0.00007156,-0.00002081,-0
 .00001620,0.00001049,0.00001131,-0.00020051,-0.00005308,-0.00016805,0.
 00009551,-0.00007436,0.00011703,-0.00013107,0.00000303,0.00008334,0.00
 106798,-0.00010769,-0.00111262,-0.00006289,0.00051594,-0.00005945,-0.0
 0051047,0.00072400,0.00026611,0.00076203,-0.01318179,0.00155470,0.0255
 4275,-0.31963663,0.00115189,-0.00124777,-0.00547165,-0.00069854,-0.027
 85226,0.34506690,-0.00005184,0.00007294,-0.00003644,-0.00002222,-0.000
 03435,-0.00002320,0.,-0.00001050,0.00001591,0.00004550,-0.00020592,-0.
 00021040,0.00009466,-0.00000176,0.00002682,0.00000678,0.00002547,0.000
 11364,-0.00158983,0.00159013,0.00099893,-0.00019414,-0.00016009,0.0001
 3476,0.00051911,-0.00042260,-0.00018282,-0.00206230,0.03670100,-0.0073
 2590,0.00045079,-0.01052212,-0.05041797,-0.00181338,-0.00544049,0.0000
 1976,-0.00268210,-0.00315475,0.05847354,-0.00012113,-0.00004016,0.0000
 9701,0.00002446,0.00004666,-0.00001965,0.00000903,-0.00000188,0.000003
 18,-0.00184388,-0.00061288,0.00137714,-0.00233756,-0.00075962,0.001159
 54,0.00004531,0.00001934,-0.00014451,0.00036071,0.00042980,-0.00009559
 ,0.00004357,-0.00004664,-0.00017360,0.00000840,0.00007926,-0.00002327,
 0.00589377,0.00451850,0.00889194,-0.15945092,-0.07533320,-0.11984501,-
 0.01331954,-0.01548093,-0.02017618,0.00258192,0.00275358,0.00426968,0.
 16789259,-0.00001212,0.00029499,0.00024800,-0.00001502,-0.00006186,0.0
 0002933,-0.00005975,-0.00011645,0.00005718,-0.00059928,-0.00048330,0.0
 0030786,-0.00082470,0.00062557,0.00058841,0.00008537,-0.00001974,-0.00
 014932,-0.00021710,0.00003706,-0.00079451,0.00008691,-0.00007495,0.000
 05307,-0.00019225,-0.00011070,-0.00001370,0.00935675,0.00337474,0.0102
 1826,-0.07540250,-0.10139212,-0.08092026,0.00508685,0.00470021,0.00707
 420,-0.02006993,-0.01018955,-0.02093599,0.08269622,0.10278087,0.000034
 80,0.00032285,0.00033087,0.00000601,-0.00003066,-0.00003096,-0.0001466
 9,-0.00017831,0.00009529,0.00018113,-0.00037221,-0.00023344,0.00097155
 ,0.00055508,0.00087092,-0.00007651,0.00012423,0.00022328,-0.00208414,-
 0.00040981,0.00001218,0.00001059,-0.00000878,0.00011777,0.00018312,-0.
 00002367,-0.00010145,-0.01986037,-0.01217313,-0.02713033,-0.10889785,-
 0.07305069,-0.16829672,0.00300867,0.00357940,0.00591125,0.00135960,0.0
 0038646,0.00230539,0.12300594,0.08069230,0.18999989,-0.00026915,0.0005
 4548,-0.00066753,-0.00007938,-0.00020115,0.00009462,0.00002677,-0.0000
 3708,0.00002925,-0.00293449,0.00247645,0.00224223,0.00009994,0.0000082
 1,-0.00024100,-0.00091684,-0.00051124,-0.00063309,-0.03916457,-0.01439
 973,-0.02359571,0.00068395,-0.00057529,-0.00259534,0.00101700,-0.00161
 876,-0.00057026,-0.12064824,-0.01579416,-0.02959658,0.00677351,0.00444
 908,-0.00113543,0.00073658,0.00010870,0.00195251,-0.00002960,-0.000328
 72,0.00080020,-0.00052489,-0.00070205,0.00310937,0.56455106,0.00006887
 ,-0.00065061,0.00029553,0.00001863,0.00012579,-0.00007381,-0.00002565,
 0.00009517,-0.00000578,0.00188383,-0.00118624,-0.00080405,-0.00022374,
 -0.00009760,0.00008270,0.00067047,0.00031790,0.00024228,0.00165950,0.0
 0568867,0.00593016,-0.00001542,0.00009400,-0.00005675,0.00252376,0.000
 14506,0.00074449,-0.02174436,-0.10355848,-0.02258513,0.00736654,0.0064
 0837,0.00439671,0.00023235,-0.00041005,-0.00024644,0.00063073,0.000132
 74,0.00224275,-0.00032269,-0.00105639,0.00341465,-0.05467057,0.5996042
 4,-0.00020058,-0.00043349,0.00050819,-0.00007392,0.00003640,0.00004259
 ,0.00009612,-0.00002958,-0.00008035,0.00248146,-0.00137958,-0.00092884
 ,-0.00009070,0.00017603,-0.00019758,0.00079175,0.00035685,0.00033714,-
 0.00304470,0.00446752,0.00561868,0.00333003,-0.00006228,0.00058404,0.0
 0100085,-0.00015788,-0.00028286,-0.03344506,-0.01886716,-0.12458922,-0
 .02088280,-0.01171351,-0.03619057,-0.00073034,-0.00086701,0.00117899,-
 0.00060749,-0.00135446,0.00143540,0.00152840,0.00164531,-0.00432853,-0
 .08039655,-0.04980611,0.54971071,0.00003019,-0.00009346,0.00009904,0.0
 0001461,0.00004066,-0.00001716,-0.00001806,0.00001067,0.00001549,0.000
 03251,0.00017624,-0.00002909,0.00008036,0.00002186,0.00008367,-0.00002
 133,0.00001781,0.00000368,0.00102518,-0.00229502,-0.00035104,-0.000098
 07,-0.00000359,0.00019216,-0.00087494,0.00009340,-0.00066732,-0.001219
 77,-0.02533239,-0.00162423,0.00009878,-0.00027112,0.00123953,-0.000072
 61,0.00031422,-0.00011938,0.00031736,0.00015363,-0.00006523,-0.0000955
 5,-0.00004589,0.00014809,-0.05604725,0.04596103,-0.00186297,0.05683564
 ,0.00009611,-0.00011072,0.00015420,0.00002541,0.00007797,-0.00001934,-
 0.00001739,0.00001332,0.00000740,-0.00024401,0.00055916,-0.00019847,0.
 00009577,0.00001132,0.00008855,-0.00010265,-0.00003587,-0.00003102,0.0
 0202967,-0.00004956,0.00055470,-0.00010331,-0.00020849,0.00002496,-0.0
 0061590,0.00081702,-0.00007559,0.00056453,-0.01676576,-0.00069196,0.00
 028693,0.00007421,0.00155670,0.00009116,-0.00019301,0.00002183,-0.0000
 0535,0.00065075,-0.00045723,-0.00005575,0.00042596,-0.00007204,0.03601
 690,-0.31576536,0.00907721,-0.03834856,0.34260207,0.00005168,-0.000025
 19,0.00004224,0.00001297,0.00001895,-0.00002567,-0.00001115,0.00002291
 ,-0.00000753,0.00011401,0.00008269,-0.00019636,-0.00002182,-0.00006441
 ,-0.00000590,-0.00001200,0.00000397,0.00002015,0.00127699,-0.00073577,
 0.00008339,-0.00017575,0.00037295,-0.00010567,-0.00027548,0.00024007,0
 .00034282,0.00113775,-0.02688146,-0.00360095,-0.00008669,-0.00212751,0
 .00145647,0.00017083,-0.00001149,-0.00008693,-0.00039939,0.00029131,-0
 .00071042,0.00005887,0.00025294,0.00014021,-0.00206387,0.01705044,-0.0
 5117876,0.00759089,-0.00801957,0.05353918,-0.00001080,0.00004163,-0.00
 010546,-0.00000004,-0.00000908,0.00000437,-0.00001139,0.00000484,0.000
 02182,-0.00035799,0.00080916,0.00055061,0.00005631,-0.00000375,0.00001
 276,-0.00022848,-0.00013532,-0.00013156,-0.00096424,-0.00210958,-0.002
 61415,0.00006726,-0.00014957,-0.00001937,-0.00000153,0.00021741,-0.000
 08708,-0.02298762,0.00329126,0.00237302,0.00023194,0.00046674,0.001046
 15,0.00073828,-0.00023037,-0.00018677,-0.00010673,0.00007850,-0.000190
 01,0.00024255,-0.00011308,0.00024464,-0.29163172,0.06149070,0.06115364
 ,0.00320663,-0.00032882,-0.00004787,0.31589952,0.00004022,0.00026202,-
 0.00001777,-0.00000558,-0.00007955,0.00002857,0.00002030,-0.00003458,-
 0.00001913,-0.00081418,0.00101325,0.00004141,0.00003366,0.00001461,-0.
 00003144,-0.00032040,-0.00020811,-0.00018520,-0.00131228,-0.00218267,-
 0.00223697,0.00022934,-0.00012194,-0.00035327,-0.00012581,0.00035953,-
 0.00012054,-0.01852476,0.00255814,0.00309652,0.00030971,-0.00019948,0.
 00092982,-0.00043411,0.00107340,-0.00035175,0.00032842,-0.00023261,-0.
 00011452,-0.00007877,-0.00010392,-0.00006931,0.07288018,-0.06845457,-0
 .01514951,0.02774435,-0.00460589,-0.00739667,-0.06585627,0.06872838,-0
 .00009973,0.00022195,-0.00028416,0.00000243,-0.00006345,0.00001498,-0.
 00000797,-0.00001163,0.00001304,-0.00121431,0.00043735,0.00103863,0.00
 015929,0.00001533,0.00004514,-0.00031815,-0.00017644,-0.00013456,-0.00
 174672,-0.00261273,-0.00398910,-0.00012165,-0.00018319,0.00036534,0.00
 020401,-0.00015743,-0.00011107,-0.02810802,0.00560571,0.00262582,-0.00
 149517,0.00023513,0.00151139,-0.00085358,0.00010295,-0.00146133,0.0000
 9080,-0.00002369,-0.00001660,0.00027266,0.00001395,0.00001292,0.074227
 22,-0.01578337,-0.06948669,-0.00395846,0.00146130,0.00059759,-0.064390
 19,0.01776769,0.07403583,-0.00001164,-0.00006290,-0.00002445,0.0000075
 5,0.00000423,-0.00000261,-0.00002570,0.00000448,0.00003723,0.00001215,
 -0.00000321,0.00013649,0.00011496,0.00006416,-0.00000013,0.00002554,0.
 00000025,0.00001141,0.00114355,0.00023661,-0.00238073,-0.00112004,-0.0
 0025683,-0.00023809,-0.00009648,0.00006925,0.00006940,0.00103814,0.007
 07155,-0.02360647,-0.00282466,-0.00179541,-0.00191321,-0.00002656,-0.0
 0009089,-0.00023688,-0.00016460,0.00003033,0.00003982,0.00053713,0.000
 27424,-0.00117707,-0.06656203,-0.02730753,0.06735667,0.00055908,0.0023
 8045,-0.00461325,-0.00179070,-0.01358251,0.02588217,0.06878580,-0.0000
 2231,0.00010662,0.00002394,-0.00000299,-0.00003554,-0.00000951,0.00001
 661,-0.00000363,-0.00001548,0.00023339,-0.00007494,-0.00022018,-0.0000
 6682,-0.00001745,-0.00008919,0.00001583,0.00000525,0.00002228,0.000429
 32,-0.00029065,-0.00009449,0.00031847,0.00050131,0.00001737,-0.0001638
 0,-0.00001444,0.00020456,0.00255088,0.00321207,-0.01705248,-0.00172705
 ,-0.00160640,-0.00127858,-0.00015354,-0.00006974,0.00005856,-0.0001579
 4,0.00042298,-0.00022233,0.00004626,0.00086430,-0.00087060,-0.02475342
 ,-0.08793368,0.09514891,-0.00798327,-0.00819691,0.02851427,0.00122902,
 0.00360187,-0.00798253,0.03030192,0.08897404,-0.00008321,0.00002373,-0
 .00002086,-0.00000166,-0.00002399,-0.00001688,-0.00003063,-0.00001365,
 0.00003515,-0.00025133,-0.00023557,0.00036461,0.00019243,0.00008341,0.
 00014744,0.00001841,-0.00001350,0.00003731,0.00240784,0.00020073,-0.00
 017050,-0.00072628,0.00001008,0.00086107,-0.00009157,-0.00005427,0.000
 03069,0.00368296,0.00666890,-0.02536586,-0.00370083,-0.00302623,-0.001
 37580,-0.00022366,0.00014299,0.00024700,0.00001718,0.00002237,0.000230
 59,0.00038646,0.00054375,-0.00121591,0.05661985,0.08707421,-0.27003032
 ,0.00036675,-0.00048609,0.00222160,0.00079956,0.00305678,-0.00439536,-
 0.05985787,-0.09471026,0.29738001,-0.00054484,-0.00153746,0.00002617,-
 0.00306589,0.00142190,0.00020863,-0.00014403,0.00026824,0.00003013,0.0
 0017441,0.00020314,0.00004388,-0.00038173,0.00001658,-0.00003374,0.000
 18646,0.00002175,0.00021309,-0.00342218,0.03652033,-0.00093573,0.00066
 080,0.00019922,-0.00092874,-0.00634490,0.00343314,0.00161747,-0.094624
 48,-0.01110452,0.00252267,0.00256549,-0.01030217,-0.00006940,-0.000715
 43,-0.00069125,0.00001221,-0.00056835,-0.00076550,0.00180429,0.0001429
 2,0.00087203,-0.00041725,0.00387240,-0.02356229,-0.00026401,-0.0029520
 7,-0.00202341,-0.00265769,-0.00041949,-0.00039106,0.00098516,0.0005573
 2,0.00022894,0.00043081,0.47701801,-0.00030703,0.00176894,-0.00034293,
 -0.00026609,-0.00112508,0.00021215,0.00020161,-0.00026130,-0.00014121,
 -0.00066475,0.00130033,0.00098624,0.00002591,0.00028177,-0.00045856,-0
 .00069093,-0.00087713,-0.00063507,0.01657171,-0.01460732,-0.00275604,-
 0.00237623,0.00118969,0.00117440,-0.00103358,0.00110823,0.00079376,0.0
 0072951,-0.12300318,0.00053440,-0.00302929,-0.01783400,0.01475886,-0.0
 0062446,0.00139872,-0.00145130,-0.00043908,0.00159802,-0.00071037,0.00
 034280,0.00131827,-0.00270497,-0.00814647,-0.02392232,-0.01057020,-0.0
 0049352,0.00104955,0.00025721,0.00016463,0.00172517,0.00159107,0.00140
 984,0.00128129,0.00229734,0.07301898,0.40606591,0.00022974,-0.00020797
 ,-0.00021238,0.00048942,-0.00037148,0.00085956,0.00050217,-0.00033718,
 -0.00019261,-0.00030270,0.00079706,0.00018791,-0.00033000,0.00050191,-
 0.00032276,0.00014517,-0.00010491,-0.00021705,0.00002120,-0.00734317,0
 .00116045,0.00050449,-0.00145888,0.00000437,0.00164350,-0.00087098,-0.
 00044751,0.00134164,0.00328236,-0.09251428,-0.00306458,0.03435875,-0.0
 0349743,0.00051164,-0.00035003,0.00123760,0.00190480,0.00212780,-0.005
 78601,-0.00034734,0.00111728,0.00060432,0.00209740,-0.02435484,0.00023
 997,-0.00318195,-0.00252976,-0.00310755,0.00048442,0.00067036,0.000727
 55,0.00006963,-0.00176645,0.00020624,0.01750106,-0.00080374,0.61679749
 ,-0.00051262,0.00016278,-0.00034919,-0.00101143,-0.00038467,-0.0005538
 1,0.00004725,-0.00003876,0.00008390,0.00005743,0.00013043,-0.00020361,
 0.00003636,-0.00000764,0.00010075,-0.00004425,-0.00006780,0.00012650,0
 .00048226,0.00082717,-0.00116159,0.00012510,0.00035446,0.00007488,0.00
 005162,-0.00019524,-0.00003747,-0.00099102,0.00266148,-0.00323455,0.00
 002479,0.00122317,-0.00036144,-0.00023031,0.00031889,-0.00023696,0.000
 37426,0.00017452,-0.00012564,0.00009879,-0.00000131,0.00015622,-0.0001
 8346,-0.00044370,0.00084670,-0.00000225,0.00010726,-0.00028178,-0.0001
 1972,0.00001767,0.00017075,0.00011215,-0.00049349,-0.00038400,-0.06951
 252,-0.02533176,0.08782542,0.07590406,0.00001823,-0.00000418,-0.000001
 25,-0.00016179,0.00017746,-0.00015806,0.00004008,-0.00001173,-0.000022
 14,0.00029001,-0.00011787,-0.00010833,-0.00009693,-0.00006449,-0.00002
 240,0.00000641,0.00004133,0.00007133,-0.00162146,0.00079997,0.00172985
 ,0.00051067,-0.00038892,-0.00058734,-0.00008737,0.00023560,-0.00033079
 ,-0.01019238,-0.02018109,0.03321702,0.00089510,-0.00600363,-0.00211243
 ,0.00026719,-0.00020897,-0.00002886,-0.00047957,-0.00055324,0.00197885
 ,0.00017496,0.00006323,0.00003448,0.00074846,0.00093794,0.00240695,0.0
 0007305,0.00025805,-0.00029164,-0.00004864,-0.00007810,-0.00012426,-0.
 00019544,-0.00034903,-0.00078240,-0.02295813,-0.06409266,0.05822187,0.
 02386983,0.08257872,-0.00027919,0.00099215,0.00013633,0.00001281,-0.00
 066709,-0.00019517,-0.00002829,-0.00007888,-0.00002050,-0.00012810,0.0
 0021268,-0.00060397,0.00006759,0.00001206,0.00018625,-0.00005050,-0.00
 007907,0.00013495,0.00028654,-0.00041773,0.00016857,-0.00032128,0.0001
 9122,0.00043778,-0.00019261,-0.00013166,0.00037018,-0.00033131,-0.0012
 6783,-0.00117215,-0.00036758,-0.00015886,0.00094099,-0.00003966,-0.000
 25043,0.00006708,0.00012469,0.00021844,0.00031701,0.00015591,-0.000119
 07,0.00029544,-0.00024655,-0.00079723,0.00067603,0.00001819,0.00002870
 ,0.00027448,0.00004774,-0.00012471,-0.00016253,0.00013757,-0.00003269,
 0.00037164,0.07803061,0.07047051,-0.27840258,-0.08601194,-0.07471163,0
 .29384696,-0.00148087,0.00074828,0.00017396,-0.00127713,-0.00010515,0.
 00080820,0.00011611,-0.00009792,-0.00001047,-0.00107967,0.00095751,0.0
 0028585,-0.00034676,0.00053059,-0.00024515,-0.00004621,-0.00009214,0.0
 0007882,0.00042212,0.00007806,0.00036824,-0.00001792,-0.00002169,0.000
 05475,0.00004678,-0.00015832,-0.00008736,0.00151602,0.00326249,0.00339
 282,-0.00009000,-0.00026993,-0.00023349,-0.00021153,-0.00010446,-0.000
 14420,0.00012918,0.00012605,0.00026768,0.00034755,-0.00031596,0.000317
 02,0.00009331,0.00096449,0.00024225,0.00024074,0.00018470,0.00003060,-
 0.00001023,0.00035361,0.00018942,0.00001072,0.00003949,-0.00003629,-0.
 14675746,-0.06788429,-0.13046817,0.00625702,0.00472253,0.00868184,0.15
 854419,0.00014256,0.00022606,0.00027028,-0.00030958,0.00049167,0.00014
 704,-0.00016498,-0.00003575,0.00007183,0.00074187,-0.00032537,-0.00051
 268,0.00066532,-0.00031172,0.00062449,-0.00016024,0.00014141,0.0002682
 9,-0.00184951,0.00043966,-0.00035263,0.00015507,-0.00008594,0.00006617
 ,0.00001410,0.00010517,0.00008753,-0.02137708,-0.02269872,-0.02496841,
 -0.00036176,0.00105425,-0.00251360,-0.00005501,-0.00003188,0.00013714,
 0.00020161,0.00030883,0.00013998,0.00017238,-0.00030692,0.00083454,0.0
 0221718,-0.00573596,0.00210422,-0.00127296,-0.00081969,-0.00140250,0.0
 0022761,-0.00016795,-0.00007548,0.00017596,0.00008687,-0.00008585,-0.0
 5792015,-0.08172297,-0.06461309,0.00599035,0.00475883,0.00617997,0.066
 30894,0.10148327,0.00049386,-0.00069784,0.00020669,0.00058396,0.000917
 93,-0.00051603,-0.00034276,0.00031630,0.00008641,-0.00053026,-0.000034
 20,0.00044538,-0.00030129,0.00028731,0.00015864,-0.00008183,0.00025261
 ,0.00009461,-0.00066298,-0.00068720,-0.00053966,-0.00010422,-0.0000005
 3,0.00001424,0.00012258,0.00006983,0.00003790,0.00310077,0.00304013,0.
 00104717,0.00068757,0.00098411,0.00097022,-0.00003311,0.00006379,-0.00
 007192,0.00006794,-0.00003969,0.00011327,-0.00012378,0.00026115,0.0001
 8153,0.00025735,0.00055070,0.00012514,0.00001753,-0.00004960,0.0005843
 8,0.00004204,0.00005367,-0.00007013,-0.00002158,0.00012171,0.00043888,
 -0.11963621,-0.07573334,-0.18679569,-0.01786105,-0.01106126,-0.0175937
 9,0.13005078,0.07841000,0.19691888,-0.00107595,0.00063722,0.00017862,-
 0.00033549,-0.00109076,0.00015874,0.00024498,-0.00019698,-0.00001377,-
 0.00066180,-0.00008773,-0.00055819,-0.00027948,0.00050843,-0.00029344,
 0.00038422,-0.00024211,-0.00014310,-0.00232584,-0.00812440,0.00116095,
 -0.00046973,0.00041752,0.00063718,0.00312495,-0.00289897,-0.00037752,0
 .02030261,-0.00235583,-0.00477399,-0.00129156,0.00577435,-0.00745693,0
 .00578541,-0.00518172,0.00369025,-0.00169654,-0.00046004,0.00148965,-0
 .00101000,0.00024036,-0.00016623,0.00278676,0.00624964,0.00602629,-0.0
 0222435,-0.00066873,-0.00053147,0.00360787,-0.00632919,-0.00481365,-0.
 00064602,0.00023752,0.00076308,-0.09980554,0.00817804,0.00104684,-0.00
 626484,0.00042744,-0.00047316,-0.01611443,0.00400214,0.00476852,0.5461
 4714,0.00013158,0.00041801,-0.00007151,-0.00014634,0.00109370,-0.00013
 078,-0.00021999,-0.00002774,0.00006617,0.00017200,-0.00025523,0.000401
 11,0.00027589,0.00006951,0.00043887,-0.00038294,0.00005169,0.00009845,
 -0.00002712,-0.00331867,0.00009780,-0.00009102,0.00010981,-0.00018365,
 0.00062819,-0.00018134,-0.00036720,0.02378716,-0.02145725,-0.00323575,
 0.00085411,0.00222779,-0.00112812,0.00253555,-0.00583299,0.00346390,-0
 .00146960,0.00062801,0.00063054,-0.00046074,-0.00009385,0.00008958,0.0
 0165110,0.00226379,0.00008132,-0.00157892,0.00073678,0.00012586,0.0009
 8897,-0.00667979,-0.00336792,-0.00051158,-0.00009080,0.00011777,-0.004
 36305,-0.04423820,-0.00371354,-0.00893791,0.00280275,0.00304575,-0.011
 46550,0.00353382,0.00148678,0.17935802,0.92493048,0.00025616,-0.000068
 10,0.00013614,0.00005869,0.00027357,-0.00025682,-0.00021152,0.00016479
 ,0.00004229,0.00021206,0.00013322,0.00010388,0.00020042,-0.00024282,0.
 00022513,-0.00008965,0.00017893,0.00012924,0.00005601,0.00116277,-0.00
 021351,-0.00008026,-0.00000754,0.00021205,-0.00049481,0.00052679,0.000
 57148,-0.00574202,0.00178530,-0.00217377,-0.00084970,-0.00054914,0.001
 75063,-0.00113913,0.00284303,-0.00122803,0.00053507,-0.00004962,-0.000
 51315,-0.00005131,-0.00005861,0.00004492,0.00044538,-0.00304148,-0.001
 63722,0.00082538,0.00014891,-0.00008755,-0.00127261,0.00124891,0.00209
 308,0.00059315,-0.00009668,-0.00045555,0.00202523,-0.00606727,-0.08562
 064,0.02761975,-0.00756370,-0.00198397,-0.02199782,0.00715131,0.005988
 26,-0.09457915,-0.13843106,0.28140710,0.00072972,-0.00071074,-0.000017
 56,0.00003431,0.00084203,-0.00010887,-0.00018707,0.00014487,0.00003432
 ,0.00019086,-0.00018393,0.00015136,0.00012234,-0.00021072,0.00031358,-
 0.00019562,0.00025446,0.00011593,0.00141374,0.00108297,-0.00029635,0.0
 0012866,-0.00028621,-0.00037090,-0.00066893,0.00094377,-0.00012459,0.0
 0114887,-0.00093961,-0.00004454,-0.00013963,0.00267976,-0.00018447,-0.
 00681463,0.00364338,-0.00177704,-0.00054716,0.00051974,-0.00040181,0.0
 0013479,-0.00008521,0.00019843,-0.00015015,0.00015928,-0.00128779,0.00
 056240,0.00032444,0.00045482,-0.00453291,0.00448844,0.00372082,0.00011
 475,-0.00007713,-0.00022351,-0.05014606,-0.02210912,0.02010412,-0.0063
 2075,0.00208328,0.00070217,-0.00300283,0.00137175,0.00066180,-0.351332
 63,-0.20180535,0.09247666,0.40492878,0.00019791,-0.00082198,0.00005036
 ,0.00003933,0.00014152,-0.00002637,-0.00000689,0.00015069,0.00000796,0
 .00014403,0.00007989,0.00002933,-0.00000822,-0.00022956,-0.00008614,0.
 00010578,0.00015228,0.00002632,-0.00038470,0.00218777,0.00005237,0.000
 19593,-0.00024093,-0.00019522,-0.00066639,0.00084673,0.00008317,-0.005
 29175,0.00512743,0.00083205,0.00309940,-0.00503817,0.00588420,0.000477
 71,0.00050450,-0.00229460,0.00180157,-0.00022656,-0.00082142,0.0014367
 3,-0.00038703,-0.00007904,0.00002748,-0.00721969,-0.00616755,0.0024160
 2,-0.00021868,-0.00015936,0.00119753,0.00123004,0.00134164,0.00133444,
 -0.00030157,-0.00060184,-0.00454090,0.00111932,0.00351557,0.00081448,0
 .00055042,-0.00064309,0.00152369,0.00036734,-0.00002057,-0.19256370,-0
 .25779188,0.07064278,0.25355506,0.33778687,-0.00019470,0.00025873,0.00
 002085,-0.00000483,-0.00025776,0.00007411,0.00005181,-0.00010450,0.000
 02963,0.00001744,-0.00004062,-0.00013823,0.00005961,0.00021974,0.00001
 935,0.00008686,-0.00007569,-0.00002809,0.00004274,-0.00025675,0.000678
 19,-0.00031755,-0.00007696,0.00030291,0.00016298,-0.00029884,-0.000252
 20,0.00022885,-0.00023688,-0.00033585,-0.00152630,0.00526186,-0.003579
 43,0.00066735,-0.00284380,0.00045120,-0.00178878,0.00045918,0.00079446
 ,-0.00019452,-0.00005751,0.00020897,-0.00017568,-0.00545330,-0.0019389
 9,0.00155899,-0.00053059,-0.00026864,0.00168374,0.00040688,-0.00202967
 ,-0.00001188,0.00021585,0.00028464,0.01726512,0.00742728,0.01761353,-0
 .00223918,0.00011942,0.00029659,0.00436874,-0.00109450,-0.00136560,0.0
 9133066,0.07318700,-0.10850858,-0.12325407,-0.10149581,0.07626283,0.00
 054072,-0.00015147,-0.00007603,0.00018999,0.00018893,-0.00007488,-0.00
 010354,0.00007475,-0.00000084,0.00010262,0.00005161,0.00012054,0.00007
 567,-0.00017717,0.00009693,-0.00015125,0.00004905,0.00002822,0.0018167
 9,0.00273781,-0.00066378,0.00004756,-0.00013066,-0.00006990,-0.0011911
 1,0.00084069,0.00027626,-0.01078140,0.00891569,0.00169503,0.00005394,-
 0.00150286,0.00288012,-0.00161212,0.00138864,-0.00112338,0.00045007,0.
 00021076,-0.00057295,0.00029434,-0.00006254,-0.00005000,-0.00137726,-0
 .00176720,-0.00227629,0.00056688,0.00027572,0.00028091,-0.00086779,0.0
 0135653,0.00131374,0.00020509,-0.00003707,-0.00011279,-0.00488462,0.03
 244939,0.00105102,0.00140900,0.00176498,-0.00026393,0.00260149,0.00121
 274,-0.00063563,-0.09814339,0.02230754,0.00138417,0.01533388,-0.065055
 85,0.01196967,0.09582895,-0.00027121,-0.00076359,0.00015301,-0.0000586
 9,-0.00042720,0.00005623,0.00011846,0.00008508,0.00000901,-0.00037558,
 0.00000889,-0.00033610,-0.00016989,0.00004189,-0.00022403,0.00033899,0
 .00012020,-0.00002851,-0.00241512,-0.00311596,0.00090196,0.00006334,-0
 .00003847,-0.00003419,0.00145665,-0.00060505,-0.00038303,0.01249484,-0
 .00223169,-0.00174765,0.00085211,-0.00050428,-0.00099232,-0.00204860,0
 .00258286,-0.00161489,0.00056403,-0.00041306,-0.00012988,0.00039627,-0
 .00002098,0.00004589,0.00112413,-0.00020407,0.00068233,0.00060922,-0.0
 0043223,-0.00013657,-0.00117996,0.00272333,0.00197923,0.00040126,-0.00
 001783,-0.00021109,0.02364880,-0.04852685,0.00408281,-0.00066181,-0.00
 116295,-0.00153916,0.00083877,-0.00073008,0.00127109,0.01426788,-0.598
 51602,0.06986975,-0.04592792,-0.07820295,0.02533722,-0.00491414,0.7297
 9075,-0.00009292,0.00005165,-0.00011177,-0.00002672,-0.00003624,-0.000
 08662,-0.00001213,0.00002037,0.00005439,-0.00002941,-0.00003851,-0.000
 07226,-0.00003548,0.00001112,0.00001365,-0.00001000,-0.00004376,-0.000
 00033,0.00001189,0.00004262,-0.00017284,0.00001568,0.00005576,-0.00002
 924,-0.00000637,-0.00004805,-0.00006024,0.00074286,-0.00107266,0.00306
 868,0.00011202,-0.00022923,-0.00038595,0.00029066,-0.00025699,0.000251
 25,-0.00011325,-0.00004561,0.00021719,0.00001428,-0.00002151,-0.000001
 73,-0.00005002,0.00096302,0.00045360,-0.00028939,0.00005572,0.00008474
 ,0.00055751,-0.00111670,-0.00096360,-0.00028596,0.00011894,0.00015497,
 0.00252412,0.00175572,0.01768354,-0.00412903,0.00017140,0.00139853,0.0
 0391413,-0.00083258,-0.00027173,0.00255591,0.06759249,-0.09000977,0.00
 939979,0.03012126,0.02132367,-0.01507348,-0.09719607,0.04739107,-0.166
 71284,-0.03236914,-0.09683716,-0.02347853,-0.01134565,-0.01698500,0.00
 230341,-0.00312382,-0.00764114,-0.01887003,-0.01087368,-0.01171924,0.0
 0058769,0.00170517,-0.00079882,0.00214094,0.00054283,-0.00020420,0.000
 91033,-0.00259655,0.00141679,0.00020507,0.00023314,0.00009510,-0.00079
 393,-0.00029699,-0.00055741,-0.00017515,-0.00008565,-0.00003837,-0.000
 03270,0.00012259,-0.00026414,0.00001400,-0.00002613,0.00003040,0.00002
 462,-0.00002363,-0.00001269,0.00004345,0.00002166,-0.00005425,-0.00005
 708,0.00018017,0.00028702,0.00004201,0.00000644,-0.00000680,-0.0000111
 6,-0.00002201,-0.00006360,0.00003736,-0.00000385,0.00003175,-0.0007342
 7,0.00028658,0.00018991,0.00019123,-0.00003033,0.00039260,0.00010948,-
 0.00007039,-0.00044252,0.00119741,-0.00087218,-0.00019844,-0.00078468,
 0.00003060,0.00020676,-0.00042120,0.00059600,0.00000980,0.58778580,-0.
 02599088,-0.11659545,-0.03071245,0.01907694,0.01101539,0.01580240,-0.0
 1175272,-0.00194488,-0.00875368,-0.03153219,-0.01445326,-0.02047184,0.
 00091650,0.00141193,-0.00088373,0.00018650,0.00230722,-0.00161000,-0.0
 0208552,-0.00516421,0.00322261,-0.00002602,0.00006284,0.00029498,-0.00
 124909,-0.00072544,-0.00076255,-0.00063333,-0.00073157,-0.00059322,-0.
 00019260,0.00026605,-0.00019683,0.00005906,-0.00014797,0.00009598,0.00
 006628,0.00008454,-0.00004031,0.00010092,-0.00009034,-0.00005982,-0.00
 054797,0.00040998,0.00040053,0.00009383,0.00013765,0.00001760,-0.00004
 141,-0.00016518,-0.00022497,0.00005609,-0.00006318,0.00000355,0.000355
 40,-0.00110539,0.00013042,-0.00010501,0.00000105,-0.00036648,-0.000090
 10,-0.00004634,0.00029005,-0.00007731,-0.00054946,0.00007708,0.0002773
 8,0.00054656,-0.00009792,-0.00003381,0.00073514,-0.00002899,-0.0173014
 7,0.70308360,-0.05279039,-0.01811463,-0.11915128,-0.00589349,-0.002256
 90,-0.00307391,-0.03323926,-0.01401533,-0.01987133,0.00514052,0.000940
 57,0.00916067,-0.00044308,-0.00048335,0.00194067,0.00036821,-0.0003293
 1,-0.00008636,0.00117619,0.00199752,-0.00063759,0.00098819,0.00061365,
 0.00035976,0.00024155,0.00026601,0.00024414,0.00007542,0.00002677,0.00
 069190,-0.00028515,0.00008768,-0.00020718,-0.00002788,-0.00003522,0.00
 004748,0.00001547,-0.00000369,0.00001826,-0.00001077,-0.00003177,-0.00
 004306,0.00007418,0.00004592,-0.00004820,0.00002050,-0.00000917,-0.000
 01061,0.00003477,-0.00003129,0.00001789,0.00005217,-0.00001764,0.00004
 785,-0.00025925,0.00005464,-0.00024904,0.00016779,-0.00004021,0.000180
 85,0.00002682,-0.00005753,-0.00013260,0.00046324,-0.00033482,-0.000038
 74,-0.00027764,0.00003519,0.00012511,-0.00014270,0.00026262,0.00013546
 ,0.06585107,-0.06155976,0.20348560,-0.02256684,0.02035567,0.00563368,-
 0.00313715,-0.00310748,-0.00329082,0.00222662,-0.00021344,-0.00036484,
 -0.00030472,0.00082423,-0.00003831,-0.00002324,0.00007721,-0.00010356,
 -0.00032819,-0.00122678,0.00032544,0.00015705,-0.00052985,-0.00025667,
 0.00006418,0.00005219,0.00006527,-0.00005923,-0.00005270,-0.00003847,0
 .00022822,0.00007265,0.00016502,0.00003474,-0.00004467,-0.00002349,-0.
 00001296,0.00003194,-0.00000653,-0.00001172,-0.00001657,0.00000729,-0.
 00001920,0.00002622,0.00001781,0.00007775,-0.00006917,-0.00006224,-0.0
 0001048,-0.00001504,-0.00000186,0.00000822,0.00003626,0.00003021,-0.00
 000510,0.00001151,0.00000627,-0.00015569,0.00027491,0.00000812,0.00004
 988,-0.00000444,0.00012780,0.00003169,-0.00000333,-0.00013405,0.000141
 44,-0.00003507,-0.00003663,-0.00012636,-0.00008974,0.00004901,-0.00002
 591,-0.00005118,0.00001597,-0.28832797,0.18822779,-0.00198053,0.302274
 30,-0.01212422,0.00941413,-0.00059807,-0.00263535,0.00040481,-0.001131
 79,-0.00060180,0.00038130,-0.00018919,-0.00068268,0.00228229,-0.000391
 92,0.00003885,-0.00009988,0.00000397,0.00057818,-0.00077933,0.00000200
 ,0.00017915,-0.00037070,-0.00014052,0.00010175,0.00005310,0.00006393,-
 0.00007017,-0.00005213,-0.00003078,0.00015263,0.00006933,0.00017108,0.
 00001145,-0.00001596,-0.00001199,-0.00001086,0.00001579,-0.00000035,-0
 .00001044,-0.00001184,0.00000256,-0.00001326,0.00001402,0.00001133,0.0
 0006042,-0.00003422,-0.00005061,-0.00000664,-0.00000880,-0.00000018,0.
 00000652,0.00002086,0.00002276,-0.00000246,0.00000474,0.00000384,-0.00
 012026,0.00013243,-0.00000052,0.00003754,-0.00000385,0.00006398,-0.000
 01733,-0.00001440,-0.00007858,0.00004900,-0.00002864,-0.00002007,-0.00
 005893,-0.00004299,0.00002733,0.00000254,-0.00002833,0.00001895,0.1771
 6929,-0.21167335,-0.00766667,-0.19411943,0.22264619,-0.02340577,0.0151
 4637,-0.00474108,-0.00336469,-0.00183647,-0.00185722,0.00027269,0.0017
 9715,0.00111244,0.00087054,-0.00042994,0.00039573,0.00036103,-0.000162
 40,-0.00012354,0.00011168,0.00014115,0.00055991,-0.00001786,0.00018123
 ,0.00003406,-0.00013854,-0.00002317,-0.00012164,0.00003525,0.00002598,
 0.00004706,-0.00000869,0.00003258,-0.00015339,0.00002650,-0.00002387,0
 .00004229,0.00001037,-0.00000307,-0.00001488,0.00000952,0.00001035,0.0
 0001011,0.00000755,-0.00002610,0.00000366,-0.00001289,0.00000824,0.000
 01830,-0.00000416,-0.00000026,0.00000588,-0.00000595,-0.00000368,-0.00
 000293,-0.00000641,0.00000636,-0.00000595,-0.00011307,0.00001720,-0.00
 001920,0.00001536,0.00000168,0.00005916,-0.00003293,-0.00004049,-0.000
 06526,-0.00000593,-0.00014466,0.00003307,0.00000430,0.00004875,-0.0000
 3142,0.00002167,0.00008147,-0.00001319,0.03653075,-0.03991339,-0.01628
 066,-0.00227468,0.01524753,0.02370884,-0.00892496,-0.02661853,0.013794
 66,0.00000366,0.00030242,0.00046212,0.00059391,0.00017783,-0.00040398,
 -0.00524011,-0.00119206,-0.00470982,0.00018583,0.00033862,-0.00023002,
 0.00025611,0.00004066,-0.00014819,-0.00015265,-0.00179337,0.00100437,0
 .00003716,0.00006180,-0.00002073,-0.00045176,-0.00024376,-0.00030149,-
 0.00002482,-0.00009566,-0.00012127,-0.00005041,0.00006118,-0.00003100,
 0.00001488,-0.00004337,0.00001915,0.00001541,0.00002530,-0.00001130,0.
 00002137,-0.00002794,-0.00002265,-0.00014294,0.00009232,0.00008427,0.0
 0002439,0.00004342,0.00000655,-0.00000601,-0.00004175,-0.00005749,0.00
 001225,-0.00001648,0.00000030,0.00000174,-0.00025732,0.00002302,-0.000
 02801,-0.00001578,-0.00005197,-0.00003135,-0.00005459,0.00005657,-0.00
 004519,-0.00032283,0.00005491,0.00010634,0.00021046,-0.00004285,0.0000
 4258,0.00030333,-0.00001046,-0.09519326,-0.11775728,0.02065405,0.00982
 067,0.03208649,-0.00888564,0.09915520,-0.00237006,-0.00801016,0.005596
 18,0.00038067,0.00124780,0.00025956,0.00079795,-0.00020348,0.00017421,
 -0.00109599,0.00068506,-0.00203021,0.00006512,0.00006034,0.00000631,0.
 00003878,0.00043378,-0.00013723,-0.00010737,0.00003692,0.00051635,-0.0
 0003866,-0.00003079,0.00000827,-0.00003110,-0.00002123,-0.00000909,-0.
 00007530,-0.00009487,-0.00011908,0.00002555,-0.00001142,-0.00001086,-0
 .00000323,0.00001390,0.00000128,-0.00000247,-0.00000297,0.00000041,-0.
 00000716,0.00000890,0.00001224,-0.00002716,0.00000560,0.00002534,-0.00
 000067,-0.00000287,0.00000114,-0.00000869,0.00000376,-0.00000895,-0.00
 000631,0.00000444,-0.00000471,0.00007170,-0.00002124,0.00002036,-0.000
 02091,0.00001532,-0.00002985,-0.00001641,0.00003651,0.00002567,-0.0000
 7008,0.00019573,-0.00001105,0.00002423,-0.00006938,0.00000093,0.000005
 40,-0.00014655,-0.00001211,-0.10185302,-0.36660594,0.10065671,-0.01041
 169,-0.02227458,0.00986145,0.11473688,0.39474744,-0.01047455,-0.025209
 04,0.00049374,0.00042475,0.00038778,0.00117979,-0.00031108,-0.00097686
 ,-0.00013929,-0.00071772,0.00050914,-0.00181910,-0.00029037,0.00001356
 ,0.00025005,0.00007656,-0.00021697,-0.00018617,-0.00048394,-0.00022247
 ,0.00047518,-0.00000658,0.00001831,0.00014358,-0.00003445,-0.00005920,
 0.00000841,-0.00004451,-0.00010817,-0.00002710,0.00003263,-0.00002418,
 0.00000482,-0.00000331,0.00002465,0.00000739,-0.00001010,-0.00000778,-
 0.00000216,-0.00002303,0.00002536,0.00002334,0.00003094,-0.00003350,-0
 .00001062,-0.00000950,-0.00000950,-0.00000056,-0.00000576,0.00002184,0
 .00000855,-0.00000912,0.00000635,-0.00000671,0.00007446,0.00004423,0.0
 0006222,-0.00001676,-0.00000615,-0.00002417,0.00000399,0.00005657,0.00
 001081,-0.00008341,0.00018563,-0.00000997,0.00003104,-0.00007994,-0.00
 000933,0.00001830,-0.00015914,-0.00005149,0.03078183,0.14594074,-0.056
 62506,0.00216079,-0.00532801,-0.00260015,-0.02111110,-0.11479326,0.058
 84399\\-0.00002137,-0.00000340,-0.00001647,0.00000255,0.00000065,-0.00
 000081,0.00000242,0.00000070,0.00000395,0.00001780,0.00002534,-0.00000
 120,0.00000213,-0.00000219,-0.00000171,-0.00000207,-0.00000859,-0.0000
 0062,-0.00001300,-0.00001596,-0.00000150,0.00000019,0.00000124,0.00000
 005,-0.00000095,0.00000116,0.00000190,0.00000527,0.00001131,-0.0000036
 2,0.00000205,0.00000501,0.00000541,-0.00000252,-0.00000063,-0.00000076
 ,-0.00000280,0.00000007,0.00000016,-0.00000082,-0.00000172,-0.00000135
 ,-0.00000289,-0.00000344,0.00000071,-0.00000082,0.00000107,-0.00000035
 ,-0.00000155,0.00000292,-0.00000011,-0.00000168,0.00000127,0.00000039,
 0.00000548,-0.00000601,0.00000774,-0.00000436,0.00000276,0.00000044,0.
 00000189,-0.00000059,0.00000121,-0.00000337,-0.00001050,-0.00001823,0.
 00000537,-0.00000287,0.00000780,0.00000409,0.00000712,0.00000616,-0.00
 002605,-0.00001105,0.00003294,0.00002097,-0.00000465,-0.00000991,0.000
 01403,0.00001098,-0.00001220\\\@


 "I COULD HAVE DONE IT IN A MUCH MORE COMPLICATED WAY"
 SAID THE RED QUEEN, IMMENSELY PROUD.

                                      -- LEWIS CARROLL
 Job cpu time:       0 days 11 hours 12 minutes  7.7 seconds.
 Elapsed time:       0 days  1 hours 28 minutes 35.1 seconds.
 File lengths (MBytes):  RWF=    409 Int=      0 D2E=      0 Chk=     17 Scr=      1
 Normal termination of Gaussian 16 at Mon Sep 28 21:49:53 2026.
