 Entering Gaussian System, Link 0=/applications/g16/g16/g16
 Initial command:
 /applications/g16/g16/l1.exe "/scratch/g98/Gau-51236.inp" -scrdir="/scratch/g98/"
 Entering Link 1 = /applications/g16/g16/l1.exe PID=     51237.
  
 Copyright (c) 1988,1990,1992,1993,1995,1998,2003,2009,2016,
            Gaussian, Inc.  All Rights Reserved.
  
 This is part of the Gaussian(R) 16 program.  It is based on
 the Gaussian(R) 09 system (copyright 2009, Gaussian, Inc.),
 the Gaussian(R) 03 system (copyright 2003, Gaussian, Inc.),
 the Gaussian(R) 98 system (copyright 1998, Gaussian, Inc.),
 the Gaussian(R) 94 system (copyright 1995, Gaussian, Inc.),
 the Gaussian 92(TM) system (copyright 1992, Gaussian, Inc.),
 the Gaussian 90(TM) system (copyright 1990, Gaussian, Inc.),
 the Gaussian 88(TM) system (copyright 1988, Gaussian, Inc.),
 the Gaussian 86(TM) system (copyright 1986, Carnegie Mellon
 University), and the Gaussian 82(TM) system (copyright 1983,
 Carnegie Mellon University). Gaussian is a federally registered
 trademark of Gaussian, Inc.
  
 This software contains proprietary and confidential information,
 including trade secrets, belonging to Gaussian, Inc.
  
 This software is provided under written license and may be
 used, copied, transmitted, or stored only in accord with that
 written license.
  
 The following legend is applicable only to US Government
 contracts under FAR:
  
                    RESTRICTED RIGHTS LEGEND
  
 Use, reproduction and disclosure by the US Government is
 subject to restrictions as set forth in subparagraphs (a)
 and (c) of the Commercial Computer Software - Restricted
 Rights clause in FAR 52.227-19.
  
 Gaussian, Inc.
 340 Quinnipiac St., Bldg. 40, Wallingford CT 06492
  
  
 ---------------------------------------------------------------
 Warning -- This program may not be used in any manner that
 competes with the business of Gaussian, Inc. or will provide
 assistance to any competitor of Gaussian, Inc.  The licensee
 of this program is prohibited from giving any competitor of
 Gaussian, Inc. access to this program.  By using this program,
 the user acknowledges that Gaussian, Inc. is engaged in the
 business of creating and licensing software in the field of
 computational chemistry and represents and warrants to the
 licensee that it is not a competitor of Gaussian, Inc. and that
 it will not use this program in any manner prohibited above.
 ---------------------------------------------------------------
  

 Cite this work as:
 Gaussian 16, Revision A.03,
 M. J. Frisch, G. W. Trucks, H. B. Schlegel, G. E. Scuseria, 
 M. A. Robb, J. R. Cheeseman, G. Scalmani, V. Barone, 
 G. A. Petersson, H. Nakatsuji, X. Li, M. Caricato, A. V. Marenich, 
 J. Bloino, B. G. Janesko, R. Gomperts, B. Mennucci, H. P. Hratchian, 
 J. V. Ortiz, A. F. Izmaylov, J. L. Sonnenberg, D. Williams-Young, 
 F. Ding, F. Lipparini, F. Egidi, J. Goings, B. Peng, A. Petrone, 
 T. Henderson, D. Ranasinghe, V. G. Zakrzewski, J. Gao, N. Rega, 
 G. Zheng, W. Liang, M. Hada, M. Ehara, K. Toyota, R. Fukuda, 
 J. Hasegawa, M. Ishida, T. Nakajima, Y. Honda, O. Kitao, H. Nakai, 
 T. Vreven, K. Throssell, J. A. Montgomery, Jr., J. E. Peralta, 
 F. Ogliaro, M. J. Bearpark, J. J. Heyd, E. N. Brothers, K. N. Kudin, 
 V. N. Staroverov, T. A. Keith, R. Kobayashi, J. Normand, 
 K. Raghavachari, A. P. Rendell, J. C. Burant, S. S. Iyengar, 
 J. Tomasi, M. Cossi, J. M. Millam, M. Klene, C. Adamo, R. Cammi, 
 J. W. Ochterski, R. L. Martin, K. Morokuma, O. Farkas, 
 J. B. Foresman, and D. J. Fox, Gaussian, Inc., Wallingford CT, 2016.
 
 ******************************************
 Gaussian 16:  EM64M-G16RevA.03 25-Dec-2016
                 4-Oct-2026 
 ******************************************
 %nprocshared=22
 Will use up to   22 processors via shared memory.
 %mem=48GB
 %chk=ch4.chk
 -----------------------------------------
 # opt freq rwb97xd/6-311+g(2d,2p) scf=xqc
 -----------------------------------------
 1/18=20,19=15,26=3,38=1/1,3;
 2/9=110,12=2,17=6,18=5,40=1/2;
 3/5=4,6=6,7=212,11=2,25=1,30=1,71=1,74=-58,116=1/1,2,3;
 4//1;
 5/5=2,8=3,13=1,38=5/2,8;
 6/7=2,8=2,9=2,10=2,28=1/1;
 7//1,2,3,16;
 1/18=20,19=15,26=3/3(2);
 2/9=110/2;
 99//99;
 2/9=110/2;
 3/5=4,6=6,7=212,11=2,25=1,30=1,71=1,74=-58,116=1/1,2,3;
 4/5=5,16=3,69=1/1;
 5/5=2,8=3,13=1,38=5/2,8;
 7//1,2,3,16;
 1/18=20,19=15,26=3/3(-5);
 2/9=110/2;
 6/7=2,8=2,9=2,10=2,19=2,28=1/1;
 99/9=1/99;
 --------
 opt freq
 --------
 Symbolic Z-matrix:
 Charge =  0 Multiplicity = 1
 C                    -0.02219  -0.07112   0.11255 
 H                     0.33446  -1.07993   0.11255 
 H                     0.33448   0.43328   0.98621 
 H                     0.33448   0.43328  -0.7611 
 H                    -1.09219  -0.0711    0.11255 
 

 GradGradGradGradGradGradGradGradGradGradGradGradGradGradGradGradGradGrad
 Berny optimization.
 Initialization pass.
                           ----------------------------
                           !    Initial Parameters    !
                           ! (Angstroms and Degrees)  !
 --------------------------                            --------------------------
 ! Name  Definition              Value          Derivative Info.                !
 --------------------------------------------------------------------------------
 ! R1    R(1,2)                  1.07           estimate D2E/DX2                !
 ! R2    R(1,3)                  1.07           estimate D2E/DX2                !
 ! R3    R(1,4)                  1.07           estimate D2E/DX2                !
 ! R4    R(1,5)                  1.07           estimate D2E/DX2                !
 ! A1    A(2,1,3)              109.4712         estimate D2E/DX2                !
 ! A2    A(2,1,4)              109.4712         estimate D2E/DX2                !
 ! A3    A(2,1,5)              109.4712         estimate D2E/DX2                !
 ! A4    A(3,1,4)              109.4713         estimate D2E/DX2                !
 ! A5    A(3,1,5)              109.4712         estimate D2E/DX2                !
 ! A6    A(4,1,5)              109.4712         estimate D2E/DX2                !
 ! D1    D(2,1,4,3)           -120.0            estimate D2E/DX2                !
 ! D2    D(2,1,5,3)            120.0            estimate D2E/DX2                !
 ! D3    D(2,1,5,4)           -120.0            estimate D2E/DX2                !
 ! D4    D(3,1,5,4)            120.0            estimate D2E/DX2                !
 --------------------------------------------------------------------------------
 Trust Radius=3.00D-01 FncErr=1.00D-07 GrdErr=1.00D-06 EigMax=2.50D+02 EigMin=1.00D-04
 Number of steps in this run=     24 maximum allowed number of steps=    100.
 GradGradGradGradGradGradGradGradGradGradGradGradGradGradGradGradGradGrad

                          Input orientation:                          
 ---------------------------------------------------------------------
 Center     Atomic      Atomic             Coordinates (Angstroms)
 Number     Number       Type             X           Y           Z
 ---------------------------------------------------------------------
      1          6           0       -0.022193   -0.071115    0.112555
      2          1           0        0.334462   -1.079925    0.112555
      3          1           0        0.334480    0.433283    0.986206
      4          1           0        0.334480    0.433283   -0.761097
      5          1           0       -1.092193   -0.071102    0.112555
 ---------------------------------------------------------------------
                    Distance matrix (angstroms):
                    1          2          3          4          5
     1  C    0.000000
     2  H    1.070000   0.000000
     3  H    1.070000   1.747302   0.000000
     4  H    1.070000   1.747302   1.747303   0.000000
     5  H    1.070000   1.747303   1.747303   1.747303   0.000000
 Stoichiometry    CH4
 Framework group  T[O(C),4C3(H)]
 Deg. of freedom     1
 Full point group                 T       NOp  12
 Largest Abelian subgroup         D2      NOp   4
 Largest concise Abelian subgroup D2      NOp   4
                         Standard orientation:                         
 ---------------------------------------------------------------------
 Center     Atomic      Atomic             Coordinates (Angstroms)
 Number     Number       Type             X           Y           Z
 ---------------------------------------------------------------------
      1          6           0        0.000000   -0.000000   -0.000000
      2          1           0        0.617765    0.617765    0.617765
      3          1           0       -0.617765   -0.617765    0.617765
      4          1           0       -0.617765    0.617765   -0.617765
      5          1           0        0.617765   -0.617765   -0.617765
 ---------------------------------------------------------------------
 Rotational constants (GHZ):         164.2463772         164.2463772         164.2463772
 Standard basis: 6-311+G(2d,2p) (5D, 7F)
 There are    20 symmetry adapted cartesian basis functions of A   symmetry.
 There are    15 symmetry adapted cartesian basis functions of B1  symmetry.
 There are    15 symmetry adapted cartesian basis functions of B2  symmetry.
 There are    15 symmetry adapted cartesian basis functions of B3  symmetry.
 There are    18 symmetry adapted basis functions of A   symmetry.
 There are    15 symmetry adapted basis functions of B1  symmetry.
 There are    15 symmetry adapted basis functions of B2  symmetry.
 There are    15 symmetry adapted basis functions of B3  symmetry.
    63 basis functions,    86 primitive gaussians,    65 cartesian basis functions
     5 alpha electrons        5 beta electrons
       nuclear repulsion energy        13.6865185034 Hartrees.
 NAtoms=    5 NActive=    5 NUniq=    2 SFac= 4.00D+00 NAtFMM=   60 NAOKFM=F Big=F
 Integral buffers will be    131072 words long.
 Raffenetti 2 integral format.
 Two-electron integral symmetry is turned on.
 Nuclear repulsion after empirical dispersion term =       13.6861600100 Hartrees.
 One-electron integrals computed using PRISM.
 NBasis=    63 RedAO= T EigKep=  2.18D-03  NBF=    18    15    15    15
 NBsUse=    63 1.00D-06 EigRej= -1.00D+00 NBFU=    18    15    15    15
 ExpMin= 4.38D-02 ExpMax= 4.56D+03 ExpMxC= 6.82D+02 IAcc=3 IRadAn=         5 AccDes= 0.00D+00
 Harris functional with IExCor= 4639 and IRadAn=       5 diagonalized for initial guess.
 HarFok:  IExCor= 4639 AccDes= 0.00D+00 IRadAn=         5 IDoV= 1 UseB2=F ITyADJ=14
 ICtDFT=  3500011 ScaDFX=  1.000000  1.000000  1.000000  1.000000
 FoFCou: FMM=F IPFlag=           0 FMFlag=      100000 FMFlg1=           0
         NFxFlg=           0 DoJE=T BraDBF=F KetDBF=T FulRan=T
         wScrn=  0.000000 ICntrl=       500 IOpCl=  0 I1Cent=   200000004 NGrid=           0
         NMat0=    1 NMatS0=      1 NMatT0=    0 NMatD0=    1 NMtDS0=    0 NMtDT0=    0
 Petite list used in FoFCou.
 Initial guess orbital symmetries:
       Occupied  (A) (A) (T) (T) (T)
       Virtual   (A) (T) (T) (T) (T) (T) (T) (A) (T) (T) (T) (E)
                 (E) (T) (T) (T) (A) (A) (T) (T) (T) (T) (T) (T)
                 (T) (T) (T) (E) (E) (T) (T) (T) (A) (T) (T) (T)
                 (A) (T) (T) (T) (E) (E) (T) (T) (T) (T) (T) (T)
                 (E) (E) (T) (T) (T) (A) (T) (T) (T) (A)
 The electronic state of the initial guess is 1-A.
 Keep R1 ints in memory in symmetry-blocked form, NReq=23607959.
 Requested convergence on RMS density matrix=1.00D-08 within  32 cycles.
 Requested convergence on MAX density matrix=1.00D-06.
 Requested convergence on             energy=1.00D-06.
 No special actions if energy rises.
 SCF Done:  E(RwB97XD) =  -40.5173296551     A.U. after    8 cycles
            NFock=  8  Conv=0.44D-08     -V/T= 2.0033
 QCSCF skips out because SCF is already converged.

 **********************************************************************

            Population analysis using the SCF density.

 **********************************************************************

 Orbital symmetries:
       Occupied  (A) (A) (T) (T) (T)
       Virtual   (A) (T) (T) (T) (T) (T) (T) (A) (T) (T) (T) (E)
                 (E) (T) (T) (T) (A) (A) (T) (T) (T) (T) (T) (T)
                 (T) (T) (T) (E) (E) (T) (T) (T) (A) (T) (T) (T)
                 (A) (T) (T) (T) (E) (E) (T) (T) (T) (T) (T) (T)
                 (T) (T) (T) (E) (E) (A) (T) (T) (T) (A)
 The electronic state is 1-A.
 Alpha  occ. eigenvalues --  -10.25181  -0.79773  -0.48019  -0.48019  -0.48019
 Alpha virt. eigenvalues --    0.07069   0.11107   0.11107   0.11107   0.22776
 Alpha virt. eigenvalues --    0.22776   0.22776   0.27238   0.47507   0.47507
 Alpha virt. eigenvalues --    0.47507   0.57681   0.57681   0.59623   0.59623
 Alpha virt. eigenvalues --    0.59623   0.69392   0.78742   0.95996   0.95996
 Alpha virt. eigenvalues --    0.95996   1.13042   1.13042   1.13042   1.23850
 Alpha virt. eigenvalues --    1.23850   1.23850   1.47207   1.47207   1.48797
 Alpha virt. eigenvalues --    1.48797   1.48797   1.67488   2.57858   2.57858
 Alpha virt. eigenvalues --    2.57858   2.76379   3.23586   3.23586   3.23586
 Alpha virt. eigenvalues --    3.31968   3.31968   3.67925   3.67925   3.67925
 Alpha virt. eigenvalues --    3.88600   3.88600   3.88600   4.21191   4.21191
 Alpha virt. eigenvalues --    4.21191   4.21819   4.21819   4.32846   5.21250
 Alpha virt. eigenvalues --    5.21250   5.21250  24.22011
          Condensed to atoms (all electrons):
               1          2          3          4          5
     1  C    4.728511   0.405548   0.405548   0.405548   0.405548
     2  H    0.405548   0.576366  -0.023196  -0.023196  -0.023196
     3  H    0.405548  -0.023196   0.576366  -0.023196  -0.023196
     4  H    0.405548  -0.023196  -0.023196   0.576366  -0.023196
     5  H    0.405548  -0.023196  -0.023196  -0.023196   0.576366
 Mulliken charges:
               1
     1  C   -0.350701
     2  H    0.087675
     3  H    0.087675
     4  H    0.087675
     5  H    0.087675
 Sum of Mulliken charges =  -0.00000
 Mulliken charges with hydrogens summed into heavy atoms:
               1
     1  C   -0.000000
 Electronic spatial extent (au):  <R**2>=             34.8952
 Charge=             -0.0000 electrons
 Dipole moment (field-independent basis, Debye):
    X=              0.0000    Y=             -0.0000    Z=              0.0000  Tot=              0.0000
 Quadrupole moment (field-independent basis, Debye-Ang):
   XX=             -8.3128   YY=             -8.3128   ZZ=             -8.3128
   XY=              0.0000   XZ=             -0.0000   YZ=             -0.0000
 Traceless Quadrupole moment (field-independent basis, Debye-Ang):
   XX=              0.0000   YY=             -0.0000   ZZ=             -0.0000
   XY=              0.0000   XZ=             -0.0000   YZ=             -0.0000
 Octapole moment (field-independent basis, Debye-Ang**2):
  XXX=              0.0000  YYY=             -0.0000  ZZZ=              0.0000  XYY=              0.0000
  XXY=             -0.0000  XXZ=              0.0000  XZZ=              0.0000  YZZ=             -0.0000
  YYZ=              0.0000  XYZ=              0.7104
 Hexadecapole moment (field-independent basis, Debye-Ang**3):
 XXXX=            -16.2374 YYYY=            -16.2374 ZZZZ=            -16.2374 XXXY=             -0.0000
 XXXZ=              0.0000 YYYX=             -0.0000 YYYZ=              0.0000 ZZZX=              0.0000
 ZZZY=             -0.0000 XXYY=             -4.9109 XXZZ=             -4.9109 YYZZ=             -4.9109
 XXYZ=             -0.0000 YYXZ=              0.0000 ZZXY=              0.0000
 N-N= 1.368616000998D+01 E-N=-1.207214850817D+02  KE= 4.038566956651D+01
 Symmetry A    KE= 3.446447851898D+01
 Symmetry B1   KE= 1.973730349174D+00
 Symmetry B2   KE= 1.973730349174D+00
 Symmetry B3   KE= 1.973730349174D+00
 Calling FoFJK, ICntrl=      2127 FMM=F ISym2X=1 I1Cent= 0 IOpClX= 0 NMat=1 NMatS=1 NMatT=0.
 ***** Axes restored to original set *****
 -------------------------------------------------------------------
 Center     Atomic                   Forces (Hartrees/Bohr)
 Number     Number              X              Y              Z
 -------------------------------------------------------------------
      1        6           0.000000000   -0.000000000   -0.000000000
      2        1           0.004219050   -0.011933735   -0.000000011
      3        1           0.004219275    0.005966785    0.010334873
      4        1           0.004219258    0.005966797   -0.010334873
      5        1          -0.012657583    0.000000153    0.000000011
 -------------------------------------------------------------------
 Cartesian Forces:  Max     0.012657583 RMS     0.006536348

 GradGradGradGradGradGradGradGradGradGradGradGradGradGradGradGradGradGrad
 Berny optimization.
 FormGI is forming the generalized inverse of G from B-inverse, IUseBI=4.
 Internal  Forces:  Max     0.012657583 RMS     0.006765763
 Search for a local minimum.
 Step number   1 out of a maximum of   24
 All quantities printed in internal units (Hartrees-Bohrs-Radians)
 Mixed Optimization -- RFO/linear search
 Second derivative matrix not updated -- first step.
 The second derivative matrix:
                          R1        R2        R3        R4        A1
           R1           0.37230
           R2           0.00000   0.37230
           R3           0.00000   0.00000   0.37230
           R4           0.00000   0.00000   0.00000   0.37230
           A1           0.00000   0.00000   0.00000   0.00000   0.16000
           A2           0.00000   0.00000   0.00000   0.00000   0.00000
           A3           0.00000   0.00000   0.00000   0.00000   0.00000
           A4           0.00000   0.00000   0.00000   0.00000   0.00000
           A5           0.00000   0.00000   0.00000   0.00000   0.00000
           A6           0.00000   0.00000   0.00000   0.00000   0.00000
           D1           0.00000   0.00000   0.00000   0.00000   0.00000
           D2           0.00000   0.00000   0.00000   0.00000   0.00000
           D3           0.00000   0.00000   0.00000   0.00000   0.00000
           D4           0.00000   0.00000   0.00000   0.00000   0.00000
                          A2        A3        A4        A5        A6
           A2           0.16000
           A3           0.00000   0.16000
           A4           0.00000   0.00000   0.16000
           A5           0.00000   0.00000   0.00000   0.16000
           A6           0.00000   0.00000   0.00000   0.00000   0.16000
           D1           0.00000   0.00000   0.00000   0.00000   0.00000
           D2           0.00000   0.00000   0.00000   0.00000   0.00000
           D3           0.00000   0.00000   0.00000   0.00000   0.00000
           D4           0.00000   0.00000   0.00000   0.00000   0.00000
                          D1        D2        D3        D4
           D1           0.00499
           D2           0.00000   0.00499
           D3           0.00000   0.00000   0.00499
           D4           0.00000   0.00000   0.00000   0.00499
 ITU=  0
     Eigenvalues ---    0.05269   0.05891   0.08766   0.16000   0.16000
     Eigenvalues ---    0.37230   0.37230   0.37230   0.37230
 RFO step:  Lambda=-1.71345664D-03 EMin= 5.26881004D-02
 Linear search not attempted -- first point.
 Iteration  1 RMS(Cart)=  0.01808957 RMS(Int)=  0.00000000
 Iteration  2 RMS(Cart)=  0.00000000 RMS(Int)=  0.00000000
 ClnCor:  largest displacement from symmetrization is 3.26D-14 for atom     4.
 Variable       Old X    -DE/DX   Delta X   Delta X   Delta X     New X
                                 (Linear)    (Quad)   (Total)
    R1        2.02201   0.01266   0.00000   0.03384   0.03384   2.05585
    R2        2.02201   0.01266   0.00000   0.03384   0.03384   2.05585
    R3        2.02201   0.01266   0.00000   0.03384   0.03384   2.05585
    R4        2.02201   0.01266   0.00000   0.03384   0.03384   2.05585
    A1        1.91063  -0.00000   0.00000  -0.00000   0.00000   1.91063
    A2        1.91063  -0.00000   0.00000  -0.00000   0.00000   1.91063
    A3        1.91063   0.00000   0.00000   0.00000   0.00000   1.91063
    A4        1.91063   0.00000   0.00000   0.00000   0.00000   1.91063
    A5        1.91063  -0.00000   0.00000  -0.00000   0.00000   1.91063
    A6        1.91063   0.00000   0.00000   0.00000   0.00000   1.91063
    D1       -2.09440  -0.00000   0.00000   0.00000  -0.00000  -2.09440
    D2        2.09440  -0.00000   0.00000  -0.00000   0.00000   2.09440
    D3       -2.09440   0.00000   0.00000   0.00000  -0.00000  -2.09440
    D4        2.09440   0.00000   0.00000   0.00000  -0.00000   2.09440
         Item               Value     Threshold  Converged?
 Maximum Force            0.012658     0.000450     NO 
 RMS     Force            0.006766     0.000300     NO 
 Maximum Displacement     0.033842     0.001800     NO 
 RMS     Displacement     0.018090     0.001200     NO 
 Predicted change in Energy=-8.606531D-04
 GradGradGradGradGradGradGradGradGradGradGradGradGradGradGradGradGradGrad

                          Input orientation:                          
 ---------------------------------------------------------------------
 Center     Atomic      Atomic             Coordinates (Angstroms)
 Number     Number       Type             X           Y           Z
 ---------------------------------------------------------------------
      1          6           0       -0.022193   -0.071115    0.112555
      2          1           0        0.340431   -1.096810    0.112554
      3          1           0        0.340451    0.441725    1.000828
      4          1           0        0.340449    0.441726   -0.775719
      5          1           0       -1.110101   -0.071102    0.112556
 ---------------------------------------------------------------------
                    Distance matrix (angstroms):
                    1          2          3          4          5
     1  C    0.000000
     2  H    1.087909   0.000000
     3  H    1.087909   1.776547   0.000000
     4  H    1.087909   1.776547   1.776547   0.000000
     5  H    1.087909   1.776547   1.776547   1.776547   0.000000
 Stoichiometry    CH4
 Framework group  TD[O(C),4C3(H)]
 Deg. of freedom     1
 Full point group                 TD      NOp  24
 Omega: Change in point group or standard orientation.

 Old FWG=T    [O(C1),4C3(H1)]
 New FWG=TD   [O(C1),4C3(H1)]
 Largest Abelian subgroup         D2      NOp   4
 Largest concise Abelian subgroup D2      NOp   4
                         Standard orientation:                         
 ---------------------------------------------------------------------
 Center     Atomic      Atomic             Coordinates (Angstroms)
 Number     Number       Type             X           Y           Z
 ---------------------------------------------------------------------
      1          6           0        0.000000    0.000000    0.000000
      2          1           0        0.628104    0.628104    0.628104
      3          1           0       -0.628104   -0.628104    0.628104
      4          1           0       -0.628104    0.628104   -0.628104
      5          1           0        0.628104   -0.628104   -0.628104
 ---------------------------------------------------------------------
 Rotational constants (GHZ):         158.8833819         158.8833819         158.8833819
 Standard basis: 6-311+G(2d,2p) (5D, 7F)
 There are    20 symmetry adapted cartesian basis functions of A   symmetry.
 There are    15 symmetry adapted cartesian basis functions of B1  symmetry.
 There are    15 symmetry adapted cartesian basis functions of B2  symmetry.
 There are    15 symmetry adapted cartesian basis functions of B3  symmetry.
 There are    18 symmetry adapted basis functions of A   symmetry.
 There are    15 symmetry adapted basis functions of B1  symmetry.
 There are    15 symmetry adapted basis functions of B2  symmetry.
 There are    15 symmetry adapted basis functions of B3  symmetry.
    63 basis functions,    86 primitive gaussians,    65 cartesian basis functions
     5 alpha electrons        5 beta electrons
       nuclear repulsion energy        13.4612170508 Hartrees.
 NAtoms=    5 NActive=    5 NUniq=    2 SFac= 4.00D+00 NAtFMM=   60 NAOKFM=F Big=F
 Integral buffers will be    131072 words long.
 Raffenetti 2 integral format.
 Two-electron integral symmetry is turned on.
 Nuclear repulsion after empirical dispersion term =       13.4608237194 Hartrees.
 One-electron integrals computed using PRISM.
 NBasis=    63 RedAO= T EigKep=  2.30D-03  NBF=    18    15    15    15
 NBsUse=    63 1.00D-06 EigRej= -1.00D+00 NBFU=    18    15    15    15
 Initial guess from the checkpoint file:  "ch4.chk"
 B after Tr=     0.000000   -0.000000   -0.000000
         Rot=    1.000000   -0.000000   -0.000000    0.000000 Ang=   0.00 deg.
 Initial guess orbital symmetries:
       Occupied  (A1) (A1) (T2) (T2) (T2)
       Virtual   (A1) (T2) (T2) (T2) (T2) (T2) (T2) (A1) (T2) (T2)
                 (T2) (E) (E) (T2) (T2) (T2) (A1) (A1) (T1) (T1)
                 (T1) (T2) (T2) (T2) (T2) (T2) (T2) (E) (E) (T2)
                 (T2) (T2) (A1) (T2) (T2) (T2) (A1) (T2) (T2) (T2)
                 (E) (E) (T2) (T2) (T2) (T1) (T1) (T1) (T2) (T2)
                 (T2) (E) (E) (A1) (T2) (T2) (T2) (A1)
 ExpMin= 4.38D-02 ExpMax= 4.56D+03 ExpMxC= 6.82D+02 IAcc=2 IRadAn=         4 AccDes= 0.00D+00
 Harris functional with IExCor= 4639 and IRadAn=       4 diagonalized for initial guess.
 HarFok:  IExCor= 4639 AccDes= 0.00D+00 IRadAn=         4 IDoV= 1 UseB2=F ITyADJ=14
 ICtDFT=  3500011 ScaDFX=  1.000000  1.000000  1.000000  1.000000
 FoFCou: FMM=F IPFlag=           0 FMFlag=      100000 FMFlg1=           0
         NFxFlg=           0 DoJE=T BraDBF=F KetDBF=T FulRan=T
         wScrn=  0.000000 ICntrl=       500 IOpCl=  0 I1Cent=   200000004 NGrid=           0
         NMat0=    1 NMatS0=      1 NMatT0=    0 NMatD0=    1 NMtDS0=    0 NMtDT0=    0
 Petite list used in FoFCou.
 Keep R1 ints in memory in symmetry-blocked form, NReq=23608283.
 Requested convergence on RMS density matrix=1.00D-08 within  32 cycles.
 Requested convergence on MAX density matrix=1.00D-06.
 Requested convergence on             energy=1.00D-06.
 No special actions if energy rises.
 SCF Done:  E(RwB97XD) =  -40.5181772212     A.U. after    7 cycles
            NFock=  7  Conv=0.22D-08     -V/T= 2.0057
 QCSCF skips out because SCF is already converged.
 Calling FoFJK, ICntrl=      2127 FMM=F ISym2X=1 I1Cent= 0 IOpClX= 0 NMat=1 NMatS=1 NMatT=0.
 ***** Axes restored to original set *****
 -------------------------------------------------------------------
 Center     Atomic                   Forces (Hartrees/Bohr)
 Number     Number              X              Y              Z
 -------------------------------------------------------------------
      1        6          -0.000000000   -0.000000000   -0.000000000
      2        1           0.000022563   -0.000063821   -0.000000000
      3        1           0.000022565    0.000031910    0.000055271
      4        1           0.000022565    0.000031910   -0.000055271
      5        1          -0.000067692    0.000000001    0.000000000
 -------------------------------------------------------------------
 Cartesian Forces:  Max     0.000067692 RMS     0.000034956

 GradGradGradGradGradGradGradGradGradGradGradGradGradGradGradGradGradGrad
 Berny optimization.
 Using GEDIIS/GDIIS optimizer.
 FormGI is forming the generalized inverse of G from B-inverse, IUseBI=4.
 Internal  Forces:  Max     0.000067692 RMS     0.000036183
 Search for a local minimum.
 Step number   2 out of a maximum of   24
 All quantities printed in internal units (Hartrees-Bohrs-Radians)
 Mixed Optimization -- En-DIIS/RFO-DIIS
 Update second derivatives using D2CorX and points    1    2
 DE= -8.48D-04 DEPred=-8.61D-04 R= 9.85D-01
 TightC=F SS=  1.41D+00  RLast= 6.77D-02 DXNew= 5.0454D-01 2.0305D-01
 Trust test= 9.85D-01 RLast= 6.77D-02 DXMaxT set to 3.00D-01
 The second derivative matrix:
                          R1        R2        R3        R4        A1
           R1           0.37223
           R2          -0.00007   0.37223
           R3          -0.00007  -0.00007   0.37223
           R4          -0.00007  -0.00007  -0.00007   0.37223
           A1          -0.00000  -0.00000  -0.00000  -0.00000   0.16000
           A2          -0.00000  -0.00000  -0.00000  -0.00000   0.00000
           A3           0.00000   0.00000   0.00000   0.00000  -0.00000
           A4           0.00000   0.00000   0.00000   0.00000  -0.00000
           A5          -0.00000  -0.00000  -0.00000  -0.00000   0.00000
           A6          -0.00000  -0.00000  -0.00000  -0.00000   0.00000
           D1          -0.00000  -0.00000  -0.00000  -0.00000   0.00000
           D2          -0.00000  -0.00000  -0.00000  -0.00000   0.00000
           D3           0.00000   0.00000   0.00000   0.00000  -0.00000
           D4           0.00000   0.00000   0.00000   0.00000  -0.00000
                          A2        A3        A4        A5        A6
           A2           0.16000
           A3          -0.00000   0.16000
           A4          -0.00000   0.00000   0.16000
           A5           0.00000  -0.00000  -0.00000   0.16000
           A6           0.00000  -0.00000  -0.00000   0.00000   0.16000
           D1           0.00000  -0.00000  -0.00000   0.00000   0.00000
           D2           0.00000  -0.00000  -0.00000   0.00000   0.00000
           D3          -0.00000   0.00000   0.00000  -0.00000  -0.00000
           D4          -0.00000   0.00000   0.00000  -0.00000  -0.00000
                          D1        D2        D3        D4
           D1           0.00499
           D2           0.00000   0.00499
           D3          -0.00000  -0.00000   0.00499
           D4          -0.00000  -0.00000   0.00000   0.00499
 ITU=  1  0
 Use linear search instead of GDIIS.
     Eigenvalues ---    0.05269   0.05891   0.08766   0.16000   0.16000
     Eigenvalues ---    0.37201   0.37230   0.37230   0.37230
 RFO step:  Lambda= 0.00000000D+00 EMin= 5.26881004D-02
 Quartic linear search produced a step of  0.00565.
 Iteration  1 RMS(Cart)=  0.00010219 RMS(Int)=  0.00000000
 Iteration  2 RMS(Cart)=  0.00000000 RMS(Int)=  0.00000000
 ClnCor:  largest displacement from symmetrization is 4.24D-14 for atom     5.
 Variable       Old X    -DE/DX   Delta X   Delta X   Delta X     New X
                                 (Linear)    (Quad)   (Total)
    R1        2.05585   0.00007   0.00019  -0.00000   0.00019   2.05604
    R2        2.05585   0.00007   0.00019  -0.00000   0.00019   2.05604
    R3        2.05585   0.00007   0.00019   0.00000   0.00019   2.05604
    R4        2.05585   0.00007   0.00019   0.00000   0.00019   2.05604
    A1        1.91063   0.00000  -0.00000  -0.00000   0.00000   1.91063
    A2        1.91063  -0.00000  -0.00000   0.00000  -0.00000   1.91063
    A3        1.91063  -0.00000   0.00000  -0.00000   0.00000   1.91063
    A4        1.91063  -0.00000   0.00000  -0.00000   0.00000   1.91063
    A5        1.91063   0.00000  -0.00000   0.00000  -0.00000   1.91063
    A6        1.91063   0.00000  -0.00000   0.00000   0.00000   1.91063
    D1       -2.09440   0.00000   0.00000   0.00000  -0.00000  -2.09440
    D2        2.09440   0.00000  -0.00000   0.00000   0.00000   2.09440
    D3       -2.09440  -0.00000   0.00000  -0.00000   0.00000  -2.09440
    D4        2.09440  -0.00000   0.00000  -0.00000   0.00000   2.09440
         Item               Value     Threshold  Converged?
 Maximum Force            0.000068     0.000450     YES
 RMS     Force            0.000036     0.000300     YES
 Maximum Displacement     0.000191     0.001800     YES
 RMS     Displacement     0.000102     0.001200     YES
 Predicted change in Energy=-2.457159D-08
 Optimization completed.
    -- Stationary point found.
                           ----------------------------
                           !   Optimized Parameters   !
                           ! (Angstroms and Degrees)  !
 --------------------------                            --------------------------
 ! Name  Definition              Value          Derivative Info.                !
 --------------------------------------------------------------------------------
 ! R1    R(1,2)                  1.0879         -DE/DX =    0.0001              !
 ! R2    R(1,3)                  1.0879         -DE/DX =    0.0001              !
 ! R3    R(1,4)                  1.0879         -DE/DX =    0.0001              !
 ! R4    R(1,5)                  1.0879         -DE/DX =    0.0001              !
 ! A1    A(2,1,3)              109.4712         -DE/DX =    0.0                 !
 ! A2    A(2,1,4)              109.4712         -DE/DX =    0.0                 !
 ! A3    A(2,1,5)              109.4712         -DE/DX =    0.0                 !
 ! A4    A(3,1,4)              109.4712         -DE/DX =    0.0                 !
 ! A5    A(3,1,5)              109.4712         -DE/DX =    0.0                 !
 ! A6    A(4,1,5)              109.4712         -DE/DX =    0.0                 !
 ! D1    D(2,1,4,3)           -120.0            -DE/DX =    0.0                 !
 ! D2    D(2,1,5,3)            120.0            -DE/DX =    0.0                 !
 ! D3    D(2,1,5,4)           -120.0            -DE/DX =    0.0                 !
 ! D4    D(3,1,5,4)            120.0            -DE/DX =    0.0                 !
 --------------------------------------------------------------------------------
 GradGradGradGradGradGradGradGradGradGradGradGradGradGradGradGradGradGrad

                          Input orientation:                          
 ---------------------------------------------------------------------
 Center     Atomic      Atomic             Coordinates (Angstroms)
 Number     Number       Type             X           Y           Z
 ---------------------------------------------------------------------
      1          6           0       -0.022193   -0.071115    0.112555
      2          1           0        0.340431   -1.096810    0.112554
      3          1           0        0.340451    0.441725    1.000828
      4          1           0        0.340449    0.441726   -0.775719
      5          1           0       -1.110101   -0.071102    0.112556
 ---------------------------------------------------------------------
                    Distance matrix (angstroms):
                    1          2          3          4          5
     1  C    0.000000
     2  H    1.087909   0.000000
     3  H    1.087909   1.776547   0.000000
     4  H    1.087909   1.776547   1.776547   0.000000
     5  H    1.087909   1.776547   1.776547   1.776547   0.000000
 Stoichiometry    CH4
 Framework group  TD[O(C),4C3(H)]
 Deg. of freedom     1
 Full point group                 TD      NOp  24
 Largest Abelian subgroup         D2      NOp   4
 Largest concise Abelian subgroup D2      NOp   4
                         Standard orientation:                         
 ---------------------------------------------------------------------
 Center     Atomic      Atomic             Coordinates (Angstroms)
 Number     Number       Type             X           Y           Z
 ---------------------------------------------------------------------
      1          6           0        0.000000    0.000000    0.000000
      2          1           0        0.628104    0.628104    0.628104
      3          1           0       -0.628104   -0.628104    0.628104
      4          1           0       -0.628104    0.628104   -0.628104
      5          1           0        0.628104   -0.628104   -0.628104
 ---------------------------------------------------------------------
 Rotational constants (GHZ):         158.8833819         158.8833819         158.8833819

 **********************************************************************

            Population analysis using the SCF density.

 **********************************************************************

 Orbital symmetries:
       Occupied  (A1) (A1) (T2) (T2) (T2)
       Virtual   (A1) (T2) (T2) (T2) (T2) (T2) (T2) (A1) (T2) (T2)
                 (T2) (E) (E) (T2) (T2) (T2) (A1) (A1) (T1) (T1)
                 (T1) (T2) (T2) (T2) (T2) (T2) (T2) (E) (E) (T2)
                 (T2) (T2) (A1) (T2) (T2) (T2) (A1) (T2) (T2) (T2)
                 (E) (E) (T2) (T2) (T2) (T1) (T1) (T1) (E) (E)
                 (T2) (T2) (T2) (A1) (T2) (T2) (T2) (A1)
 The electronic state is 1-A1.
 Alpha  occ. eigenvalues --  -10.25995  -0.79222  -0.47704  -0.47704  -0.47704
 Alpha virt. eigenvalues --    0.07039   0.11127   0.11127   0.11127   0.22332
 Alpha virt. eigenvalues --    0.22332   0.22332   0.26880   0.47567   0.47567
 Alpha virt. eigenvalues --    0.47567   0.57336   0.57336   0.59003   0.59003
 Alpha virt. eigenvalues --    0.59003   0.68071   0.79053   0.95003   0.95003
 Alpha virt. eigenvalues --    0.95003   1.12716   1.12716   1.12716   1.22969
 Alpha virt. eigenvalues --    1.22969   1.22969   1.46035   1.46035   1.47575
 Alpha virt. eigenvalues --    1.47575   1.47575   1.64878   2.59823   2.59823
 Alpha virt. eigenvalues --    2.59823   2.78875   3.22399   3.22399   3.22399
 Alpha virt. eigenvalues --    3.34059   3.34059   3.64018   3.64018   3.64018
 Alpha virt. eigenvalues --    3.89755   3.89755   3.89755   4.17414   4.17414
 Alpha virt. eigenvalues --    4.18805   4.18805   4.18805   4.28150   5.15342
 Alpha virt. eigenvalues --    5.15342   5.15342  24.15216
          Condensed to atoms (all electrons):
               1          2          3          4          5
     1  C    4.720320   0.403842   0.403842   0.403842   0.403842
     2  H    0.403842   0.580422  -0.022729  -0.022729  -0.022729
     3  H    0.403842  -0.022729   0.580422  -0.022729  -0.022729
     4  H    0.403842  -0.022729  -0.022729   0.580422  -0.022729
     5  H    0.403842  -0.022729  -0.022729  -0.022729   0.580422
 Mulliken charges:
               1
     1  C   -0.335690
     2  H    0.083922
     3  H    0.083922
     4  H    0.083922
     5  H    0.083922
 Sum of Mulliken charges =  -0.00000
 Mulliken charges with hydrogens summed into heavy atoms:
               1
     1  C   -0.000000
 Electronic spatial extent (au):  <R**2>=             35.5676
 Charge=             -0.0000 electrons
 Dipole moment (field-independent basis, Debye):
    X=             -0.0000    Y=              0.0000    Z=              0.0000  Tot=              0.0000
 Quadrupole moment (field-independent basis, Debye-Ang):
   XX=             -8.3668   YY=             -8.3668   ZZ=             -8.3668
   XY=             -0.0000   XZ=             -0.0000   YZ=              0.0000
 Traceless Quadrupole moment (field-independent basis, Debye-Ang):
   XX=              0.0000   YY=             -0.0000   ZZ=             -0.0000
   XY=             -0.0000   XZ=             -0.0000   YZ=              0.0000
 Octapole moment (field-independent basis, Debye-Ang**2):
  XXX=             -0.0000  YYY=              0.0000  ZZZ=              0.0000  XYY=              0.0000
  XXY=             -0.0000  XXZ=             -0.0000  XZZ=              0.0000  YZZ=              0.0000
  YYZ=             -0.0000  XYZ=              0.7602
 Hexadecapole moment (field-independent basis, Debye-Ang**3):
 XXXX=            -16.7143 YYYY=            -16.7143 ZZZZ=            -16.7143 XXXY=             -0.0000
 XXXZ=             -0.0000 YYYX=             -0.0000 YYYZ=              0.0000 ZZZX=             -0.0000
 ZZZY=              0.0000 XXYY=             -5.0327 XXZZ=             -5.0327 YYZZ=             -5.0327
 XXYZ=              0.0000 YYXZ=             -0.0000 ZZXY=             -0.0000
 N-N= 1.346082371938D+01 E-N=-1.202015426182D+02  KE= 4.028746127532D+01
 Symmetry A    KE= 3.444967092166D+01
 Symmetry B1   KE= 1.945930117886D+00
 Symmetry B2   KE= 1.945930117886D+00
 Symmetry B3   KE= 1.945930117886D+00
 1\1\GINC-CCLEARMO\FOpt\RwB97XD\6-311+G(2d,2p)\C1H4\TROUPPER\04-Oct-202
 6\0\\# opt freq rwb97xd/6-311+g(2d,2p) scf=xqc\\opt freq\\0,1\C,-0.022
 192619,-0.071115055,0.112554649\H,0.3404311758,-1.096809544,0.11255371
 85\H,0.3404505605,0.4417250666,1.0008283318\H,0.3404490432,0.441726141
 9,-0.7757190324\H,-1.1101012554,-0.0711018844,0.1125555781\\Version=EM
 64M-G16RevA.03\State=1-A1\HF=-40.5181772\RMSD=2.170e-09\RMSF=3.496e-05
 \Dipole=0.,0.,0.\Quadrupole=0.,0.,0.,0.,0.,0.\PG=TD [O(C1),4C3(H1)]\\@


 SOME PEOPLE TRY TO PULL THE WOOL OVER YOUR EYES
 USING THE WRONG YARN.
 Job cpu time:       0 days  0 hours  1 minutes 53.9 seconds.
 Elapsed time:       0 days  0 hours  0 minutes  5.4 seconds.
 File lengths (MBytes):  RWF=      6 Int=      0 D2E=      0 Chk=      1 Scr=      1
 Normal termination of Gaussian 16 at Sun Oct  4 12:28:32 2026.
 Link1:  Proceeding to internal job step number  2.
 ----------------------------------------------------------------------
 #N Geom=AllCheck Guess=TCheck SCRF=Check GenChk RwB97XD/6-311+G(2d,2p)
  Freq
 ----------------------------------------------------------------------
 1/10=4,29=7,30=1,38=1,40=1/1,3;
 2/12=2,40=1/2;
 3/5=4,6=6,7=212,11=2,14=-4,25=1,30=1,70=2,71=2,74=-58,116=1,140=1/1,2,3;
 4/5=101/1;
 5/5=2,8=3,13=1,38=6,98=1/2,8;
 8/6=4,10=90,11=11/1;
 11/6=1,8=1,9=11,15=111,16=1/1,2,10;
 10/6=1/2;
 6/7=2,8=2,9=2,10=2,28=1/1;
 7/8=1,10=1,25=1/1,2,3,16;
 1/10=4,30=1/3;
 99//99;
 Structure from the checkpoint file:  "ch4.chk"
 --------
 opt freq
 --------
 Charge =  0 Multiplicity = 1
 Redundant internal coordinates found in file.  (old form).
 C,0,-0.022192619,-0.071115055,0.112554649
 H,0,0.3404311758,-1.096809544,0.1125537185
 H,0,0.3404505605,0.4417250666,1.0008283318
 H,0,0.3404490432,0.4417261419,-0.7757190324
 H,0,-1.1101012554,-0.0711018844,0.1125555781
 Recover connectivity data from disk.

 GradGradGradGradGradGradGradGradGradGradGradGradGradGradGradGradGradGrad
 Berny optimization.
 Initialization pass.
                           ----------------------------
                           !    Initial Parameters    !
                           ! (Angstroms and Degrees)  !
 --------------------------                            --------------------------
 ! Name  Definition              Value          Derivative Info.                !
 --------------------------------------------------------------------------------
 ! R1    R(1,2)                  1.0879         calculate D2E/DX2 analytically  !
 ! R2    R(1,3)                  1.0879         calculate D2E/DX2 analytically  !
 ! R3    R(1,4)                  1.0879         calculate D2E/DX2 analytically  !
 ! R4    R(1,5)                  1.0879         calculate D2E/DX2 analytically  !
 ! A1    A(2,1,3)              109.4712         calculate D2E/DX2 analytically  !
 ! A2    A(2,1,4)              109.4712         calculate D2E/DX2 analytically  !
 ! A3    A(2,1,5)              109.4712         calculate D2E/DX2 analytically  !
 ! A4    A(3,1,4)              109.4712         calculate D2E/DX2 analytically  !
 ! A5    A(3,1,5)              109.4712         calculate D2E/DX2 analytically  !
 ! A6    A(4,1,5)              109.4712         calculate D2E/DX2 analytically  !
 ! D1    D(2,1,4,3)           -120.0            calculate D2E/DX2 analytically  !
 ! D2    D(2,1,5,3)            120.0            calculate D2E/DX2 analytically  !
 ! D3    D(2,1,5,4)           -120.0            calculate D2E/DX2 analytically  !
 ! D4    D(3,1,5,4)            120.0            calculate D2E/DX2 analytically  !
 --------------------------------------------------------------------------------
 Trust Radius=3.00D-01 FncErr=1.00D-07 GrdErr=1.00D-07 EigMax=2.50D+02 EigMin=1.00D-04
 Number of steps in this run=      2 maximum allowed number of steps=      2.
 GradGradGradGradGradGradGradGradGradGradGradGradGradGradGradGradGradGrad

                          Input orientation:                          
 ---------------------------------------------------------------------
 Center     Atomic      Atomic             Coordinates (Angstroms)
 Number     Number       Type             X           Y           Z
 ---------------------------------------------------------------------
      1          6           0       -0.022193   -0.071115    0.112555
      2          1           0        0.340431   -1.096810    0.112554
      3          1           0        0.340451    0.441725    1.000828
      4          1           0        0.340449    0.441726   -0.775719
      5          1           0       -1.110101   -0.071102    0.112556
 ---------------------------------------------------------------------
                    Distance matrix (angstroms):
                    1          2          3          4          5
     1  C    0.000000
     2  H    1.087909   0.000000
     3  H    1.087909   1.776547   0.000000
     4  H    1.087909   1.776547   1.776547   0.000000
     5  H    1.087909   1.776547   1.776547   1.776547   0.000000
 Stoichiometry    CH4
 Framework group  TD[O(C),4C3(H)]
 Deg. of freedom     1
 Full point group                 TD      NOp  24
 Largest Abelian subgroup         D2      NOp   4
 Largest concise Abelian subgroup D2      NOp   4
                         Standard orientation:                         
 ---------------------------------------------------------------------
 Center     Atomic      Atomic             Coordinates (Angstroms)
 Number     Number       Type             X           Y           Z
 ---------------------------------------------------------------------
      1          6           0        0.000000    0.000000    0.000000
      2          1           0        0.628104    0.628104    0.628104
      3          1           0       -0.628104   -0.628104    0.628104
      4          1           0       -0.628104    0.628104   -0.628104
      5          1           0        0.628104   -0.628104   -0.628104
 ---------------------------------------------------------------------
 Rotational constants (GHZ):         158.8833819         158.8833819         158.8833819
 Standard basis: 6-311+G(2d,2p) (5D, 7F)
 There are    20 symmetry adapted cartesian basis functions of A   symmetry.
 There are    15 symmetry adapted cartesian basis functions of B1  symmetry.
 There are    15 symmetry adapted cartesian basis functions of B2  symmetry.
 There are    15 symmetry adapted cartesian basis functions of B3  symmetry.
 There are    18 symmetry adapted basis functions of A   symmetry.
 There are    15 symmetry adapted basis functions of B1  symmetry.
 There are    15 symmetry adapted basis functions of B2  symmetry.
 There are    15 symmetry adapted basis functions of B3  symmetry.
    63 basis functions,    86 primitive gaussians,    65 cartesian basis functions
     5 alpha electrons        5 beta electrons
       nuclear repulsion energy        13.4612170508 Hartrees.
 NAtoms=    5 NActive=    5 NUniq=    2 SFac= 4.00D+00 NAtFMM=   60 NAOKFM=F Big=F
 Integral buffers will be    131072 words long.
 Raffenetti 2 integral format.
 Two-electron integral symmetry is turned on.
 Nuclear repulsion after empirical dispersion term =       13.4608237194 Hartrees.
 One-electron integrals computed using PRISM.
 NBasis=    63 RedAO= T EigKep=  2.30D-03  NBF=    18    15    15    15
 NBsUse=    63 1.00D-06 EigRej= -1.00D+00 NBFU=    18    15    15    15
 Initial guess from the checkpoint file:  "ch4.chk"
 B after Tr=    -0.000000   -0.000000    0.000000
         Rot=    1.000000   -0.000000    0.000000    0.000000 Ang=   0.00 deg.
 Initial guess orbital symmetries:
       Occupied  (A1) (A1) (T2) (T2) (T2)
       Virtual   (A1) (T2) (T2) (T2) (T2) (T2) (T2) (A1) (T2) (T2)
                 (T2) (E) (E) (T2) (T2) (T2) (A1) (A1) (T1) (T1)
                 (T1) (T2) (T2) (T2) (T2) (T2) (T2) (E) (E) (T2)
                 (T2) (T2) (A1) (T2) (T2) (T2) (A1) (T2) (T2) (T2)
                 (E) (E) (T2) (T2) (T2) (T1) (T1) (T1) (E) (E)
                 (T2) (T2) (T2) (A1) (T2) (T2) (T2) (A1)
 Keep R1 ints in memory in symmetry-blocked form, NReq=23608283.
 Requested convergence on RMS density matrix=1.00D-08 within  32 cycles.
 Requested convergence on MAX density matrix=1.00D-06.
 Requested convergence on             energy=1.00D-06.
 No special actions if energy rises.
 SCF Done:  E(RwB97XD) =  -40.5181772212     A.U. after    1 cycles
            NFock=  1  Conv=0.20D-09     -V/T= 2.0057
 QCSCF skips out because SCF is already converged.
 DoSCS=F DFT=T ScalE2(SS,OS)=  1.000000  1.000000
 Range of M.O.s used for correlation:     1    63
 NBasis=    63 NAE=     5 NBE=     5 NFC=     0 NFV=     0
 NROrb=     63 NOA=     5 NOB=     5 NVA=    58 NVB=    58

 **** Warning!!: The largest alpha MO coefficient is  0.11326587D+02

 Symmetrizing basis deriv contribution to polar:
 IMax=3 JMax=2 DiffMx= 0.00D+00
 G2DrvN: will do     6 centers at a time, making    1 passes.
 Calling FoFCou, ICntrl=  3107 FMM=F I1Cent=   0 AccDes= 0.00D+00.
 End of G2Drv F.D. properties file   721 does not exist.
 End of G2Drv F.D. properties file   722 does not exist.
 End of G2Drv F.D. properties file   788 does not exist.
          IDoAtm=11111
          Differentiating once with respect to electric field.
                with respect to dipole field.
          Differentiating once with respect to nuclear coordinates.
 Keep R1 ints in memory in symmetry-blocked form, NReq=23535874.
          There are     9 degrees of freedom in the 1st order CPHF.  IDoFFX=4 NUNeed=     9.
      9 vectors produced by pass  0 Test12= 3.22D-15 1.11D-08 XBig12= 4.78D+00 1.12D+00.
 AX will form     9 AO Fock derivatives at one time.
      9 vectors produced by pass  1 Test12= 3.22D-15 1.11D-08 XBig12= 1.61D-01 1.80D-01.
      9 vectors produced by pass  2 Test12= 3.22D-15 1.11D-08 XBig12= 1.87D-03 1.71D-02.
      9 vectors produced by pass  3 Test12= 3.22D-15 1.11D-08 XBig12= 1.88D-05 2.13D-03.
      9 vectors produced by pass  4 Test12= 3.22D-15 1.11D-08 XBig12= 9.07D-08 9.21D-05.
      9 vectors produced by pass  5 Test12= 3.22D-15 1.11D-08 XBig12= 5.56D-10 8.30D-06.
      4 vectors produced by pass  6 Test12= 3.22D-15 1.11D-08 XBig12= 2.75D-12 6.50D-07.
      3 vectors produced by pass  7 Test12= 3.22D-15 1.11D-08 XBig12= 6.46D-15 2.64D-08.
 InvSVY:  IOpt=1 It=  1 EMax= 8.88D-16
 Solved reduced A of dimension    61 with     9 vectors.
 Isotropic polarizability for W=    0.000000       15.27 Bohr**3.
 End of Minotr F.D. properties file   721 does not exist.
 End of Minotr F.D. properties file   722 does not exist.
 End of Minotr F.D. properties file   788 does not exist.

 **********************************************************************

            Population analysis using the SCF density.

 **********************************************************************

 Orbital symmetries:
       Occupied  (A1) (A1) (T2) (T2) (T2)
       Virtual   (A1) (T2) (T2) (T2) (T2) (T2) (T2) (A1) (T2) (T2)
                 (T2) (E) (E) (T2) (T2) (T2) (A1) (A1) (T1) (T1)
                 (T1) (T2) (T2) (T2) (T2) (T2) (T2) (E) (E) (T2)
                 (T2) (T2) (A1) (T2) (T2) (T2) (A1) (T2) (T2) (T2)
                 (E) (E) (T2) (T2) (T2) (T1) (T1) (T1) (E) (E)
                 (T2) (T2) (T2) (A1) (T2) (T2) (T2) (A1)
 The electronic state is 1-A1.
 Alpha  occ. eigenvalues --  -10.25995  -0.79222  -0.47704  -0.47704  -0.47704
 Alpha virt. eigenvalues --    0.07039   0.11127   0.11127   0.11127   0.22332
 Alpha virt. eigenvalues --    0.22332   0.22332   0.26880   0.47567   0.47567
 Alpha virt. eigenvalues --    0.47567   0.57336   0.57336   0.59003   0.59003
 Alpha virt. eigenvalues --    0.59003   0.68071   0.79053   0.95003   0.95003
 Alpha virt. eigenvalues --    0.95003   1.12716   1.12716   1.12716   1.22969
 Alpha virt. eigenvalues --    1.22969   1.22969   1.46035   1.46035   1.47575
 Alpha virt. eigenvalues --    1.47575   1.47575   1.64878   2.59823   2.59823
 Alpha virt. eigenvalues --    2.59823   2.78875   3.22399   3.22399   3.22399
 Alpha virt. eigenvalues --    3.34059   3.34059   3.64018   3.64018   3.64018
 Alpha virt. eigenvalues --    3.89755   3.89755   3.89755   4.17414   4.17414
 Alpha virt. eigenvalues --    4.18805   4.18805   4.18805   4.28150   5.15342
 Alpha virt. eigenvalues --    5.15342   5.15342  24.15216
          Condensed to atoms (all electrons):
               1          2          3          4          5
     1  C    4.720320   0.403842   0.403842   0.403842   0.403842
     2  H    0.403842   0.580422  -0.022729  -0.022729  -0.022729
     3  H    0.403842  -0.022729   0.580422  -0.022729  -0.022729
     4  H    0.403842  -0.022729  -0.022729   0.580422  -0.022729
     5  H    0.403842  -0.022729  -0.022729  -0.022729   0.580422
 Mulliken charges:
               1
     1  C   -0.335690
     2  H    0.083922
     3  H    0.083922
     4  H    0.083922
     5  H    0.083922
 Sum of Mulliken charges =   0.00000
 Mulliken charges with hydrogens summed into heavy atoms:
               1
     1  C    0.000000
 APT charges:
               1
     1  C   -0.011841
     2  H    0.002960
     3  H    0.002960
     4  H    0.002960
     5  H    0.002960
 Sum of APT charges =   0.00000
 APT charges with hydrogens summed into heavy atoms:
               1
     1  C    0.000000
 Electronic spatial extent (au):  <R**2>=             35.5676
 Charge=             -0.0000 electrons
 Dipole moment (field-independent basis, Debye):
    X=             -0.0000    Y=             -0.0000    Z=             -0.0000  Tot=              0.0000
 Quadrupole moment (field-independent basis, Debye-Ang):
   XX=             -8.3668   YY=             -8.3668   ZZ=             -8.3668
   XY=             -0.0000   XZ=             -0.0000   YZ=             -0.0000
 Traceless Quadrupole moment (field-independent basis, Debye-Ang):
   XX=             -0.0000   YY=              0.0000   ZZ=              0.0000
   XY=             -0.0000   XZ=             -0.0000   YZ=             -0.0000
 Octapole moment (field-independent basis, Debye-Ang**2):
  XXX=             -0.0000  YYY=             -0.0000  ZZZ=             -0.0000  XYY=             -0.0000
  XXY=             -0.0000  XXZ=             -0.0000  XZZ=             -0.0000  YZZ=             -0.0000
  YYZ=             -0.0000  XYZ=              0.7602
 Hexadecapole moment (field-independent basis, Debye-Ang**3):
 XXXX=            -16.7143 YYYY=            -16.7143 ZZZZ=            -16.7143 XXXY=              0.0000
 XXXZ=              0.0000 YYYX=              0.0000 YYYZ=             -0.0000 ZZZX=              0.0000
 ZZZY=             -0.0000 XXYY=             -5.0327 XXZZ=             -5.0327 YYZZ=             -5.0327
 XXYZ=             -0.0000 YYXZ=             -0.0000 ZZXY=              0.0000
 N-N= 1.346082371938D+01 E-N=-1.202015426168D+02  KE= 4.028746127213D+01
 Symmetry A    KE= 3.444967091736D+01
 Symmetry B1   KE= 1.945930118257D+00
 Symmetry B2   KE= 1.945930118257D+00
 Symmetry B3   KE= 1.945930118257D+00
  Exact polarizability:  15.265  -0.000  15.265  -0.000  -0.000  15.265
 Approx polarizability:  14.853  -0.000  14.853  -0.000   0.000  14.853
 Calling FoFJK, ICntrl=    100127 FMM=F ISym2X=1 I1Cent= 0 IOpClX= 0 NMat=1 NMatS=1 NMatT=0.
 Full mass-weighted force constant matrix:
 Low frequencies ---   -0.0003    0.0005    0.0009   67.4005   67.4005   67.4005
 Low frequencies --- 1345.8440 1345.8440 1345.8440
 Diagonal vibrational polarizability:
        0.2682436       0.2682436       0.2682436
 Harmonic frequencies (cm**-1), IR intensities (KM/Mole), Raman scattering
 activities (A**4/AMU), depolarization ratios for plane and unpolarized
 incident light, reduced masses (AMU), force constants (mDyne/A),
 and normal coordinates:
                      1                      2                      3
                     T2                     T2                     T2
 Frequencies --   1345.8440              1345.8440              1345.8440
 Red. masses --      1.1793                 1.1793                 1.1793
 Frc consts  --      1.2586                 1.2586                 1.2586
 IR Inten    --     14.2449                14.2449                14.2449
  Atom  AN      X      Y      Z        X      Y      Z        X      Y      Z
     1   6     0.12   0.00   0.00     0.00  -0.09  -0.09     0.00   0.09  -0.09
     2   1    -0.36   0.23   0.23    -0.34   0.11   0.10    -0.00  -0.43   0.43
     3   1    -0.37   0.22  -0.24    -0.01   0.43   0.42     0.33  -0.09   0.10
     4   1    -0.37  -0.24   0.22    -0.01   0.42   0.43    -0.33  -0.09   0.10
     5   1    -0.38  -0.24  -0.23     0.32   0.10   0.09     0.00  -0.43   0.43
                      4                      5                      6
                      E                      E                     A1
 Frequencies --   1567.8072              1567.8072              3047.3531
 Red. masses --      1.0078                 1.0078                 1.0078
 Frc consts  --      1.4596                 1.4596                 5.5142
 IR Inten    --      0.0000                 0.0000                 0.0000
  Atom  AN      X      Y      Z        X      Y      Z        X      Y      Z
     1   6    -0.00   0.00  -0.00     0.00  -0.00  -0.00     0.00   0.00   0.00
     2   1    -0.01   0.36  -0.35     0.41  -0.20  -0.21     0.29   0.29   0.29
     3   1     0.01  -0.36  -0.35    -0.41   0.20  -0.21    -0.29  -0.29   0.29
     4   1     0.01   0.36   0.35    -0.41  -0.20   0.21    -0.29   0.29  -0.29
     5   1    -0.01  -0.36   0.35     0.41   0.20   0.21     0.29  -0.29  -0.29
                      7                      8                      9
                     T2                     T2                     T2
 Frequencies --   3164.2592              3164.2592              3164.2592
 Red. masses --      1.1013                 1.1013                 1.1013
 Frc consts  --      6.4970                 6.4970                 6.4970
 IR Inten    --     21.0591                21.0591                21.0591
  Atom  AN      X      Y      Z        X      Y      Z        X      Y      Z
     1   6     0.09  -0.00  -0.00    -0.00   0.06  -0.07    -0.00  -0.07  -0.06
     2   1    -0.27  -0.29  -0.29     0.06   0.07   0.05     0.41   0.40   0.40
     3   1    -0.27  -0.29   0.29    -0.41  -0.40   0.40     0.06   0.05  -0.08
     4   1    -0.27   0.29  -0.29     0.41  -0.40   0.40    -0.06   0.04  -0.07
     5   1    -0.28   0.30   0.30    -0.06   0.07   0.04    -0.41   0.39   0.40

 -------------------
 - Thermochemistry -
 -------------------
 Temperature   298.150 Kelvin.  Pressure   1.00000 Atm.
 Atom     1 has atomic number  6 and mass  12.00000
 Atom     2 has atomic number  1 and mass   1.00783
 Atom     3 has atomic number  1 and mass   1.00783
 Atom     4 has atomic number  1 and mass   1.00783
 Atom     5 has atomic number  1 and mass   1.00783
 Molecular mass:    16.03130 amu.
 Principal axes and moments of inertia in atomic units:
                           1         2         3
     Eigenvalues --    11.35890  11.35890  11.35890
           X            0.77912   0.03856   0.62569
           Y           -0.56355  -0.39406   0.72603
           Z           -0.27456   0.91827   0.28529
 This molecule is a spherical top.
 Rotational symmetry number 12.
 Rotational temperatures (Kelvin)      7.62520     7.62520     7.62520
 Rotational constants (GHZ):         158.88338   158.88338   158.88338
 Zero-point vibrational energy     117911.6 (Joules/Mol)
                                   28.18154 (Kcal/Mol)
 Vibrational temperatures:   1936.37  1936.37  1936.37  2255.72  2255.72
          (Kelvin)           4384.46  4552.66  4552.66  4552.66
 
 Zero-point correction=                           0.044910 (Hartree/Particle)
 Thermal correction to Energy=                    0.047778
 Thermal correction to Enthalpy=                  0.048722
 Thermal correction to Gibbs Free Energy=         0.027600
 Sum of electronic and zero-point Energies=            -40.473267
 Sum of electronic and thermal Energies=               -40.470399
 Sum of electronic and thermal Enthalpies=             -40.469455
 Sum of electronic and thermal Free Energies=          -40.490577
 
                     E (Thermal)             CV                S
                      KCal/Mol        Cal/Mol-Kelvin    Cal/Mol-Kelvin
 Total                   29.981              6.461             44.455
 Electronic               0.000              0.000              0.000
 Translational            0.889              2.981             34.261
 Rotational               0.889              2.981             10.108
 Vibrational             28.204              0.500              0.085
                       Q            Log10(Q)             Ln(Q)
 Total Bot       0.201735D-12        -12.695219        -29.231822
 Total V=0       0.916215D+08          7.961997         18.333176
 Vib (Bot)       0.221414D-20        -20.654795        -47.559424
 Vib (V=0)       0.100559D+01          0.002421          0.005575
 Electronic      0.100000D+01          0.000000          0.000000
 Translational   0.252294D+07          6.401907         14.740936
 Rotational      0.361135D+02          1.557669          3.586666
 ***** Axes restored to original set *****
 -------------------------------------------------------------------
 Center     Atomic                   Forces (Hartrees/Bohr)
 Number     Number              X              Y              Z
 -------------------------------------------------------------------
      1        6          -0.000000000    0.000000000    0.000000000
      2        1           0.000022564   -0.000063822   -0.000000000
      3        1           0.000022565    0.000031910    0.000055271
      4        1           0.000022565    0.000031910   -0.000055271
      5        1          -0.000067693    0.000000001    0.000000000
 -------------------------------------------------------------------
 Cartesian Forces:  Max     0.000067693 RMS     0.000034956
 FormGI is forming the generalized inverse of G from B-inverse, IUseBI=4.

 GradGradGradGradGradGradGradGradGradGradGradGradGradGradGradGradGradGrad
 Berny optimization.
 Internal  Forces:  Max     0.000067693 RMS     0.000036183
 Search for a local minimum.
 Step number   1 out of a maximum of    2
 All quantities printed in internal units (Hartrees-Bohrs-Radians)
 Second derivative matrix not updated -- analytic derivatives used.
 The second derivative matrix:
                          R1        R2        R3        R4        A1
           R1           0.34865
           R2           0.00184   0.34865
           R3           0.00184   0.00184   0.34865
           R4           0.00184   0.00184   0.00184   0.34865
           A1           0.00194   0.00194  -0.00122  -0.00266   0.01958
           A2           0.00303  -0.00078   0.00338  -0.00563  -0.00870
           A3           0.00593  -0.00476  -0.00527   0.00410  -0.01298
           A4          -0.00078   0.00303   0.00338  -0.00563  -0.00870
           A5          -0.00476   0.00593  -0.00527   0.00410  -0.01298
           A6          -0.00536  -0.00536   0.00500   0.00572   0.02379
           D1          -0.00375  -0.00375  -0.00265   0.01015  -0.01332
           D2           0.00309   0.00309  -0.00794   0.00176   0.00808
           D3          -0.00407   0.00715  -0.00397   0.00088   0.00404
           D4          -0.00715   0.00407   0.00397  -0.00088  -0.00404
                          A2        A3        A4        A5        A6
           A2           0.03689
           A3          -0.02243   0.07208
           A4          -0.00208   0.02468   0.03689
           A5           0.02468  -0.03498  -0.02243   0.07208
           A6          -0.02836  -0.02637  -0.02836  -0.02637   0.08568
           D1          -0.01066   0.01452  -0.01066   0.01452   0.00560
           D2          -0.00928   0.00682  -0.00928   0.00682  -0.00316
           D3          -0.01408  -0.00052   0.00480   0.00734  -0.00158
           D4          -0.00480  -0.00734   0.01408   0.00052   0.00158
                          D1        D2        D3        D4
           D1           0.02936
           D2           0.00147   0.01825
           D3           0.00073   0.00912   0.01853
           D4          -0.00073  -0.00912   0.00941   0.01853
 ITU=  0
     Eigenvalues ---    0.03742   0.04216   0.06403   0.13036   0.13090
     Eigenvalues ---    0.34771   0.34772   0.34800   0.35418
 Angle between quadratic step and forces=   0.00 degrees.
 Linear search not attempted -- first point.
 Iteration  1 RMS(Cart)=  0.00010216 RMS(Int)=  0.00000000
 Iteration  2 RMS(Cart)=  0.00000000 RMS(Int)=  0.00000000
 ClnCor:  largest displacement from symmetrization is 7.92D-13 for atom     5.
 Variable       Old X    -DE/DX   Delta X   Delta X   Delta X     New X
                                 (Linear)    (Quad)   (Total)
    R1        2.05585   0.00007   0.00000   0.00019   0.00019   2.05604
    R2        2.05585   0.00007   0.00000   0.00019   0.00019   2.05604
    R3        2.05585   0.00007   0.00000   0.00019   0.00019   2.05604
    R4        2.05585   0.00007   0.00000   0.00019   0.00019   2.05604
    A1        1.91063  -0.00000   0.00000   0.00000   0.00000   1.91063
    A2        1.91063  -0.00000   0.00000   0.00000  -0.00000   1.91063
    A3        1.91063   0.00000   0.00000   0.00000   0.00000   1.91063
    A4        1.91063   0.00000   0.00000   0.00000   0.00000   1.91063
    A5        1.91063  -0.00000   0.00000  -0.00000  -0.00000   1.91063
    A6        1.91063  -0.00000   0.00000  -0.00000   0.00000   1.91063
    D1       -2.09440   0.00000   0.00000  -0.00000   0.00000  -2.09440
    D2        2.09440   0.00000   0.00000   0.00000   0.00000   2.09440
    D3       -2.09440   0.00000   0.00000  -0.00000   0.00000  -2.09440
    D4        2.09440   0.00000   0.00000  -0.00000   0.00000   2.09440
         Item               Value     Threshold  Converged?
 Maximum Force            0.000068     0.000450     YES
 RMS     Force            0.000036     0.000300     YES
 Maximum Displacement     0.000191     0.001800     YES
 RMS     Displacement     0.000102     0.001200     YES
 Predicted change in Energy=-2.587580D-08
 Optimization completed.
    -- Stationary point found.
                           ----------------------------
                           !   Optimized Parameters   !
                           ! (Angstroms and Degrees)  !
 --------------------------                            --------------------------
 ! Name  Definition              Value          Derivative Info.                !
 --------------------------------------------------------------------------------
 ! R1    R(1,2)                  1.0879         -DE/DX =    0.0001              !
 ! R2    R(1,3)                  1.0879         -DE/DX =    0.0001              !
 ! R3    R(1,4)                  1.0879         -DE/DX =    0.0001              !
 ! R4    R(1,5)                  1.0879         -DE/DX =    0.0001              !
 ! A1    A(2,1,3)              109.4712         -DE/DX =    0.0                 !
 ! A2    A(2,1,4)              109.4712         -DE/DX =    0.0                 !
 ! A3    A(2,1,5)              109.4712         -DE/DX =    0.0                 !
 ! A4    A(3,1,4)              109.4712         -DE/DX =    0.0                 !
 ! A5    A(3,1,5)              109.4712         -DE/DX =    0.0                 !
 ! A6    A(4,1,5)              109.4712         -DE/DX =    0.0                 !
 ! D1    D(2,1,4,3)           -120.0            -DE/DX =    0.0                 !
 ! D2    D(2,1,5,3)            120.0            -DE/DX =    0.0                 !
 ! D3    D(2,1,5,4)           -120.0            -DE/DX =    0.0                 !
 ! D4    D(3,1,5,4)            120.0            -DE/DX =    0.0                 !
 --------------------------------------------------------------------------------
 GradGradGradGradGradGradGradGradGradGradGradGradGradGradGradGradGradGrad

 Dipole is zero, so no output in dipole orientation.

 ----------------------------------------------------------------------

 Electric dipole moment (input orientation):
 (Debye = 10**-18 statcoulomb cm , SI units = C m)
                  (au)            (Debye)         (10**-30 SI)
   Tot        0.000000D+00      0.000000D+00      0.000000D+00
   x          0.000000D+00      0.000000D+00      0.000000D+00
   y          0.000000D+00      0.000000D+00      0.000000D+00
   z          0.000000D+00      0.000000D+00      0.000000D+00

 Dipole polarizability, Alpha (input orientation).
 (esu units = cm**3 , SI units = C**2 m**2 J**-1)
 Alpha(0;0):
               (au)            (10**-24 esu)      (10**-40 SI)
   iso        0.152654D+02      0.226210D+01      0.251692D+01
   aniso      0.000000D+00      0.000000D+00      0.000000D+00
   xx         0.152654D+02      0.226210D+01      0.251692D+01
   yx         0.000000D+00      0.000000D+00      0.000000D+00
   yy         0.152654D+02      0.226210D+01      0.251692D+01
   zx         0.000000D+00      0.000000D+00      0.000000D+00
   zy         0.000000D+00      0.000000D+00      0.000000D+00
   zz         0.152654D+02      0.226210D+01      0.251692D+01

 ----------------------------------------------------------------------
 1\1\GINC-CCLEARMO\Freq\RwB97XD\6-311+G(2d,2p)\C1H4\TROUPPER\04-Oct-202
 6\0\\#N Geom=AllCheck Guess=TCheck SCRF=Check GenChk RwB97XD/6-311+G(2
 d,2p) Freq\\opt freq\\0,1\C,-0.022192619,-0.071115055,0.112554649\H,0.
 3404311758,-1.096809544,0.1125537185\H,0.3404505605,0.4417250666,1.000
 8283318\H,0.3404490432,0.4417261419,-0.7757190324\H,-1.1101012554,-0.0
 711018844,0.1125555781\\Version=EM64M-G16RevA.03\State=1-A1\HF=-40.518
 1772\RMSD=2.001e-10\RMSF=3.496e-05\ZeroPoint=0.0449101\Thermal=0.04777
 8\Dipole=0.,0.,0.\DipoleDeriv=-0.0118405,0.,0.,0.,-0.0118405,0.,0.,0.,
 -0.0118405,0.0479618,0.0636378,0.,0.0636378,-0.1095417,-0.0000002,0.,-
 0.0000002,0.0704603,0.0479594,-0.0318202,-0.0551147,-0.0318202,0.02546
 1,-0.0779417,-0.0551147,-0.0779417,-0.06454,0.0479596,-0.0318201,0.055
 1145,-0.0318201,0.0254609,0.0779419,0.0551145,0.0779419,-0.06454,-0.13
 20402,0.0000025,0.0000002,0.0000025,0.0704603,0.,0.0000002,0.,0.070460
 3\Polar=15.2653939,0.,15.2653939,0.,0.,15.2653939\Quadrupole=0.,0.,0.,
 0.,0.,0.\PG=TD [O(C1),4C3(H1)]\NImag=0\\0.55206891,0.,0.55206891,0.,0.
 ,0.55206891,-0.07647046,0.08703469,0.00000008,0.07888755,0.08703469,-0
 .29188100,-0.00000022,-0.09537274,0.31493474,0.00000008,-0.00000022,-0
 .04570023,-0.00000009,0.00000024,0.04516949,-0.07647375,-0.04351907,-0
 .07537796,0.00312487,0.00472430,0.01075530,0.07889115,-0.04351907,-0.1
 0724371,-0.10659746,-0.01167709,-0.01259914,-0.02530845,0.04768826,0.1
 1260893,-0.07537796,-0.10659746,-0.23033423,0.00128628,0.00147497,0.00
 116091,0.08259928,0.11680965,0.24749169,-0.07647349,-0.04351898,0.0753
 7765,0.00312485,0.00472431,-0.01075529,0.00312511,0.00695245,-0.009469
 51,0.07889087,-0.04351898,-0.10724397,0.10659769,-0.01167704,-0.012599
 17,0.02530845,0.00695242,0.00804085,-0.01339154,0.04768816,0.11260921,
 0.07537765,0.10659769,-0.23033423,-0.00128629,-0.00147500,0.00116096,0
 .00946948,0.01339156,-0.01947933,-0.08259893,-0.11680990,0.24749169,-0
 .32265122,0.00000335,0.00000024,-0.00866682,-0.00111056,0.,-0.00866740
 ,0.00055544,0.00096192,-0.00866735,0.00055544,-0.00096190,0.34865279,0
 .00000335,-0.04570023,0.,0.03169217,0.00214458,-0.00000002,-0.01584591
 ,-0.00080692,0.00170437,-0.01584594,-0.00080692,-0.00170435,-0.0000036
 7,0.04516949,0.00000024,0.,-0.04570023,0.00000003,0.,-0.00179113,-0.02
 744610,0.00170470,0.00116096,0.02744609,-0.00170471,0.00116091,-0.0000
 0026,0.,0.04516949\\0.,0.,0.,-0.00002256,0.00006382,0.,-0.00002256,-0.
 00003191,-0.00005527,-0.00002256,-0.00003191,0.00005527,0.00006769,0.,
 0.\\\@


 QED = W**5 (WHICH WAS WHAT WE WANTED)
 Job cpu time:       0 days  0 hours  2 minutes 18.8 seconds.
 Elapsed time:       0 days  0 hours  0 minutes  6.5 seconds.
 File lengths (MBytes):  RWF=      6 Int=      0 D2E=      0 Chk=      1 Scr=      1
 Normal termination of Gaussian 16 at Sun Oct  4 12:28:38 2026.
