 Entering Gaussian System, Link 0=/applications/g16/g16/g16
 Initial command:
 /applications/g16/g16/l1.exe "/scratch/g98/Gau-48739.inp" -scrdir="/scratch/g98/"
 Entering Link 1 = /applications/g16/g16/l1.exe PID=     48740.
  
 Copyright (c) 1988,1990,1992,1993,1995,1998,2003,2009,2016,
            Gaussian, Inc.  All Rights Reserved.
  
 This is part of the Gaussian(R) 16 program.  It is based on
 the Gaussian(R) 09 system (copyright 2009, Gaussian, Inc.),
 the Gaussian(R) 03 system (copyright 2003, Gaussian, Inc.),
 the Gaussian(R) 98 system (copyright 1998, Gaussian, Inc.),
 the Gaussian(R) 94 system (copyright 1995, Gaussian, Inc.),
 the Gaussian 92(TM) system (copyright 1992, Gaussian, Inc.),
 the Gaussian 90(TM) system (copyright 1990, Gaussian, Inc.),
 the Gaussian 88(TM) system (copyright 1988, Gaussian, Inc.),
 the Gaussian 86(TM) system (copyright 1986, Carnegie Mellon
 University), and the Gaussian 82(TM) system (copyright 1983,
 Carnegie Mellon University). Gaussian is a federally registered
 trademark of Gaussian, Inc.
  
 This software contains proprietary and confidential information,
 including trade secrets, belonging to Gaussian, Inc.
  
 This software is provided under written license and may be
 used, copied, transmitted, or stored only in accord with that
 written license.
  
 The following legend is applicable only to US Government
 contracts under FAR:
  
                    RESTRICTED RIGHTS LEGEND
  
 Use, reproduction and disclosure by the US Government is
 subject to restrictions as set forth in subparagraphs (a)
 and (c) of the Commercial Computer Software - Restricted
 Rights clause in FAR 52.227-19.
  
 Gaussian, Inc.
 340 Quinnipiac St., Bldg. 40, Wallingford CT 06492
  
  
 ---------------------------------------------------------------
 Warning -- This program may not be used in any manner that
 competes with the business of Gaussian, Inc. or will provide
 assistance to any competitor of Gaussian, Inc.  The licensee
 of this program is prohibited from giving any competitor of
 Gaussian, Inc. access to this program.  By using this program,
 the user acknowledges that Gaussian, Inc. is engaged in the
 business of creating and licensing software in the field of
 computational chemistry and represents and warrants to the
 licensee that it is not a competitor of Gaussian, Inc. and that
 it will not use this program in any manner prohibited above.
 ---------------------------------------------------------------
  

 Cite this work as:
 Gaussian 16, Revision A.03,
 M. J. Frisch, G. W. Trucks, H. B. Schlegel, G. E. Scuseria, 
 M. A. Robb, J. R. Cheeseman, G. Scalmani, V. Barone, 
 G. A. Petersson, H. Nakatsuji, X. Li, M. Caricato, A. V. Marenich, 
 J. Bloino, B. G. Janesko, R. Gomperts, B. Mennucci, H. P. Hratchian, 
 J. V. Ortiz, A. F. Izmaylov, J. L. Sonnenberg, D. Williams-Young, 
 F. Ding, F. Lipparini, F. Egidi, J. Goings, B. Peng, A. Petrone, 
 T. Henderson, D. Ranasinghe, V. G. Zakrzewski, J. Gao, N. Rega, 
 G. Zheng, W. Liang, M. Hada, M. Ehara, K. Toyota, R. Fukuda, 
 J. Hasegawa, M. Ishida, T. Nakajima, Y. Honda, O. Kitao, H. Nakai, 
 T. Vreven, K. Throssell, J. A. Montgomery, Jr., J. E. Peralta, 
 F. Ogliaro, M. J. Bearpark, J. J. Heyd, E. N. Brothers, K. N. Kudin, 
 V. N. Staroverov, T. A. Keith, R. Kobayashi, J. Normand, 
 K. Raghavachari, A. P. Rendell, J. C. Burant, S. S. Iyengar, 
 J. Tomasi, M. Cossi, J. M. Millam, M. Klene, C. Adamo, R. Cammi, 
 J. W. Ochterski, R. L. Martin, K. Morokuma, O. Farkas, 
 J. B. Foresman, and D. J. Fox, Gaussian, Inc., Wallingford CT, 2016.
 
 ******************************************
 Gaussian 16:  EM64M-G16RevA.03 25-Dec-2016
                 1-Oct-2026 
 ******************************************
 %nprocshared=22
 Will use up to   22 processors via shared memory.
 %mem=48GB
 %chk=diaminopropyl_ylide.chk
 ----------------------------------------
 # opt freq wb97xd/6-311+g(2d,2p) scf=xqc
 ----------------------------------------
 1/18=20,19=15,26=3,38=1/1,3;
 2/9=110,12=2,17=6,18=5,40=1/2;
 3/5=4,6=6,7=212,11=2,25=1,30=1,71=1,74=-58/1,2,3;
 4//1;
 5/5=2,8=3,13=1,38=5/2,8;
 6/7=2,8=2,9=2,10=2,28=1/1;
 7//1,2,3,16;
 1/18=20,19=15,26=3/3(2);
 2/9=110/2;
 99//99;
 2/9=110/2;
 3/5=4,6=6,7=212,11=2,25=1,30=1,71=1,74=-58/1,2,3;
 4/5=5,16=3,69=1/1;
 5/5=2,8=3,13=1,38=5/2,8;
 7//1,2,3,16;
 1/18=20,19=15,26=3/3(-5);
 2/9=110/2;
 6/7=2,8=2,9=2,10=2,19=2,28=1/1;
 99/9=1/99;
 --------
 opt freq
 --------
 Symbolic Z-matrix:
 Charge =  0 Multiplicity = 1
 C                     1.2909    0.47285  -0.3437 
 H                     0.59478   1.28106  -0.56485 
 H                     1.7008    0.14093  -1.29755 
 C                     0.58963  -0.69584   0.35645 
 H                     0.22473  -0.37452   1.33274 
 H                     1.3349   -1.46503   0.54978 
 C                    -0.53132  -1.31587  -0.47757 
 H                    -0.39052  -1.07919  -1.53227 
 H                    -0.52126  -2.40054  -0.3831 
 N                    -1.93811  -0.89586  -0.14301 
 C                    -2.32848  -1.40536   1.20551 
 H                    -3.35473  -1.09025   1.37573 
 H                    -2.22919  -2.48856   1.20857 
 H                    -1.67494  -0.96965   1.95473 
 C                    -2.8483   -1.50386  -1.16155 
 H                    -2.72084  -2.58394  -1.14089 
 H                    -3.86177  -1.20794  -0.90486 
 H                    -2.5764   -1.11417  -2.13943 
 C                    -2.07932   0.61124  -0.18636 
 H                    -1.74072   0.92843  -1.17083 
 H                    -1.41117   1.01676   0.56796 
 N                     2.404     1.04416   0.428 
 H                     3.23334   0.51077   0.26161 
 H                     2.55442   1.99134   0.14477 
 

 GradGradGradGradGradGradGradGradGradGradGradGradGradGradGradGradGradGrad
 Berny optimization.
 Initialization pass.
                           ----------------------------
                           !    Initial Parameters    !
                           ! (Angstroms and Degrees)  !
 --------------------------                            --------------------------
 ! Name  Definition              Value          Derivative Info.                !
 --------------------------------------------------------------------------------
 ! R1    R(1,2)                  1.0894         estimate D2E/DX2                !
 ! R2    R(1,3)                  1.09           estimate D2E/DX2                !
 ! R3    R(1,4)                  1.5323         estimate D2E/DX2                !
 ! R4    R(1,22)                 1.47           estimate D2E/DX2                !
 ! R5    R(4,5)                  1.0907         estimate D2E/DX2                !
 ! R6    R(4,6)                  1.0883         estimate D2E/DX2                !
 ! R7    R(4,7)                  1.5286         estimate D2E/DX2                !
 ! R8    R(7,8)                  1.0901         estimate D2E/DX2                !
 ! R9    R(7,9)                  1.0888         estimate D2E/DX2                !
 ! R10   R(7,10)                 1.5058         estimate D2E/DX2                !
 ! R11   R(10,11)                1.4935         estimate D2E/DX2                !
 ! R12   R(10,15)                1.4952         estimate D2E/DX2                !
 ! R13   R(10,19)                1.5143         estimate D2E/DX2                !
 ! R14   R(11,12)                1.0869         estimate D2E/DX2                !
 ! R15   R(11,13)                1.0877         estimate D2E/DX2                !
 ! R16   R(11,14)                1.0855         estimate D2E/DX2                !
 ! R17   R(15,16)                1.0878         estimate D2E/DX2                !
 ! R18   R(15,17)                1.0865         estimate D2E/DX2                !
 ! R19   R(15,18)                1.0872         estimate D2E/DX2                !
 ! R20   R(19,20)                1.0883         estimate D2E/DX2                !
 ! R21   R(19,21)                1.0862         estimate D2E/DX2                !
 ! R22   R(22,23)                1.0            estimate D2E/DX2                !
 ! R23   R(22,24)                1.0            estimate D2E/DX2                !
 ! A1    A(2,1,3)              106.7739         estimate D2E/DX2                !
 ! A2    A(2,1,4)              111.4798         estimate D2E/DX2                !
 ! A3    A(2,1,22)             107.5839         estimate D2E/DX2                !
 ! A4    A(3,1,4)              109.8602         estimate D2E/DX2                !
 ! A5    A(3,1,22)             107.0379         estimate D2E/DX2                !
 ! A6    A(4,1,22)             113.772          estimate D2E/DX2                !
 ! A7    A(1,4,5)              109.7212         estimate D2E/DX2                !
 ! A8    A(1,4,6)              107.8677         estimate D2E/DX2                !
 ! A9    A(1,4,7)              113.3089         estimate D2E/DX2                !
 ! A10   A(5,4,6)              106.1595         estimate D2E/DX2                !
 ! A11   A(5,4,7)              111.2575         estimate D2E/DX2                !
 ! A12   A(6,4,7)              108.2048         estimate D2E/DX2                !
 ! A13   A(4,7,8)              110.1894         estimate D2E/DX2                !
 ! A14   A(4,7,9)              110.4856         estimate D2E/DX2                !
 ! A15   A(4,7,10)             116.7919         estimate D2E/DX2                !
 ! A16   A(8,7,9)              107.4003         estimate D2E/DX2                !
 ! A17   A(8,7,10)             105.9669         estimate D2E/DX2                !
 ! A18   A(9,7,10)             105.4988         estimate D2E/DX2                !
 ! A19   A(7,10,11)            110.4663         estimate D2E/DX2                !
 ! A20   A(7,10,15)            107.6953         estimate D2E/DX2                !
 ! A21   A(7,10,19)            110.999          estimate D2E/DX2                !
 ! A22   A(11,10,15)           108.4969         estimate D2E/DX2                !
 ! A23   A(11,10,19)           109.9377         estimate D2E/DX2                !
 ! A24   A(15,10,19)           109.1743         estimate D2E/DX2                !
 ! A25   A(10,11,12)           106.8154         estimate D2E/DX2                !
 ! A26   A(10,11,13)           108.5667         estimate D2E/DX2                !
 ! A27   A(10,11,14)           109.2028         estimate D2E/DX2                !
 ! A28   A(12,11,13)           111.9899         estimate D2E/DX2                !
 ! A29   A(12,11,14)           110.1197         estimate D2E/DX2                !
 ! A30   A(13,11,14)           110.0486         estimate D2E/DX2                !
 ! A31   A(10,15,16)           108.6327         estimate D2E/DX2                !
 ! A32   A(10,15,17)           107.225          estimate D2E/DX2                !
 ! A33   A(10,15,18)           108.3436         estimate D2E/DX2                !
 ! A34   A(16,15,17)           112.0393         estimate D2E/DX2                !
 ! A35   A(16,15,18)           110.1006         estimate D2E/DX2                !
 ! A36   A(17,15,18)           110.3733         estimate D2E/DX2                !
 ! A37   A(10,19,20)           106.6751         estimate D2E/DX2                !
 ! A38   A(10,19,21)           107.1166         estimate D2E/DX2                !
 ! A39   A(20,19,21)           109.1474         estimate D2E/DX2                !
 ! A40   A(1,22,23)            109.4712         estimate D2E/DX2                !
 ! A41   A(1,22,24)            109.4712         estimate D2E/DX2                !
 ! A42   A(23,22,24)           109.4713         estimate D2E/DX2                !
 ! D1    D(2,1,4,5)            -64.7101         estimate D2E/DX2                !
 ! D2    D(2,1,4,6)           -179.9364         estimate D2E/DX2                !
 ! D3    D(2,1,4,7)             60.3074         estimate D2E/DX2                !
 ! D4    D(3,1,4,5)            177.1332         estimate D2E/DX2                !
 ! D5    D(3,1,4,6)             61.9069         estimate D2E/DX2                !
 ! D6    D(3,1,4,7)            -57.8493         estimate D2E/DX2                !
 ! D7    D(22,1,4,5)            57.1653         estimate D2E/DX2                !
 ! D8    D(22,1,4,6)           -58.0611         estimate D2E/DX2                !
 ! D9    D(22,1,4,7)          -177.8172         estimate D2E/DX2                !
 ! D10   D(2,1,22,23)         -151.6843         estimate D2E/DX2                !
 ! D11   D(2,1,22,24)          -31.6843         estimate D2E/DX2                !
 ! D12   D(3,1,22,23)          -37.2434         estimate D2E/DX2                !
 ! D13   D(3,1,22,24)           82.7566         estimate D2E/DX2                !
 ! D14   D(4,1,22,23)           84.3068         estimate D2E/DX2                !
 ! D15   D(4,1,22,24)         -155.6932         estimate D2E/DX2                !
 ! D16   D(1,4,7,8)             21.2406         estimate D2E/DX2                !
 ! D17   D(1,4,7,9)            139.7637         estimate D2E/DX2                !
 ! D18   D(1,4,7,10)           -99.6914         estimate D2E/DX2                !
 ! D19   D(5,4,7,8)            145.4259         estimate D2E/DX2                !
 ! D20   D(5,4,7,9)            -96.051          estimate D2E/DX2                !
 ! D21   D(5,4,7,10)            24.4939         estimate D2E/DX2                !
 ! D22   D(6,4,7,8)            -98.3228         estimate D2E/DX2                !
 ! D23   D(6,4,7,9)             20.2003         estimate D2E/DX2                !
 ! D24   D(6,4,7,10)           140.7452         estimate D2E/DX2                !
 ! D25   D(4,7,10,11)          -67.4876         estimate D2E/DX2                !
 ! D26   D(4,7,10,15)          174.1843         estimate D2E/DX2                !
 ! D27   D(4,7,10,19)           54.729          estimate D2E/DX2                !
 ! D28   D(8,7,10,11)          169.3767         estimate D2E/DX2                !
 ! D29   D(8,7,10,15)           51.0487         estimate D2E/DX2                !
 ! D30   D(8,7,10,19)          -68.4067         estimate D2E/DX2                !
 ! D31   D(9,7,10,11)           55.6656         estimate D2E/DX2                !
 ! D32   D(9,7,10,15)          -62.6624         estimate D2E/DX2                !
 ! D33   D(9,7,10,19)          177.8823         estimate D2E/DX2                !
 ! D34   D(7,10,11,12)        -178.7032         estimate D2E/DX2                !
 ! D35   D(7,10,11,13)         -57.7622         estimate D2E/DX2                !
 ! D36   D(7,10,11,14)          62.2334         estimate D2E/DX2                !
 ! D37   D(15,10,11,12)        -60.866          estimate D2E/DX2                !
 ! D38   D(15,10,11,13)         60.075          estimate D2E/DX2                !
 ! D39   D(15,10,11,14)       -179.9295         estimate D2E/DX2                !
 ! D40   D(19,10,11,12)         58.4591         estimate D2E/DX2                !
 ! D41   D(19,10,11,13)        179.4            estimate D2E/DX2                !
 ! D42   D(19,10,11,14)        -60.6044         estimate D2E/DX2                !
 ! D43   D(7,10,15,16)          57.9295         estimate D2E/DX2                !
 ! D44   D(7,10,15,17)         179.2032         estimate D2E/DX2                !
 ! D45   D(7,10,15,18)         -61.6669         estimate D2E/DX2                !
 ! D46   D(11,10,15,16)        -61.6577         estimate D2E/DX2                !
 ! D47   D(11,10,15,17)         59.616          estimate D2E/DX2                !
 ! D48   D(11,10,15,18)        178.7458         estimate D2E/DX2                !
 ! D49   D(19,10,15,16)        178.5391         estimate D2E/DX2                !
 ! D50   D(19,10,15,17)        -60.1872         estimate D2E/DX2                !
 ! D51   D(19,10,15,18)         58.9427         estimate D2E/DX2                !
 ! D52   D(7,10,19,20)          54.9833         estimate D2E/DX2                !
 ! D53   D(7,10,19,21)         -61.7932         estimate D2E/DX2                !
 ! D54   D(11,10,19,20)        177.5068         estimate D2E/DX2                !
 ! D55   D(11,10,19,21)         60.7303         estimate D2E/DX2                !
 ! D56   D(15,10,19,20)        -63.583          estimate D2E/DX2                !
 ! D57   D(15,10,19,21)        179.6404         estimate D2E/DX2                !
 --------------------------------------------------------------------------------
 Trust Radius=3.00D-01 FncErr=1.00D-07 GrdErr=1.00D-06 EigMax=2.50D+02 EigMin=1.00D-04
 Number of steps in this run=    132 maximum allowed number of steps=    144.
 GradGradGradGradGradGradGradGradGradGradGradGradGradGradGradGradGradGrad

                          Input orientation:                          
 ---------------------------------------------------------------------
 Center     Atomic      Atomic             Coordinates (Angstroms)
 Number     Number       Type             X           Y           Z
 ---------------------------------------------------------------------
      1          6           0        1.290900    0.472853   -0.343704
      2          1           0        0.594780    1.281064   -0.564847
      3          1           0        1.700797    0.140933   -1.297546
      4          6           0        0.589625   -0.695836    0.356452
      5          1           0        0.224734   -0.374523    1.332741
      6          1           0        1.334903   -1.465026    0.549777
      7          6           0       -0.531321   -1.315867   -0.477565
      8          1           0       -0.390523   -1.079186   -1.532267
      9          1           0       -0.521264   -2.400543   -0.383104
     10          7           0       -1.938114   -0.895862   -0.143011
     11          6           0       -2.328485   -1.405363    1.205507
     12          1           0       -3.354727   -1.090248    1.375729
     13          1           0       -2.229190   -2.488564    1.208571
     14          1           0       -1.674942   -0.969645    1.954734
     15          6           0       -2.848301   -1.503863   -1.161546
     16          1           0       -2.720835   -2.583940   -1.140892
     17          1           0       -3.861773   -1.207938   -0.904855
     18          1           0       -2.576401   -1.114172   -2.139427
     19          6           0       -2.079317    0.611244   -0.186361
     20          1           0       -1.740718    0.928434   -1.170832
     21          1           0       -1.411168    1.016765    0.567961
     22          7           0        2.403995    1.044158    0.428003
     23          1           0        3.233337    0.510767    0.261608
     24          1           0        2.554422    1.991339    0.144774
 ---------------------------------------------------------------------
                    Distance matrix (angstroms):
                    1          2          3          4          5
     1  C    0.000000
     2  H    1.089355   0.000000
     3  H    1.089955   1.749292   0.000000
     4  C    1.532266   2.181044   2.161156   0.000000
     5  H    2.159913   2.545337   3.059880   1.090655   0.000000
     6  H    2.134390   3.054698   2.474992   1.088332   1.742041
     7  C    2.556937   2.831921   2.788725   1.528575   2.175995
     8  H    2.578506   2.734503   2.432571   2.162153   3.013862
     9  H    3.397336   3.851339   3.497550   2.164957   2.757788
    10  N    3.512861   3.366378   3.955953   2.584364   2.669747
    11  C    4.362075   4.347013   4.989130   3.120847   2.756401
    12  H    5.194381   4.998756   5.849832   4.092970   3.650569
    13  H    4.854954   5.032883   5.351605   3.447564   3.241347
    14  H    4.019929   4.070088   4.817294   2.785272   2.085620
    15  C    4.659320   4.468409   4.839230   3.844030   4.115874
    16  H    5.106223   5.124782   5.196181   4.094645   4.435849
    17  H    5.448852   5.115818   5.737232   4.654899   4.732964
    18  H    4.549647   4.274675   4.536350   4.053163   4.522099
    19  C    3.376725   2.782571   3.968020   3.020986   2.930538
    20  H    3.175280   2.438466   3.532738   3.225112   3.439269
    21  H    2.903127   2.318822   3.732496   2.642142   2.279637
    22  N    1.470000   2.077290   2.070706   2.514883   2.753250
    23  H    2.034920   2.870256   2.217300   2.907594   3.314025
    24  H    2.034920   2.201874   2.496591   3.335588   3.526474
                    6          7          8          9         10
     6  H    0.000000
     7  C    2.135526   0.000000
     8  H    2.731460   1.090064   0.000000
     9  H    2.278336   1.088827   1.756033   0.000000
    10  N    3.393603   1.505789   2.087745   2.080666   0.000000
    11  C    3.722090   2.463847   3.370088   2.603865   1.493480
    12  H    4.776535   3.384853   4.152478   3.583138   2.085941
    13  H    3.766218   2.664777   3.588766   2.336277   2.109076
    14  H    3.358343   2.709948   3.717648   2.973874   2.115475
    15  C    4.519882   2.423133   2.521599   2.612491   1.495166
    16  H    4.534241   2.615719   2.801395   2.333664   2.111404
    17  H    5.402544   3.359484   3.529844   3.585181   2.092429
    18  H    4.759539   2.642880   2.268905   2.993827   2.107307
    19  C    4.063212   2.488945   2.742452   3.396630   1.514326
    20  H    4.260116   2.641997   2.446263   3.631758   2.103196
    21  H    3.701422   2.703410   3.137783   3.657108   2.107437
    22  N    2.730163   3.873738   4.020022   4.591405   4.789952
    23  H    2.755150   4.249190   4.344916   4.794623   5.374591
    24  H    3.687508   4.565822   4.573106   5.387683   5.348049
                   11         12         13         14         15
    11  C    0.000000
    12  H    1.086944   0.000000
    13  H    1.087747   1.802793   0.000000
    14  H    1.085499   1.780863   1.780748   0.000000
    15  C    2.425459   2.620174   2.640150   3.372442   0.000000
    16  H    2.654914   2.994380   2.402246   3.644549   1.087768
    17  H    2.616023   2.339233   2.961739   3.607806   1.086548
    18  H    3.366724   3.600373   3.635739   4.194719   1.087216
    19  C    2.462942   2.638536   3.402514   2.692028   2.452754
    20  H    3.382168   3.628371   4.192378   3.657348   2.672620
    21  H    2.667328   2.978156   3.656073   2.436912   3.377886
    22  N    5.385260   6.214238   5.878419   4.798337   6.050264
    23  H    5.957882   6.870743   6.303327   5.399027   6.562807
    24  H    6.041980   6.777129   6.639589   5.470914   6.565999
                   16         17         18         19         20
    16  H    0.000000
    17  H    1.803006   0.000000
    18  H    1.782737   1.784696   0.000000
    19  C    3.395861   2.646281   2.653040   0.000000
    20  H    3.646682   3.022201   2.410141   1.088321   0.000000
    21  H    4.195292   3.622699   3.637115   1.086218   1.771949
    22  N    6.472125   6.790308   6.004534   4.545871   4.443907
    23  H    6.855391   7.392913   6.492953   5.332453   5.193029
    24  H    7.100314   7.246009   6.417719   4.846220   4.616148
                   21         22         23         24
    21  H    0.000000
    22  N    3.817828   0.000000
    23  H    4.682020   1.000000   0.000000
    24  H    4.105459   1.000000   1.632993   0.000000
 Stoichiometry    C6H16N2
 Framework group  C1[X(C6H16N2)]
 Deg. of freedom    66
 Full point group                 C1      NOp   1
 Largest Abelian subgroup         C1      NOp   1
 Largest concise Abelian subgroup C1      NOp   1
                         Standard orientation:                         
 ---------------------------------------------------------------------
 Center     Atomic      Atomic             Coordinates (Angstroms)
 Number     Number       Type             X           Y           Z
 ---------------------------------------------------------------------
      1          6           0       -2.130270   -0.415911   -0.183675
      2          1           0       -1.789620   -1.194079    0.498312
      3          1           0       -2.311586   -0.897161   -1.144677
      4          6           0       -1.080221    0.688358   -0.344386
      5          1           0       -0.937686    1.201981    0.607141
      6          1           0       -1.479273    1.430991   -1.032659
      7          6           0        0.248554    0.182419   -0.905566
      8          1           0        0.100391   -0.761647   -1.429995
      9          1           0        0.654477    0.893420   -1.623375
     10          7           0        1.354464   -0.063832    0.086262
     11          6           0        1.817588    1.224724    0.682601
     12          1           0        2.626071    0.981735    1.367260
     13          1           0        2.147297    1.879534   -0.120959
     14          1           0        0.995763    1.683738    1.223175
     15          6           0        2.497745   -0.682757   -0.652223
     16          1           0        2.799138   -0.010602   -1.452603
     17          1           0        3.295954   -0.843902    0.067139
     18          1           0        2.164315   -1.631090   -1.066381
     19          6           0        0.901239   -1.006307    1.181485
     20          1           0        0.535178   -1.904885    0.688534
     21          1           0        0.077383   -0.522862    1.698605
     22          7           0       -3.428563    0.067902    0.307507
     23          1           0       -3.971553    0.404597   -0.461777
     24          1           0       -3.915362   -0.681410    0.756459
 ---------------------------------------------------------------------
 Rotational constants (GHZ):           4.0227737           0.9669923           0.9527410
 Standard basis: 6-311+G(2d,2p) (5D, 7F)
 There are   376 symmetry adapted cartesian basis functions of A   symmetry.
 There are   360 symmetry adapted basis functions of A   symmetry.
   360 basis functions,   512 primitive gaussians,   376 cartesian basis functions
    33 alpha electrons       33 beta electrons
       nuclear repulsion energy       419.9179352334 Hartrees.
 NAtoms=   24 NActive=   24 NUniq=   24 SFac= 1.00D+00 NAtFMM=   60 NAOKFM=F Big=F
 Integral buffers will be    131072 words long.
 Raffenetti 2 integral format.
 Two-electron integral symmetry is turned on.
 Nuclear repulsion after empirical dispersion term =      419.9002962367 Hartrees.
 One-electron integrals computed using PRISM.
 NBasis=   360 RedAO= T EigKep=  1.41D-05  NBF=   360
 NBsUse=   360 1.00D-06 EigRej= -1.00D+00 NBFU=   360
 ExpMin= 4.38D-02 ExpMax= 6.29D+03 ExpMxC= 9.49D+02 IAcc=3 IRadAn=         5 AccDes= 0.00D+00
 Harris functional with IExCor= 4639 and IRadAn=       5 diagonalized for initial guess.
 HarFok:  IExCor= 4639 AccDes= 0.00D+00 IRadAn=         5 IDoV= 1 UseB2=F ITyADJ=14
 ICtDFT=  3500011 ScaDFX=  1.000000  1.000000  1.000000  1.000000
 FoFCou: FMM=F IPFlag=           0 FMFlag=      100000 FMFlg1=           0
         NFxFlg=           0 DoJE=T BraDBF=F KetDBF=T FulRan=T
         wScrn=  0.000000 ICntrl=       500 IOpCl=  0 I1Cent=   200000004 NGrid=           0
         NMat0=    1 NMatS0=      1 NMatT0=    0 NMatD0=    1 NMtDS0=    0 NMtDT0=    0
 Petite list used in FoFCou.
 Requested convergence on RMS density matrix=1.00D-08 within  32 cycles.
 Requested convergence on MAX density matrix=1.00D-06.
 Requested convergence on             energy=1.00D-06.
 No special actions if energy rises.
 SCF Done:  E(RwB97XD) =  -347.657865636     A.U. after   14 cycles
            NFock= 14  Conv=0.96D-08     -V/T= 2.0045
 QCSCF skips out because SCF is already converged.

 **********************************************************************

            Population analysis using the SCF density.

 **********************************************************************

 Orbital symmetries:
       Occupied  (A) (A) (A) (A) (A) (A) (A) (A) (A) (A) (A) (A)
                 (A) (A) (A) (A) (A) (A) (A) (A) (A) (A) (A) (A)
                 (A) (A) (A) (A) (A) (A) (A) (A) (A)
       Virtual   (A) (A) (A) (A) (A) (A) (A) (A) (A) (A) (A) (A)
                 (A) (A) (A) (A) (A) (A) (A) (A) (A) (A) (A) (A)
                 (A) (A) (A) (A) (A) (A) (A) (A) (A) (A) (A) (A)
                 (A) (A) (A) (A) (A) (A) (A) (A) (A) (A) (A) (A)
                 (A) (A) (A) (A) (A) (A) (A) (A) (A) (A) (A) (A)
                 (A) (A) (A) (A) (A) (A) (A) (A) (A) (A) (A) (A)
                 (A) (A) (A) (A) (A) (A) (A) (A) (A) (A) (A) (A)
                 (A) (A) (A) (A) (A) (A) (A) (A) (A) (A) (A) (A)
                 (A) (A) (A) (A) (A) (A) (A) (A) (A) (A) (A) (A)
                 (A) (A) (A) (A) (A) (A) (A) (A) (A) (A) (A) (A)
                 (A) (A) (A) (A) (A) (A) (A) (A) (A) (A) (A) (A)
                 (A) (A) (A) (A) (A) (A) (A) (A) (A) (A) (A) (A)
                 (A) (A) (A) (A) (A) (A) (A) (A) (A) (A) (A) (A)
                 (A) (A) (A) (A) (A) (A) (A) (A) (A) (A) (A) (A)
                 (A) (A) (A) (A) (A) (A) (A) (A) (A) (A) (A) (A)
                 (A) (A) (A) (A) (A) (A) (A) (A) (A) (A) (A) (A)
                 (A) (A) (A) (A) (A) (A) (A) (A) (A) (A) (A) (A)
                 (A) (A) (A) (A) (A) (A) (A) (A) (A) (A) (A) (A)
                 (A) (A) (A) (A) (A) (A) (A) (A) (A) (A) (A) (A)
                 (A) (A) (A) (A) (A) (A) (A) (A) (A) (A) (A) (A)
                 (A) (A) (A) (A) (A) (A) (A) (A) (A) (A) (A) (A)
                 (A) (A) (A) (A) (A) (A) (A) (A) (A) (A) (A) (A)
                 (A) (A) (A) (A) (A) (A) (A) (A) (A) (A) (A) (A)
                 (A) (A) (A) (A) (A) (A) (A) (A) (A) (A) (A) (A)
                 (A) (A) (A) (A) (A) (A) (A) (A) (A) (A) (A) (A)
                 (A) (A) (A) (A) (A) (A) (A) (A) (A) (A) (A) (A)
                 (A) (A) (A) (A) (A) (A) (A) (A) (A) (A) (A) (A)
                 (A) (A) (A)
 The electronic state is 1-A.
 Alpha  occ. eigenvalues --  -14.53341 -14.40837 -10.32946 -10.32351 -10.32312
 Alpha  occ. eigenvalues --  -10.30305 -10.28928 -10.20642  -1.09172  -0.98674
 Alpha  occ. eigenvalues --   -0.88586  -0.83760  -0.79743  -0.77448  -0.70399
 Alpha  occ. eigenvalues --   -0.67244  -0.60933  -0.59102  -0.57833  -0.56561
 Alpha  occ. eigenvalues --   -0.54199  -0.52961  -0.51517  -0.49389  -0.48620
 Alpha  occ. eigenvalues --   -0.48114  -0.45524  -0.44563  -0.43755  -0.42388
 Alpha  occ. eigenvalues --   -0.40547  -0.32504  -0.20762
 Alpha virt. eigenvalues --    0.05147   0.06421   0.06989   0.07613   0.08986
 Alpha virt. eigenvalues --    0.09626   0.09859   0.10659   0.11146   0.12000
 Alpha virt. eigenvalues --    0.12756   0.13776   0.14101   0.14457   0.15583
 Alpha virt. eigenvalues --    0.15906   0.16839   0.17319   0.17689   0.19070
 Alpha virt. eigenvalues --    0.19544   0.20149   0.20886   0.21535   0.21997
 Alpha virt. eigenvalues --    0.22689   0.23368   0.23901   0.24274   0.24405
 Alpha virt. eigenvalues --    0.25052   0.25530   0.25919   0.26694   0.27492
 Alpha virt. eigenvalues --    0.28208   0.29000   0.30096   0.30690   0.30990
 Alpha virt. eigenvalues --    0.32096   0.32949   0.33029   0.33354   0.34173
 Alpha virt. eigenvalues --    0.34596   0.34896   0.35867   0.36825   0.38071
 Alpha virt. eigenvalues --    0.39025   0.39327   0.41193   0.43291   0.45448
 Alpha virt. eigenvalues --    0.46043   0.47967   0.49045   0.49601   0.51465
 Alpha virt. eigenvalues --    0.53099   0.54713   0.55012   0.56478   0.56867
 Alpha virt. eigenvalues --    0.58463   0.58998   0.59307   0.59656   0.60553
 Alpha virt. eigenvalues --    0.61995   0.62566   0.62936   0.63435   0.64615
 Alpha virt. eigenvalues --    0.64889   0.66231   0.66681   0.68454   0.69080
 Alpha virt. eigenvalues --    0.69606   0.69814   0.71305   0.72266   0.72598
 Alpha virt. eigenvalues --    0.74269   0.75107   0.75347   0.76204   0.76771
 Alpha virt. eigenvalues --    0.77091   0.77200   0.78583   0.79689   0.80022
 Alpha virt. eigenvalues --    0.81789   0.84844   0.85259   0.86057   0.86684
 Alpha virt. eigenvalues --    0.89961   0.91335   0.92911   0.96540   0.97466
 Alpha virt. eigenvalues --    0.98374   0.99757   1.02027   1.02317   1.03127
 Alpha virt. eigenvalues --    1.04702   1.06121   1.06920   1.07790   1.08964
 Alpha virt. eigenvalues --    1.09537   1.12247   1.13808   1.15289   1.15967
 Alpha virt. eigenvalues --    1.17450   1.18490   1.19738   1.20634   1.21345
 Alpha virt. eigenvalues --    1.23009   1.23926   1.25479   1.26697   1.27573
 Alpha virt. eigenvalues --    1.27851   1.28718   1.29584   1.32172   1.33716
 Alpha virt. eigenvalues --    1.34546   1.35931   1.36513   1.36703   1.38701
 Alpha virt. eigenvalues --    1.39551   1.40002   1.41415   1.41711   1.42302
 Alpha virt. eigenvalues --    1.44477   1.44971   1.45946   1.46575   1.48091
 Alpha virt. eigenvalues --    1.48514   1.50156   1.50588   1.50987   1.51581
 Alpha virt. eigenvalues --    1.52895   1.55196   1.55888   1.56504   1.57693
 Alpha virt. eigenvalues --    1.58161   1.59074   1.59927   1.62110   1.63825
 Alpha virt. eigenvalues --    1.65151   1.67034   1.67642   1.68730   1.69435
 Alpha virt. eigenvalues --    1.69533   1.71301   1.72334   1.73258   1.74785
 Alpha virt. eigenvalues --    1.76243   1.77083   1.80034   1.81055   1.82888
 Alpha virt. eigenvalues --    1.85697   1.87807   1.89519   1.93168   1.95869
 Alpha virt. eigenvalues --    1.98473   2.02446   2.04252   2.07322   2.10518
 Alpha virt. eigenvalues --    2.11156   2.76912   2.79313   2.82937   2.85071
 Alpha virt. eigenvalues --    2.88538   2.89851   2.90200   2.94083   2.95278
 Alpha virt. eigenvalues --    3.00606   3.03737   3.08758   3.12775   3.13465
 Alpha virt. eigenvalues --    3.20223   3.21410   3.24016   3.24876   3.26145
 Alpha virt. eigenvalues --    3.27499   3.31765   3.34551   3.35426   3.38262
 Alpha virt. eigenvalues --    3.40576   3.42513   3.43446   3.44398   3.47281
 Alpha virt. eigenvalues --    3.48705   3.50271   3.51884   3.52622   3.55086
 Alpha virt. eigenvalues --    3.55302   3.57825   3.58810   3.60199   3.62355
 Alpha virt. eigenvalues --    3.64067   3.64710   3.66379   3.68037   3.68502
 Alpha virt. eigenvalues --    3.71354   3.72754   3.73305   3.75068   3.75885
 Alpha virt. eigenvalues --    3.77256   3.78705   3.80915   3.81861   3.84362
 Alpha virt. eigenvalues --    3.84824   3.85489   3.88040   3.90861   3.91386
 Alpha virt. eigenvalues --    3.92311   3.94231   3.95053   3.96251   4.00185
 Alpha virt. eigenvalues --    4.00753   4.02146   4.04115   4.05327   4.06554
 Alpha virt. eigenvalues --    4.09382   4.09891   4.10471   4.11557   4.14048
 Alpha virt. eigenvalues --    4.14937   4.15783   4.16752   4.18635   4.19268
 Alpha virt. eigenvalues --    4.22142   4.23911   4.24214   4.26352   4.27275
 Alpha virt. eigenvalues --    4.28836   4.29712   4.31126   4.32015   4.36424
 Alpha virt. eigenvalues --    4.37602   4.39508   4.39811   4.40784   4.41164
 Alpha virt. eigenvalues --    4.42176   4.43569   4.47082   4.48974   4.50701
 Alpha virt. eigenvalues --    4.53243   4.55950   4.60844   4.70500   4.87827
 Alpha virt. eigenvalues --    4.96919   5.03298   5.03780   5.06161   5.09557
 Alpha virt. eigenvalues --    5.13188   5.13848   5.13992   5.14287   5.17511
 Alpha virt. eigenvalues --    5.18088   5.23013   5.23350   5.26080   5.27000
 Alpha virt. eigenvalues --    5.32713   5.38517   5.44558   5.50534   5.67191
 Alpha virt. eigenvalues --    5.72617   5.76187   5.86813   6.10600  24.01539
 Alpha virt. eigenvalues --   24.06363  24.11299  24.16528  24.20595  24.21901
 Alpha virt. eigenvalues --   35.59248  35.78254
          Condensed to atoms (all electrons):
               1          2          3          4          5          6
     1  C    5.122235   0.465915   0.477289  -0.088609  -0.030540  -0.012488
     2  H    0.465915   0.522756  -0.031718  -0.022615  -0.004970   0.004369
     3  H    0.477289  -0.031718   0.595217  -0.011519   0.004516  -0.009673
     4  C   -0.088609  -0.022615  -0.011519   5.851946   0.460021   0.449000
     5  H   -0.030540  -0.004970   0.004516   0.460021   0.496545  -0.025043
     6  H   -0.012488   0.004369  -0.009673   0.449000  -0.025043   0.524475
     7  C    0.010322  -0.010326  -0.055630  -0.015057  -0.033171  -0.042595
     8  H   -0.017494  -0.000764   0.005386   0.020513   0.002855   0.001556
     9  H    0.022941  -0.000310   0.000129  -0.097644   0.001347  -0.010142
    10  N    0.092146   0.000875  -0.000283  -0.207987   0.006164   0.003029
    11  C    0.023269   0.000055  -0.000109  -0.102277  -0.006801   0.000618
    12  H   -0.000646  -0.000008   0.000002   0.002484  -0.000010  -0.000031
    13  H   -0.001905   0.000008   0.000008   0.005213   0.000191   0.000215
    14  H    0.003843   0.000022  -0.000030  -0.015204   0.003940   0.000227
    15  C    0.020139  -0.000828  -0.000833  -0.073127   0.000896   0.001123
    16  H   -0.002038   0.000014   0.000004   0.002724   0.000065  -0.000031
    17  H   -0.000369  -0.000004   0.000001   0.004744  -0.000036   0.000008
    18  H    0.000880  -0.000049   0.000022  -0.008174  -0.000019   0.000013
    19  C   -0.012514  -0.006780  -0.000586   0.036481  -0.005228  -0.000803
    20  H    0.008964  -0.000916  -0.000182  -0.056355   0.000304  -0.000155
    21  H    0.017636  -0.003206   0.000270   0.027144  -0.005228   0.000450
    22  N    0.237206  -0.038709  -0.064930  -0.030435  -0.002219   0.000785
    23  H    0.005187   0.005602  -0.013899  -0.030318   0.000063   0.002220
    24  H   -0.040958  -0.007775   0.001076   0.014799   0.000282  -0.000298
               7          8          9         10         11         12
     1  C    0.010322  -0.017494   0.022941   0.092146   0.023269  -0.000646
     2  H   -0.010326  -0.000764  -0.000310   0.000875   0.000055  -0.000008
     3  H   -0.055630   0.005386   0.000129  -0.000283  -0.000109   0.000002
     4  C   -0.015057   0.020513  -0.097644  -0.207987  -0.102277   0.002484
     5  H   -0.033171   0.002855   0.001347   0.006164  -0.006801  -0.000010
     6  H   -0.042595   0.001556  -0.010142   0.003029   0.000618  -0.000031
     7  C    5.428932   0.441700   0.463197  -0.000284  -0.037225   0.010030
     8  H    0.441700   0.528824  -0.029211  -0.071627  -0.011549  -0.000221
     9  H    0.463197  -0.029211   0.519840  -0.007399   0.002692  -0.000236
    10  N   -0.000284  -0.071627  -0.007399   7.000943   0.262860  -0.035239
    11  C   -0.037225  -0.011549   0.002692   0.262860   4.935915   0.426561
    12  H    0.010030  -0.000221  -0.000236  -0.035239   0.426561   0.489602
    13  H   -0.006176   0.001199   0.002085  -0.025878   0.418562  -0.024786
    14  H   -0.002313  -0.000762  -0.000251  -0.023978   0.427873  -0.014711
    15  C   -0.123678   0.003601   0.000548   0.309390  -0.004918  -0.009495
    16  H    0.009035  -0.000054   0.001461  -0.027312  -0.018741  -0.000994
    17  H    0.006944  -0.000061  -0.000135  -0.034116  -0.003047   0.003539
    18  H   -0.009815   0.002207  -0.000702  -0.024909   0.006596  -0.000068
    19  C    0.078856  -0.009359  -0.003857   0.018527  -0.165265  -0.001495
    20  H    0.028835  -0.006814  -0.000060   0.020249   0.018581   0.000473
    21  H   -0.064832  -0.000570  -0.000002   0.009246  -0.011181  -0.001180
    22  N    0.010720  -0.000678  -0.000517  -0.002516   0.001757   0.000001
    23  H    0.002516   0.000025  -0.000010  -0.000351  -0.000120  -0.000000
    24  H    0.004383   0.000012  -0.000004  -0.000409   0.000010   0.000000
              13         14         15         16         17         18
     1  C   -0.001905   0.003843   0.020139  -0.002038  -0.000369   0.000880
     2  H    0.000008   0.000022  -0.000828   0.000014  -0.000004  -0.000049
     3  H    0.000008  -0.000030  -0.000833   0.000004   0.000001   0.000022
     4  C    0.005213  -0.015204  -0.073127   0.002724   0.004744  -0.008174
     5  H    0.000191   0.003940   0.000896   0.000065  -0.000036  -0.000019
     6  H    0.000215   0.000227   0.001123  -0.000031   0.000008   0.000013
     7  C   -0.006176  -0.002313  -0.123678   0.009035   0.006944  -0.009815
     8  H    0.001199  -0.000762   0.003601  -0.000054  -0.000061   0.002207
     9  H    0.002085  -0.000251   0.000548   0.001461  -0.000135  -0.000702
    10  N   -0.025878  -0.023978   0.309390  -0.027312  -0.034116  -0.024909
    11  C    0.418562   0.427873  -0.004918  -0.018741  -0.003047   0.006596
    12  H   -0.024786  -0.014711  -0.009495  -0.000994   0.003539  -0.000068
    13  H    0.538482  -0.029174  -0.015493   0.006603  -0.001071  -0.000075
    14  H   -0.029174   0.519628   0.011466  -0.000448  -0.000034  -0.000261
    15  C   -0.015493   0.011466   4.923465   0.405202   0.422804   0.436393
    16  H    0.006603  -0.000448   0.405202   0.549980  -0.025260  -0.031753
    17  H   -0.001071  -0.000034   0.422804  -0.025260   0.491371  -0.012782
    18  H   -0.000075  -0.000261   0.436393  -0.031753  -0.012782   0.516795
    19  C    0.009921  -0.020530  -0.189569   0.015378  -0.007105  -0.017028
    20  H   -0.000558   0.000447  -0.012853  -0.000544  -0.000336   0.001831
    21  H    0.000008   0.004004   0.017012  -0.000443   0.000368   0.000512
    22  N    0.000022  -0.000173  -0.000841   0.000015  -0.000005  -0.000007
    23  H    0.000001  -0.000002  -0.000103   0.000000   0.000000  -0.000000
    24  H   -0.000000  -0.000001   0.000011   0.000000   0.000000  -0.000001
              19         20         21         22         23         24
     1  C   -0.012514   0.008964   0.017636   0.237206   0.005187  -0.040958
     2  H   -0.006780  -0.000916  -0.003206  -0.038709   0.005602  -0.007775
     3  H   -0.000586  -0.000182   0.000270  -0.064930  -0.013899   0.001076
     4  C    0.036481  -0.056355   0.027144  -0.030435  -0.030318   0.014799
     5  H   -0.005228   0.000304  -0.005228  -0.002219   0.000063   0.000282
     6  H   -0.000803  -0.000155   0.000450   0.000785   0.002220  -0.000298
     7  C    0.078856   0.028835  -0.064832   0.010720   0.002516   0.004383
     8  H   -0.009359  -0.006814  -0.000570  -0.000678   0.000025   0.000012
     9  H   -0.003857  -0.000060  -0.000002  -0.000517  -0.000010  -0.000004
    10  N    0.018527   0.020249   0.009246  -0.002516  -0.000351  -0.000409
    11  C   -0.165265   0.018581  -0.011181   0.001757  -0.000120   0.000010
    12  H   -0.001495   0.000473  -0.001180   0.000001  -0.000000   0.000000
    13  H    0.009921  -0.000558   0.000008   0.000022   0.000001  -0.000000
    14  H   -0.020530   0.000447   0.004004  -0.000173  -0.000002  -0.000001
    15  C   -0.189569  -0.012853   0.017012  -0.000841  -0.000103   0.000011
    16  H    0.015378  -0.000544  -0.000443   0.000015   0.000000   0.000000
    17  H   -0.007105  -0.000336   0.000368  -0.000005   0.000000   0.000000
    18  H   -0.017028   0.001831   0.000512  -0.000007  -0.000000  -0.000001
    19  C    6.146883   0.388478   0.388771  -0.000726  -0.000416  -0.000826
    20  H    0.388478   0.568553  -0.045084   0.000861  -0.000016  -0.000041
    21  H    0.388771  -0.045084   0.581594  -0.001854  -0.000055   0.000063
    22  N   -0.000726   0.000861  -0.001854   6.476262   0.401525   0.418625
    23  H   -0.000416  -0.000016  -0.000055   0.401525   0.499263  -0.037675
    24  H   -0.000826  -0.000041   0.000063   0.418625  -0.037675   0.475881
 Mulliken charges:
               1
     1  C   -0.300410
     2  H    0.129361
     3  H    0.105475
     4  C   -0.115747
     5  H    0.136077
     6  H    0.113169
     7  C   -0.094369
     8  H    0.141284
     9  H    0.136239
    10  N   -0.261140
    11  C   -0.164116
    12  H    0.156428
    13  H    0.122598
    14  H    0.136424
    15  C   -0.120312
    16  H    0.117136
    17  H    0.154581
    18  H    0.140392
    19  C   -0.641208
    20  H    0.086337
    21  H    0.086556
    22  N   -0.404169
    23  H    0.166565
    24  H    0.172848
 Sum of Mulliken charges =  -0.00000
 Mulliken charges with hydrogens summed into heavy atoms:
               1
     1  C   -0.065573
     4  C    0.133499
     7  C    0.183154
    10  N   -0.261140
    11  C    0.251334
    15  C    0.291796
    19  C   -0.468315
    22  N   -0.064756
 Electronic spatial extent (au):  <R**2>=           1386.6510
 Charge=             -0.0000 electrons
 Dipole moment (field-independent basis, Debye):
    X=             -0.2060    Y=              2.1260    Z=             -4.9357  Tot=              5.3781
 Quadrupole moment (field-independent basis, Debye-Ang):
   XX=            -48.1093   YY=            -55.3320   ZZ=            -60.0865
   XY=              8.2275   XZ=             -3.4113   YZ=              4.5337
 Traceless Quadrupole moment (field-independent basis, Debye-Ang):
   XX=              6.4000   YY=             -0.8227   ZZ=             -5.5772
   XY=              8.2275   XZ=             -3.4113   YZ=              4.5337
 Octapole moment (field-independent basis, Debye-Ang**2):
  XXX=            -14.7709  YYY=              9.3188  ZZZ=            -22.4329  XYY=             -4.7773
  XXY=             -4.8870  XXZ=            -22.3215  XZZ=            -12.3857  YZZ=             11.3061
  YYZ=             -9.3208  XYZ=             17.5695
 Hexadecapole moment (field-independent basis, Debye-Ang**3):
 XXXX=          -1189.7441 YYYY=           -288.9767 ZZZZ=           -302.7367 XXXY=             61.2773
 XXXZ=             12.7510 YYYX=             22.3557 YYYZ=             19.2496 ZZZX=            -32.4037
 ZZZY=             26.2808 XXYY=           -274.4722 XXZZ=           -280.2870 YYZZ=            -99.0829
 XXYZ=             -6.4106 YYXZ=            -16.9592 ZZXY=             25.6262
 N-N= 4.199002962367D+02 E-N=-1.646024508153D+03  KE= 3.461061995257D+02
 Calling FoFJK, ICntrl=      2127 FMM=F ISym2X=0 I1Cent= 0 IOpClX= 0 NMat=1 NMatS=1 NMatT=0.
 ***** Axes restored to original set *****
 -------------------------------------------------------------------
 Center     Atomic                   Forces (Hartrees/Bohr)
 Number     Number              X              Y              Z
 -------------------------------------------------------------------
      1        6           0.009209358    0.007561691   -0.001573813
      2        1          -0.003117033   -0.004027358    0.002011106
      3        1          -0.007037937   -0.005976611   -0.007199536
      4        6           0.000283321    0.006674644   -0.001019425
      5        1           0.001250064    0.001286754   -0.001200406
      6        1           0.001024508   -0.002442974    0.000726558
      7        6          -0.000338486   -0.012647231    0.000238323
      8        1          -0.000953140    0.000636584    0.000910474
      9        1           0.004675810   -0.004525187   -0.000725554
     10        7           0.010934083    0.011941705   -0.003361300
     11        6           0.001114377    0.004020062   -0.010574918
     12        1           0.001830253   -0.000076566    0.001309570
     13        1          -0.000958188   -0.001773628    0.001593717
     14        1          -0.001544117    0.000835424   -0.000243698
     15        6           0.006061231    0.004835259    0.009012684
     16        1          -0.001587368   -0.002166333   -0.001017056
     17        1           0.000960401    0.000002894   -0.001691282
     18        1          -0.001384550    0.000829432    0.001057890
     19        6          -0.022467669    0.001350741    0.005026829
     20        1           0.002769095   -0.001839761   -0.003560566
     21        1           0.002359239   -0.000995182    0.002350013
     22        7          -0.017304287   -0.008935179    0.009226436
     23        1           0.009505551   -0.000932005    0.000287319
     24        1           0.004715484    0.006362825   -0.001583367
 -------------------------------------------------------------------
 Cartesian Forces:  Max     0.022467669 RMS     0.005698178

 GradGradGradGradGradGradGradGradGradGradGradGradGradGradGradGradGradGrad
 Berny optimization.
 FormGI is forming the generalized inverse of G from B-inverse, IUseBI=4.
 Internal  Forces:  Max     0.013200386 RMS     0.003625332
 Search for a local minimum.
 Step number   1 out of a maximum of  132
 All quantities printed in internal units (Hartrees-Bohrs-Radians)
 Mixed Optimization -- RFO/linear search
 Second derivative matrix not updated -- first step.
 ITU=  0
     Eigenvalues ---    0.00230   0.00292   0.00339   0.00388   0.00433
     Eigenvalues ---    0.00455   0.00766   0.03195   0.03428   0.03995
     Eigenvalues ---    0.04248   0.04453   0.04716   0.04836   0.04846
     Eigenvalues ---    0.05213   0.05274   0.05482   0.06004   0.06042
     Eigenvalues ---    0.06164   0.06182   0.08459   0.08982   0.09716
     Eigenvalues ---    0.12310   0.12636   0.12983   0.14876   0.15142
     Eigenvalues ---    0.16000   0.16000   0.16000   0.16000   0.16000
     Eigenvalues ---    0.16000   0.16000   0.16000   0.16000   0.16000
     Eigenvalues ---    0.21909   0.21962   0.22026   0.29215   0.29555
     Eigenvalues ---    0.30920   0.31778   0.32890   0.33071   0.34737
     Eigenvalues ---    0.34805   0.34818   0.34887   0.34949   0.35006
     Eigenvalues ---    0.35007   0.35072   0.35074   0.35136   0.35168
     Eigenvalues ---    0.35215   0.35253   0.35338   0.35740   0.47688
     Eigenvalues ---    0.47688
 RFO step:  Lambda=-1.10434573D-02 EMin= 2.30000000D-03
 Linear search not attempted -- first point.
 Iteration  1 RMS(Cart)=  0.06415433 RMS(Int)=  0.00197141
 Iteration  2 RMS(Cart)=  0.00264013 RMS(Int)=  0.00059038
 Iteration  3 RMS(Cart)=  0.00000298 RMS(Int)=  0.00059037
 Iteration  4 RMS(Cart)=  0.00000000 RMS(Int)=  0.00059037
 Variable       Old X    -DE/DX   Delta X   Delta X   Delta X     New X
                                 (Linear)    (Quad)   (Total)
    R1        2.05858  -0.00141   0.00000  -0.00391  -0.00391   2.05468
    R2        2.05972   0.00547   0.00000   0.01524   0.01524   2.07496
    R3        2.89556  -0.00692   0.00000  -0.02282  -0.02282   2.87275
    R4        2.77790   0.00047   0.00000   0.00127   0.00127   2.77916
    R5        2.06104  -0.00111   0.00000  -0.00311  -0.00311   2.05793
    R6        2.05665   0.00256   0.00000   0.00708   0.00708   2.06373
    R7        2.88859  -0.00143   0.00000  -0.00467  -0.00467   2.88392
    R8        2.05992  -0.00087   0.00000  -0.00241  -0.00241   2.05751
    R9        2.05758   0.00449   0.00000   0.01245   0.01245   2.07003
   R10        2.84553   0.00650   0.00000   0.01978   0.01978   2.86530
   R11        2.82227  -0.00829   0.00000  -0.02425  -0.02425   2.79801
   R12        2.82545  -0.00890   0.00000  -0.02619  -0.02619   2.79926
   R13        2.86166   0.00003   0.00000   0.00010   0.00010   2.86176
   R14        2.05403  -0.00154   0.00000  -0.00426  -0.00426   2.04977
   R15        2.05554   0.00168   0.00000   0.00465   0.00465   2.06019
   R16        2.05130  -0.00076   0.00000  -0.00209  -0.00209   2.04921
   R17        2.05558   0.00195   0.00000   0.00538   0.00538   2.06096
   R18        2.05328  -0.00129   0.00000  -0.00356  -0.00356   2.04971
   R19        2.05454  -0.00100   0.00000  -0.00276  -0.00276   2.05178
   R20        2.05663   0.00355   0.00000   0.00982   0.00982   2.06645
   R21        2.05265   0.00271   0.00000   0.00746   0.00746   2.06011
   R22        1.88973   0.00833   0.00000   0.01708   0.01708   1.90681
   R23        1.88973   0.00718   0.00000   0.01472   0.01472   1.90445
    A1        1.86356  -0.00106   0.00000   0.00220  -0.00048   1.86307
    A2        1.94569  -0.00036   0.00000  -0.03833  -0.03894   1.90676
    A3        1.87769   0.00604   0.00000   0.02299   0.01994   1.89763
    A4        1.91742  -0.00223   0.00000  -0.02212  -0.02079   1.89664
    A5        1.86816   0.01206   0.00000   0.10178   0.10122   1.96938
    A6        1.98570  -0.01320   0.00000  -0.05716  -0.05714   1.92856
    A7        1.91500  -0.00194   0.00000  -0.01275  -0.01278   1.90222
    A8        1.88265   0.00038   0.00000   0.00365   0.00366   1.88631
    A9        1.97761   0.00166   0.00000   0.00755   0.00755   1.98516
   A10        1.85283   0.00032   0.00000   0.00020   0.00022   1.85305
   A11        1.94181   0.00088   0.00000   0.00923   0.00927   1.95108
   A12        1.88853  -0.00139   0.00000  -0.00840  -0.00840   1.88013
   A13        1.92317   0.00119   0.00000  -0.00030  -0.00040   1.92277
   A14        1.92834  -0.00276   0.00000  -0.01841  -0.01852   1.90982
   A15        2.03840  -0.00097   0.00000  -0.00288  -0.00290   2.03550
   A16        1.87449  -0.00029   0.00000  -0.00376  -0.00378   1.87070
   A17        1.84947  -0.00111   0.00000  -0.01107  -0.01106   1.83841
   A18        1.84130   0.00412   0.00000   0.03765   0.03773   1.87903
   A19        1.92800  -0.00309   0.00000  -0.01150  -0.01179   1.91621
   A20        1.87964  -0.00318   0.00000  -0.01534  -0.01511   1.86453
   A21        1.93730   0.01147   0.00000   0.11250   0.11313   2.05043
   A22        1.89363   0.00360   0.00000  -0.01715  -0.01847   1.87516
   A23        1.91878  -0.00451   0.00000  -0.03351  -0.03523   1.88354
   A24        1.90545  -0.00442   0.00000  -0.03779  -0.03897   1.86648
   A25        1.86428   0.00114   0.00000   0.00437   0.00430   1.86858
   A26        1.89485   0.00293   0.00000   0.02083   0.02075   1.91559
   A27        1.90595  -0.00058   0.00000  -0.00473  -0.00476   1.90119
   A28        1.95459  -0.00142   0.00000  -0.00516  -0.00528   1.94931
   A29        1.92195  -0.00148   0.00000  -0.01658  -0.01659   1.90536
   A30        1.92071  -0.00046   0.00000   0.00186   0.00182   1.92253
   A31        1.89600   0.00327   0.00000   0.02302   0.02294   1.91893
   A32        1.87143   0.00072   0.00000   0.00179   0.00172   1.87315
   A33        1.89095  -0.00062   0.00000  -0.00503  -0.00508   1.88588
   A34        1.95545  -0.00142   0.00000  -0.00519  -0.00529   1.95016
   A35        1.92162  -0.00047   0.00000   0.00239   0.00234   1.92395
   A36        1.92638  -0.00135   0.00000  -0.01632  -0.01636   1.91002
   A37        1.86183  -0.00554   0.00000  -0.03914  -0.03962   1.82221
   A38        1.86954  -0.00355   0.00000  -0.02746  -0.02793   1.84161
   A39        1.90498   0.00212   0.00000  -0.00330  -0.00457   1.90041
   A40        1.91063   0.00618   0.00000   0.03732   0.03705   1.94768
   A41        1.91063   0.00339   0.00000   0.02103   0.02076   1.93139
   A42        1.91063  -0.00451   0.00000  -0.02398  -0.02449   1.88614
    D1       -1.12940  -0.00060   0.00000   0.00803   0.00756  -1.12184
    D2       -3.14048  -0.00017   0.00000   0.01249   0.01201  -3.12847
    D3        1.05256   0.00029   0.00000   0.01586   0.01535   1.06791
    D4        3.09156   0.00237   0.00000   0.04324   0.04324   3.13480
    D5        1.08048   0.00280   0.00000   0.04769   0.04769   1.12817
    D6       -1.00966   0.00325   0.00000   0.05106   0.05103  -0.95863
    D7        0.99772  -0.00264   0.00000  -0.03306  -0.03255   0.96517
    D8       -1.01336  -0.00221   0.00000  -0.02861  -0.02810  -1.04146
    D9       -3.10350  -0.00176   0.00000  -0.02524  -0.02476  -3.12826
   D10       -2.64739  -0.00456   0.00000  -0.06018  -0.06152  -2.70891
   D11       -0.55300  -0.00422   0.00000  -0.05381  -0.05488  -0.60788
   D12       -0.65002   0.00299   0.00000   0.00301   0.00446  -0.64556
   D13        1.44438   0.00333   0.00000   0.00938   0.01109   1.45547
   D14        1.47143   0.00037   0.00000   0.01085   0.01034   1.48177
   D15       -2.71736   0.00071   0.00000   0.01722   0.01697  -2.70039
   D16        0.37072   0.00020   0.00000  -0.01314  -0.01319   0.35753
   D17        2.43934  -0.00114   0.00000  -0.02941  -0.02937   2.40996
   D18       -1.73994   0.00143   0.00000   0.00402   0.00396  -1.73598
   D19        2.53816  -0.00042   0.00000  -0.01708  -0.01709   2.52107
   D20       -1.67641  -0.00175   0.00000  -0.03336  -0.03328  -1.70968
   D21        0.42750   0.00081   0.00000   0.00007   0.00006   0.42756
   D22       -1.71606  -0.00036   0.00000  -0.01669  -0.01672  -1.73277
   D23        0.35256  -0.00170   0.00000  -0.03296  -0.03290   0.31966
   D24        2.45647   0.00087   0.00000   0.00047   0.00044   2.45690
   D25       -1.17788   0.00086   0.00000  -0.00648  -0.00695  -1.18483
   D26        3.04009   0.00015   0.00000   0.02985   0.03010   3.07019
   D27        0.95520   0.00083   0.00000   0.01987   0.02002   0.97523
   D28        2.95618   0.00084   0.00000   0.00459   0.00411   2.96029
   D29        0.89097   0.00013   0.00000   0.04092   0.04115   0.93212
   D30       -1.19392   0.00081   0.00000   0.03094   0.03108  -1.16284
   D31        0.97155  -0.00015   0.00000  -0.00279  -0.00318   0.96837
   D32       -1.09367  -0.00086   0.00000   0.03354   0.03386  -1.05980
   D33        3.10463  -0.00018   0.00000   0.02356   0.02379   3.12842
   D34       -3.11896   0.00358   0.00000   0.03861   0.03823  -3.08073
   D35       -1.00814   0.00416   0.00000   0.04650   0.04617  -0.96197
   D36        1.08618   0.00501   0.00000   0.05838   0.05804   1.14421
   D37       -1.06231   0.00010   0.00000   0.00312   0.00304  -1.05927
   D38        1.04851   0.00069   0.00000   0.01101   0.01098   1.05949
   D39       -3.14036   0.00153   0.00000   0.02289   0.02285  -3.11751
   D40        1.02030  -0.00575   0.00000  -0.07286  -0.07249   0.94781
   D41        3.13112  -0.00517   0.00000  -0.06497  -0.06455   3.06657
   D42       -1.05775  -0.00432   0.00000  -0.05309  -0.05268  -1.11043
   D43        1.01106  -0.00416   0.00000  -0.04351  -0.04340   0.96767
   D44        3.12769  -0.00358   0.00000  -0.03562  -0.03547   3.09222
   D45       -1.07629  -0.00511   0.00000  -0.05667  -0.05654  -1.13283
   D46       -1.07613  -0.00068   0.00000  -0.01157  -0.01153  -1.08766
   D47        1.04050  -0.00011   0.00000  -0.00368  -0.00361   1.03689
   D48        3.11970  -0.00163   0.00000  -0.02472  -0.02468   3.09502
   D49        3.11610   0.00523   0.00000   0.06122   0.06102  -3.10607
   D50       -1.05046   0.00581   0.00000   0.06911   0.06895  -0.98152
   D51        1.02874   0.00428   0.00000   0.04806   0.04788   1.07662
   D52        0.95964  -0.00152   0.00000  -0.04859  -0.04841   0.91123
   D53       -1.07850   0.00052   0.00000  -0.01189  -0.01246  -1.09095
   D54        3.09808  -0.00079   0.00000  -0.01022  -0.01039   3.08769
   D55        1.05994   0.00125   0.00000   0.02648   0.02555   1.08550
   D56       -1.10973  -0.00178   0.00000  -0.07409  -0.07297  -1.18270
   D57        3.13532   0.00026   0.00000  -0.03739  -0.03702   3.09829
         Item               Value     Threshold  Converged?
 Maximum Force            0.013200     0.000450     NO 
 RMS     Force            0.003625     0.000300     NO 
 Maximum Displacement     0.312109     0.001800     NO 
 RMS     Displacement     0.063621     0.001200     NO 
 Predicted change in Energy=-6.131149D-03
 GradGradGradGradGradGradGradGradGradGradGradGradGradGradGradGradGradGrad

                          Input orientation:                          
 ---------------------------------------------------------------------
 Center     Atomic      Atomic             Coordinates (Angstroms)
 Number     Number       Type             X           Y           Z
 ---------------------------------------------------------------------
      1          6           0        1.320984    0.457617   -0.374975
      2          1           0        0.606626    1.255113   -0.564412
      3          1           0        1.674547    0.110244   -1.354757
      4          6           0        0.614136   -0.692975    0.323230
      5          1           0        0.267221   -0.355950    1.298940
      6          1           0        1.350493   -1.476070    0.516048
      7          6           0       -0.515195   -1.309144   -0.497711
      8          1           0       -0.386705   -1.069620   -1.552023
      9          1           0       -0.478255   -2.400160   -0.406869
     10          7           0       -1.924260   -0.866450   -0.154808
     11          6           0       -2.295262   -1.369827    1.187309
     12          1           0       -3.326818   -1.082907    1.360869
     13          1           0       -2.166463   -2.451789    1.223637
     14          1           0       -1.663557   -0.893285    1.928769
     15          6           0       -2.827212   -1.511471   -1.136076
     16          1           0       -2.680385   -2.592071   -1.122526
     17          1           0       -3.842561   -1.240658   -0.867341
     18          1           0       -2.595258   -1.113281   -2.119187
     19          6           0       -2.219115    0.618446   -0.193409
     20          1           0       -1.874199    0.938717   -1.180447
     21          1           0       -1.576329    1.063266    0.566473
     22          7           0        2.404184    0.984581    0.468742
     23          1           0        3.256651    0.457789    0.350633
     24          1           0        2.597147    1.946864    0.239791
 ---------------------------------------------------------------------
                    Distance matrix (angstroms):
                    1          2          3          4          5
     1  C    0.000000
     2  H    1.087288   0.000000
     3  H    1.098020   1.753804   0.000000
     4  C    1.520192   2.140796   2.141324   0.000000
     5  H    2.138761   2.486523   3.039738   1.089011   0.000000
     6  H    2.129304   3.029867   2.474129   1.092080   1.743865
     7  C    2.551090   2.799704   2.746663   1.526105   2.179153
     8  H    2.575674   2.714124   2.383223   2.158731   3.010803
     9  H    3.377154   3.816125   3.440229   2.154262   2.764835
    10  N    3.511871   3.327790   3.917297   2.588836   2.678915
    11  C    4.342524   4.287165   4.940859   3.109559   2.758029
    12  H    5.195040   4.964376   5.814799   4.093882   3.667345
    13  H    4.814819   4.962687   5.288240   3.411142   3.212635
    14  H    4.004954   3.998161   4.788690   2.793880   2.100790
    15  C    4.654473   4.446575   4.789950   3.826538   4.103663
    16  H    5.086294   5.090850   5.130484   4.068249   4.421777
    17  H    5.457908   5.110372   5.700964   4.645381   4.729248
    18  H    4.565847   4.275357   4.506951   4.054907   4.522271
    19  C    3.548399   2.920239   4.094826   3.164498   3.059153
    20  H    3.330081   2.575674   3.648335   3.333958   3.522670
    21  H    3.106052   2.465968   3.894556   2.818100   2.439131
    22  N    1.470670   2.090887   2.149880   2.457567   2.655722
    23  H    2.067199   2.914732   2.352062   2.882341   3.240084
    24  H    2.055331   2.255535   2.601336   3.302733   3.442863
                    6          7          8          9         10
     6  H    0.000000
     7  C    2.129874   0.000000
     8  H    2.731296   1.088787   0.000000
     9  H    2.247229   1.095415   1.757868   0.000000
    10  N    3.397896   1.516253   2.087478   2.122907   0.000000
    11  C    3.708559   2.451858   3.352112   2.627642   1.480645
    12  H    4.769229   3.377977   4.138767   3.601995   2.076367
    13  H    3.717753   2.644874   3.575223   2.347607   2.114728
    14  H    3.379336   2.716519   3.711787   3.021724   2.099996
    15  C    4.492660   2.407046   2.514821   2.615170   1.481304
    16  H    4.492033   2.593134   2.786269   2.323439   2.118011
    17  H    5.379312   3.348534   3.527179   3.588180   2.080291
    18  H    4.758680   2.644657   2.280634   3.011610   2.090442
    19  C    4.199098   2.590664   2.837803   3.491152   1.514379
    20  H    4.371262   2.714019   2.526683   3.700701   2.076793
    21  H    3.875185   2.808348   3.233023   3.761447   2.089283
    22  N    2.677182   3.836402   4.011520   4.531183   4.748743
    23  H    2.720406   4.250713   4.384874   4.763529   5.371305
    24  H    3.653347   4.564228   4.605773   5.364037   5.339810
                   11         12         13         14         15
    11  C    0.000000
    12  H    1.084691   0.000000
    13  H    1.090207   1.799748   0.000000
    14  H    1.084393   1.767741   1.782992   0.000000
    15  C    2.387709   2.582249   2.624697   3.336095   0.000000
    16  H    2.641503   2.977029   2.405884   3.637336   1.090613
    17  H    2.575346   2.292552   2.940805   3.561876   1.084662
    18  H    3.329974   3.556247   3.626285   4.159618   1.085755
    19  C    2.421861   2.556832   3.381883   2.664135   2.407270
    20  H    3.333608   3.557437   4.166602   3.614945   2.629378
    21  H    2.611942   2.881204   3.624325   2.385697   3.330564
    22  N    5.305126   6.157498   5.767956   4.712173   6.014418
    23  H    5.904569   6.836402   6.215942   5.340820   6.565187
    24  H    5.986142   6.747570   6.558054   5.391910   6.578508
                   16         17         18         19         20
    16  H    0.000000
    17  H    1.800580   0.000000
    18  H    1.785328   1.771753   0.000000
    19  C    3.373936   2.558521   2.617056   0.000000
    20  H    3.622120   2.953331   2.368936   1.093519   0.000000
    21  H    4.175302   3.535491   3.603935   1.090165   1.776505
    22  N    6.416963   6.764512   6.007730   4.684804   4.585464
    23  H    6.835220   7.400472   6.543173   5.505070   5.375976
    24  H    7.092967   7.270205   6.472275   5.014851   4.798580
                   21         22         23         24
    21  H    0.000000
    22  N    3.982490   0.000000
    23  H    4.875539   1.009039   0.000000
    24  H    4.278477   1.007791   1.632353   0.000000
 Stoichiometry    C6H16N2
 Framework group  C1[X(C6H16N2)]
 Deg. of freedom    66
 Full point group                 C1      NOp   1
 Largest Abelian subgroup         C1      NOp   1
 Largest concise Abelian subgroup C1      NOp   1
                         Standard orientation:                         
 ---------------------------------------------------------------------
 Center     Atomic      Atomic             Coordinates (Angstroms)
 Number     Number       Type             X           Y           Z
 ---------------------------------------------------------------------
      1          6           0       -2.145039   -0.410395   -0.285777
      2          1           0       -1.763440   -1.283390    0.238109
      3          1           0       -2.270500   -0.701986   -1.336911
      4          6           0       -1.118144    0.707982   -0.210263
      5          1           0       -0.994714    1.006084    0.829855
      6          1           0       -1.525691    1.577894   -0.729684
      7          6           0        0.217277    0.361004   -0.862379
      8          1           0        0.089268   -0.459776   -1.566219
      9          1           0        0.578960    1.223247   -1.433042
     10          7           0        1.333258   -0.077167    0.065854
     11          6           0        1.761625    1.062895    0.907917
     12          1           0        2.598178    0.719471    1.506912
     13          1           0        2.038982    1.905426    0.274068
     14          1           0        0.944693    1.342066    1.564113
     15          6           0        2.481711   -0.452114   -0.791312
     16          1           0        2.743581    0.379096   -1.447018
     17          1           0        3.302025   -0.718840   -0.133715
     18          1           0        2.193927   -1.318172   -1.379519
     19          6           0        1.061150   -1.254370    0.978813
     20          1           0        0.697787   -2.039254    0.309702
     21          1           0        0.244276   -0.937615    1.627537
     22          7           0       -3.406513    0.005227    0.345738
     23          1           0       -3.992802    0.516403   -0.297008
     24          1           0       -3.923231   -0.797088    0.669675
 ---------------------------------------------------------------------
 Rotational constants (GHZ):           3.9723732           0.9666582           0.9552592
 Standard basis: 6-311+G(2d,2p) (5D, 7F)
 There are   376 symmetry adapted cartesian basis functions of A   symmetry.
 There are   360 symmetry adapted basis functions of A   symmetry.
   360 basis functions,   512 primitive gaussians,   376 cartesian basis functions
    33 alpha electrons       33 beta electrons
       nuclear repulsion energy       419.9045586017 Hartrees.
 NAtoms=   24 NActive=   24 NUniq=   24 SFac= 1.00D+00 NAtFMM=   60 NAOKFM=F Big=F
 Integral buffers will be    131072 words long.
 Raffenetti 2 integral format.
 Two-electron integral symmetry is turned on.
 Nuclear repulsion after empirical dispersion term =      419.8870190580 Hartrees.
 One-electron integrals computed using PRISM.
 NBasis=   360 RedAO= T EigKep=  1.38D-05  NBF=   360
 NBsUse=   360 1.00D-06 EigRej= -1.00D+00 NBFU=   360
 Initial guess from the checkpoint file:  "diaminopropyl_ylide.chk"
 B after Tr=     0.000000    0.000000    0.000000
         Rot=    0.994449   -0.104769   -0.004886   -0.008469 Ang= -12.08 deg.
 ExpMin= 4.38D-02 ExpMax= 6.29D+03 ExpMxC= 9.49D+02 IAcc=2 IRadAn=         4 AccDes= 0.00D+00
 Harris functional with IExCor= 4639 and IRadAn=       4 diagonalized for initial guess.
 HarFok:  IExCor= 4639 AccDes= 0.00D+00 IRadAn=         4 IDoV= 1 UseB2=F ITyADJ=14
 ICtDFT=  3500011 ScaDFX=  1.000000  1.000000  1.000000  1.000000
 FoFCou: FMM=F IPFlag=           0 FMFlag=      100000 FMFlg1=           0
         NFxFlg=           0 DoJE=T BraDBF=F KetDBF=T FulRan=T
         wScrn=  0.000000 ICntrl=       500 IOpCl=  0 I1Cent=   200000004 NGrid=           0
         NMat0=    1 NMatS0=      1 NMatT0=    0 NMatD0=    1 NMtDS0=    0 NMtDT0=    0
 Petite list used in FoFCou.
 Requested convergence on RMS density matrix=1.00D-08 within  32 cycles.
 Requested convergence on MAX density matrix=1.00D-06.
 Requested convergence on             energy=1.00D-06.
 No special actions if energy rises.
 SCF Done:  E(RwB97XD) =  -347.662838158     A.U. after   13 cycles
            NFock= 13  Conv=0.91D-08     -V/T= 2.0044
 QCSCF skips out because SCF is already converged.
 Calling FoFJK, ICntrl=      2127 FMM=F ISym2X=0 I1Cent= 0 IOpClX= 0 NMat=1 NMatS=1 NMatT=0.
 ***** Axes restored to original set *****
 -------------------------------------------------------------------
 Center     Atomic                   Forces (Hartrees/Bohr)
 Number     Number              X              Y              Z
 -------------------------------------------------------------------
      1        6           0.005708173    0.003454826    0.002531886
      2        1          -0.001195180    0.000858580    0.000753747
      3        1           0.000220233    0.000643356   -0.000199714
      4        6          -0.001547043   -0.001212739    0.000225290
      5        1          -0.000321933    0.000795054   -0.000138537
      6        1          -0.000183437   -0.000340526    0.001136300
      7        6           0.000484262   -0.004661922    0.000333087
      8        1          -0.000303670    0.000790000   -0.000554933
      9        1          -0.001786335    0.001561275   -0.000440848
     10        7           0.001572772   -0.001805314    0.000519531
     11        6           0.001045850   -0.000170813   -0.000858424
     12        1           0.000173817   -0.000034829    0.000893398
     13        1          -0.000146986   -0.000203496    0.000771191
     14        1          -0.000243701    0.000173665    0.001031847
     15        6           0.000842892   -0.000451280    0.000531040
     16        1          -0.000452397   -0.000391152   -0.000622962
     17        1          -0.000149312   -0.000111307   -0.001036263
     18        1          -0.000866646   -0.000026751   -0.000875077
     19        6          -0.002663570   -0.001036061   -0.000081120
     20        1           0.001779688    0.002141982   -0.001282956
     21        1           0.003007523    0.001743189    0.001183816
     22        7          -0.007383067   -0.001954211   -0.002936956
     23        1           0.000648904   -0.000136289   -0.000218962
     24        1           0.001759164    0.000374764   -0.000664381
 -------------------------------------------------------------------
 Cartesian Forces:  Max     0.007383067 RMS     0.001693345

 GradGradGradGradGradGradGradGradGradGradGradGradGradGradGradGradGradGrad
 Berny optimization.
 Using GEDIIS/GDIIS optimizer.
 FormGI is forming the generalized inverse of G from B-inverse, IUseBI=4.
 Internal  Forces:  Max     0.007097425 RMS     0.001350167
 Search for a local minimum.
 Step number   2 out of a maximum of  132
 All quantities printed in internal units (Hartrees-Bohrs-Radians)
 Mixed Optimization -- RFO/linear search
 Update second derivatives using D2CorX and points    1    2
 DE= -4.97D-03 DEPred=-6.13D-03 R= 8.11D-01
 TightC=F SS=  1.41D+00  RLast= 3.44D-01 DXNew= 5.0454D-01 1.0325D+00
 Trust test= 8.11D-01 RLast= 3.44D-01 DXMaxT set to 5.05D-01
 ITU=  1  0
 Use linear search instead of GDIIS.
     Eigenvalues ---    0.00232   0.00295   0.00339   0.00391   0.00433
     Eigenvalues ---    0.00455   0.00763   0.03150   0.03374   0.03957
     Eigenvalues ---    0.04236   0.04359   0.04714   0.04821   0.04839
     Eigenvalues ---    0.05481   0.05545   0.05876   0.05877   0.06145
     Eigenvalues ---    0.06176   0.06469   0.08529   0.08893   0.09311
     Eigenvalues ---    0.12284   0.12628   0.12754   0.14316   0.15336
     Eigenvalues ---    0.15674   0.16000   0.16000   0.16000   0.16000
     Eigenvalues ---    0.16000   0.16000   0.16000   0.16000   0.16440
     Eigenvalues ---    0.21124   0.21917   0.23323   0.29459   0.29547
     Eigenvalues ---    0.30933   0.32079   0.32986   0.33267   0.34613
     Eigenvalues ---    0.34740   0.34809   0.34893   0.34904   0.35002
     Eigenvalues ---    0.35060   0.35064   0.35073   0.35139   0.35164
     Eigenvalues ---    0.35212   0.35310   0.35360   0.37345   0.47420
     Eigenvalues ---    0.47691
 RFO step:  Lambda=-1.31684987D-03 EMin= 2.31544579D-03
 Quartic linear search produced a step of -0.08123.
 Iteration  1 RMS(Cart)=  0.05672205 RMS(Int)=  0.00075347
 Iteration  2 RMS(Cart)=  0.00175423 RMS(Int)=  0.00009557
 Iteration  3 RMS(Cart)=  0.00000119 RMS(Int)=  0.00009557
 Iteration  4 RMS(Cart)=  0.00000000 RMS(Int)=  0.00009557
 Variable       Old X    -DE/DX   Delta X   Delta X   Delta X     New X
                                 (Linear)    (Quad)   (Total)
    R1        2.05468   0.00128   0.00032   0.00255   0.00287   2.05755
    R2        2.07496   0.00005  -0.00124   0.00329   0.00205   2.07701
    R3        2.87275   0.00268   0.00185   0.00363   0.00549   2.87823
    R4        2.77916  -0.00647  -0.00010  -0.01629  -0.01640   2.76277
    R5        2.05793   0.00022   0.00025  -0.00006   0.00020   2.05813
    R6        2.06373   0.00032  -0.00058   0.00231   0.00174   2.06547
    R7        2.88392  -0.00043   0.00038  -0.00231  -0.00193   2.88199
    R8        2.05751   0.00068   0.00020   0.00127   0.00147   2.05898
    R9        2.07003  -0.00165  -0.00101  -0.00173  -0.00274   2.06729
   R10        2.86530  -0.00364  -0.00161  -0.00635  -0.00795   2.85735
   R11        2.79801   0.00154   0.00197  -0.00079   0.00118   2.79919
   R12        2.79926   0.00214   0.00213   0.00048   0.00261   2.80187
   R13        2.86176   0.00238  -0.00001   0.00707   0.00706   2.86882
   R14        2.04977  -0.00003   0.00035  -0.00097  -0.00062   2.04914
   R15        2.06019   0.00021  -0.00038   0.00152   0.00114   2.06133
   R16        2.04921   0.00064   0.00017   0.00122   0.00139   2.05059
   R17        2.06096   0.00032  -0.00044   0.00195   0.00151   2.06247
   R18        2.04971  -0.00014   0.00029  -0.00112  -0.00083   2.04889
   R19        2.05178   0.00060   0.00022   0.00098   0.00120   2.05298
   R20        2.06645   0.00235  -0.00080   0.00817   0.00737   2.07382
   R21        2.06011   0.00331  -0.00061   0.01014   0.00953   2.06965
   R22        1.90681   0.00064  -0.00139   0.00479   0.00340   1.91021
   R23        1.90445   0.00085  -0.00120   0.00468   0.00349   1.90794
    A1        1.86307   0.00020   0.00004   0.00243   0.00266   1.86574
    A2        1.90676  -0.00044   0.00316  -0.01272  -0.00954   1.89722
    A3        1.89763  -0.00003  -0.00162   0.00207   0.00061   1.89825
    A4        1.89664   0.00042   0.00169  -0.00010   0.00150   1.89814
    A5        1.96938  -0.00037  -0.00822   0.01971   0.01154   1.98092
    A6        1.92856   0.00020   0.00464  -0.01186  -0.00724   1.92131
    A7        1.90222  -0.00070   0.00104  -0.01770  -0.01674   1.88548
    A8        1.88631   0.00127  -0.00030   0.01887   0.01855   1.90486
    A9        1.98516  -0.00078  -0.00061  -0.00206  -0.00283   1.98233
   A10        1.85305  -0.00022  -0.00002  -0.00034  -0.00023   1.85282
   A11        1.95108   0.00027  -0.00075  -0.00596  -0.00688   1.94420
   A12        1.88013   0.00025   0.00068   0.00881   0.00940   1.88954
   A13        1.92277   0.00152   0.00003  -0.00182  -0.00237   1.92039
   A14        1.90982   0.00365   0.00150   0.02459   0.02622   1.93604
   A15        2.03550  -0.00710   0.00024  -0.03356  -0.03346   2.00204
   A16        1.87070  -0.00088   0.00031   0.00757   0.00784   1.87854
   A17        1.83841   0.00174   0.00090  -0.00880  -0.00831   1.83010
   A18        1.87903   0.00132  -0.00306   0.01401   0.01124   1.89027
   A19        1.91621  -0.00000   0.00096  -0.00707  -0.00613   1.91008
   A20        1.86453   0.00028   0.00123   0.00088   0.00211   1.86665
   A21        2.05043  -0.00151  -0.00919   0.00492  -0.00437   2.04606
   A22        1.87516   0.00030   0.00150   0.00769   0.00931   1.88447
   A23        1.88354   0.00028   0.00286  -0.00766  -0.00472   1.87882
   A24        1.86648   0.00080   0.00317   0.00229   0.00556   1.87205
   A25        1.86858   0.00087  -0.00035   0.00547   0.00510   1.87369
   A26        1.91559   0.00090  -0.00169   0.01042   0.00870   1.92429
   A27        1.90119   0.00076   0.00039   0.00275   0.00312   1.90431
   A28        1.94931  -0.00070   0.00043  -0.00390  -0.00350   1.94581
   A29        1.90536  -0.00101   0.00135  -0.01133  -0.00998   1.89537
   A30        1.92253  -0.00073  -0.00015  -0.00308  -0.00325   1.91928
   A31        1.91893   0.00088  -0.00186   0.01087   0.00897   1.92791
   A32        1.87315   0.00094  -0.00014   0.00533   0.00517   1.87832
   A33        1.88588   0.00105   0.00041   0.00433   0.00473   1.89060
   A34        1.95016  -0.00073   0.00043  -0.00399  -0.00359   1.94657
   A35        1.92395  -0.00084  -0.00019  -0.00342  -0.00364   1.92031
   A36        1.91002  -0.00121   0.00133  -0.01267  -0.01133   1.89868
   A37        1.82221   0.00194   0.00322  -0.00081   0.00243   1.82464
   A38        1.84161  -0.00016   0.00227  -0.01021  -0.00792   1.83369
   A39        1.90041  -0.00165   0.00037  -0.01989  -0.01946   1.88096
   A40        1.94768  -0.00032  -0.00301   0.00327   0.00028   1.94797
   A41        1.93139   0.00106  -0.00169   0.00769   0.00603   1.93742
   A42        1.88614  -0.00087   0.00199  -0.01509  -0.01306   1.87308
    D1       -1.12184   0.00052  -0.00061   0.03405   0.03338  -1.08846
    D2       -3.12847   0.00047  -0.00098   0.03363   0.03272  -3.09576
    D3        1.06791  -0.00024  -0.00125   0.01079   0.00957   1.07749
    D4        3.13480   0.00028  -0.00351   0.03817   0.03459  -3.11380
    D5        1.12817   0.00023  -0.00387   0.03775   0.03393   1.16210
    D6       -0.95863  -0.00048  -0.00415   0.01491   0.01078  -0.94785
    D7        0.96517   0.00033   0.00264   0.02133   0.02388   0.98906
    D8       -1.04146   0.00027   0.00228   0.02091   0.02322  -1.01824
    D9       -3.12826  -0.00043   0.00201  -0.00193   0.00008  -3.12818
   D10       -2.70891  -0.00023   0.00500  -0.04820  -0.04311  -2.75201
   D11       -0.60788  -0.00082   0.00446  -0.05990  -0.05537  -0.66325
   D12       -0.64556  -0.00022  -0.00036  -0.03177  -0.03223  -0.67778
   D13        1.45547  -0.00081  -0.00090  -0.04347  -0.04449   1.41098
   D14        1.48177   0.00021  -0.00084  -0.02669  -0.02749   1.45428
   D15       -2.70039  -0.00039  -0.00138  -0.03839  -0.03975  -2.74014
   D16        0.35753  -0.00007   0.00107   0.03985   0.04095   0.39848
   D17        2.40996   0.00195   0.00239   0.06273   0.06520   2.47517
   D18       -1.73598   0.00148  -0.00032   0.07689   0.07645  -1.65954
   D19        2.52107  -0.00139   0.00139   0.00975   0.01117   2.53224
   D20       -1.70968   0.00063   0.00270   0.03262   0.03543  -1.67425
   D21        0.42756   0.00016  -0.00000   0.04678   0.04667   0.47423
   D22       -1.73277  -0.00135   0.00136   0.01135   0.01272  -1.72005
   D23        0.31966   0.00066   0.00267   0.03422   0.03698   0.35664
   D24        2.45690   0.00020  -0.00004   0.04838   0.04822   2.50512
   D25       -1.18483  -0.00044   0.00056  -0.04111  -0.04040  -1.22523
   D26        3.07019  -0.00095  -0.00244  -0.04704  -0.04939   3.02080
   D27        0.97523  -0.00124  -0.00163  -0.05390  -0.05542   0.91981
   D28        2.96029   0.00083  -0.00033  -0.01037  -0.01080   2.94949
   D29        0.93212   0.00031  -0.00334  -0.01629  -0.01979   0.91233
   D30       -1.16284   0.00003  -0.00252  -0.02315  -0.02582  -1.18866
   D31        0.96837   0.00042   0.00026  -0.02105  -0.02075   0.94762
   D32       -1.05980  -0.00009  -0.00275  -0.02697  -0.02973  -1.08954
   D33        3.12842  -0.00037  -0.00193  -0.03383  -0.03576   3.09266
   D34       -3.08073  -0.00090  -0.00311  -0.00450  -0.00757  -3.08830
   D35       -0.96197  -0.00070  -0.00375   0.00013  -0.00357  -0.96554
   D36        1.14421  -0.00058  -0.00471   0.00443  -0.00023   1.14398
   D37       -1.05927  -0.00040  -0.00025  -0.00292  -0.00317  -1.06244
   D38        1.05949  -0.00020  -0.00089   0.00172   0.00083   1.06032
   D39       -3.11751  -0.00008  -0.00186   0.00602   0.00417  -3.11334
   D40        0.94781   0.00082   0.00589  -0.00019   0.00564   0.95345
   D41        3.06657   0.00102   0.00524   0.00444   0.00964   3.07621
   D42       -1.11043   0.00115   0.00428   0.00874   0.01298  -1.09745
   D43        0.96767   0.00046   0.00353  -0.00450  -0.00098   0.96668
   D44        3.09222   0.00068   0.00288   0.00037   0.00325   3.09547
   D45       -1.13283   0.00031   0.00459  -0.00940  -0.00483  -1.13766
   D46       -1.08766   0.00016   0.00094  -0.00062   0.00032  -1.08735
   D47        1.03689   0.00038   0.00029   0.00425   0.00455   1.04144
   D48        3.09502   0.00002   0.00200  -0.00552  -0.00353   3.09150
   D49       -3.10607  -0.00070  -0.00496   0.00334  -0.00161  -3.10768
   D50       -0.98152  -0.00049  -0.00560   0.00821   0.00263  -0.97889
   D51        1.07662  -0.00085  -0.00389  -0.00156  -0.00545   1.07117
   D52        0.91123  -0.00023   0.00393  -0.01269  -0.00876   0.90247
   D53       -1.09095   0.00085   0.00101   0.01404   0.01508  -1.07587
   D54        3.08769  -0.00113   0.00084  -0.02513  -0.02425   3.06344
   D55        1.08550  -0.00005  -0.00208   0.00160  -0.00040   1.08509
   D56       -1.18270  -0.00024   0.00593  -0.01882  -0.01297  -1.19567
   D57        3.09829   0.00084   0.00301   0.00791   0.01087   3.10917
         Item               Value     Threshold  Converged?
 Maximum Force            0.007097     0.000450     NO 
 RMS     Force            0.001350     0.000300     NO 
 Maximum Displacement     0.238105     0.001800     NO 
 RMS     Displacement     0.057369     0.001200     NO 
 Predicted change in Energy=-7.290830D-04
 GradGradGradGradGradGradGradGradGradGradGradGradGradGradGradGradGradGrad

                          Input orientation:                          
 ---------------------------------------------------------------------
 Center     Atomic      Atomic             Coordinates (Angstroms)
 Number     Number       Type             X           Y           Z
 ---------------------------------------------------------------------
      1          6           0        1.264112    0.463944   -0.376604
      2          1           0        0.510784    1.234128   -0.534132
      3          1           0        1.605943    0.143292   -1.370771
      4          6           0        0.611834   -0.721430    0.322853
      5          1           0        0.252522   -0.383814    1.293977
      6          1           0        1.371962   -1.479927    0.526654
      7          6           0       -0.504737   -1.369804   -0.488788
      8          1           0       -0.374483   -1.146861   -1.547315
      9          1           0       -0.489440   -2.457721   -0.374950
     10          7           0       -1.895241   -0.877121   -0.157063
     11          6           0       -2.283424   -1.364531    1.186775
     12          1           0       -3.302008   -1.039225    1.367054
     13          1           0       -2.196642   -2.450855    1.234069
     14          1           0       -1.637799   -0.908520    1.930230
     15          6           0       -2.816626   -1.483962   -1.147592
     16          1           0       -2.717834   -2.570892   -1.144679
     17          1           0       -3.823827   -1.175279   -0.891073
     18          1           0       -2.569560   -1.090577   -2.129659
     19          6           0       -2.126220    0.623021   -0.187005
     20          1           0       -1.748199    0.940561   -1.167107
     21          1           0       -1.455705    1.029554    0.577602
     22          7           0        2.331501    1.013827    0.457502
     23          1           0        3.195599    0.502294    0.341485
     24          1           0        2.517901    1.976879    0.218436
 ---------------------------------------------------------------------
                    Distance matrix (angstroms):
                    1          2          3          4          5
     1  C    0.000000
     2  H    1.088808   0.000000
     3  H    1.099106   1.757629   0.000000
     4  C    1.523095   2.137486   2.145777   0.000000
     5  H    2.129049   2.454877   3.034876   1.089115   0.000000
     6  H    2.146192   3.038584   2.507949   1.092999   1.744533
     7  C    2.550303   2.795318   2.742686   1.525084   2.173446
     8  H    2.578807   2.734839   2.370179   2.156697   3.008042
     9  H    3.407503   3.828255   3.485335   2.171276   2.763497
    10  N    3.439210   3.223121   3.843516   2.557339   2.638513
    11  C    4.286314   4.185946   4.893030   3.089087   2.721087
    12  H    5.113639   4.829081   5.742997   4.063189   3.615188
    13  H    4.802826   4.902632   5.289087   3.421807   3.205410
    14  H    3.953002   3.909019   4.746027   2.771193   2.062389
    15  C    4.587067   4.340046   4.717720   3.807624   4.073236
    16  H    5.065181   5.027416   5.110083   4.081770   4.421918
    17  H    5.370182   4.972073   5.608132   4.621113   4.692279
    18  H    4.492970   4.175941   4.419635   4.033901   4.492766
    19  C    3.399353   2.729054   3.944677   3.092643   2.977488
    20  H    3.150568   2.364285   3.453605   3.248377   3.437119
    21  H    2.937316   2.268233   3.735680   2.721315   2.329987
    22  N    1.461993   2.084918   2.151011   2.446733   2.641069
    23  H    2.061011   2.917280   2.363834   2.858967   3.217784
    24  H    2.053054   2.268602   2.592159   3.305279   3.444068
                    6          7          8          9         10
     6  H    0.000000
     7  C    2.136645   0.000000
     8  H    2.731731   1.089565   0.000000
     9  H    2.287748   1.093964   1.762388   0.000000
    10  N    3.391970   1.512044   2.078044   2.126511   0.000000
    11  C    3.716305   2.443617   3.341659   2.617714   1.481268
    12  H    4.769328   3.373152   4.132256   3.599618   2.080433
    13  H    3.765379   2.645647   3.571662   2.345960   2.121964
    14  H    3.369747   2.710767   3.707573   3.005430   2.103343
    15  C    4.510808   2.406634   2.497495   2.638367   1.482685
    16  H    4.550823   2.602038   2.771511   2.360302   2.126242
    17  H    5.394348   3.349035   3.511331   3.609595   2.084974
    18  H    4.768983   2.652154   2.271708   3.045486   2.095569
    19  C    4.143546   2.586818   2.837518   3.493614   1.518115
    20  H    4.296859   2.710001   2.527644   3.709489   2.084653
    21  H    3.780977   2.792570   3.228172   3.741939   2.090056
    22  N    2.672883   3.823795   4.001276   4.549982   4.671051
    23  H    2.699840   4.229255   4.362655   4.780636   5.297923
    24  H    3.654816   4.564734   4.608851   5.390908   5.268978
                   11         12         13         14         15
    11  C    0.000000
    12  H    1.084361   0.000000
    13  H    1.090811   1.797837   0.000000
    14  H    1.085128   1.761772   1.782062   0.000000
    15  C    2.397465   2.599391   2.644159   3.345707   0.000000
    16  H    2.660770   2.999344   2.438133   3.658554   1.091414
    17  H    2.593475   2.321625   2.964972   3.579054   1.084224
    18  H    3.340009   3.572971   3.647478   4.169415   1.086393
    19  C    2.421228   2.561374   3.387200   2.658356   2.416353
    20  H    3.337765   3.571533   4.179528   3.608987   2.649571
    21  H    2.605351   2.883039   3.618451   2.370420   3.338587
    22  N    5.242705   6.064547   5.754230   4.649698   5.942936
    23  H    5.849722   6.756254   6.212412   5.279796   6.504569
    24  H    5.929200   6.654888   6.547004   5.340937   6.503893
                   16         17         18         19         20
    16  H    0.000000
    17  H    1.798687   0.000000
    18  H    1.784237   1.764783   0.000000
    19  C    3.386476   2.571277   2.628094   0.000000
    20  H    3.642937   2.976778   2.393045   1.097421   0.000000
    21  H    4.185980   3.553350   3.614539   1.095209   1.771294
    22  N    6.396325   6.670750   5.928096   4.520995   4.391888
    23  H    6.828019   7.321598   6.471542   5.349358   5.187396
    24  H    7.067759   7.168307   6.387887   4.854397   4.603618
                   21         22         23         24
    21  H    0.000000
    22  N    3.789142   0.000000
    23  H    4.687044   1.010838   0.000000
    24  H    4.100727   1.009637   1.627519   0.000000
 Stoichiometry    C6H16N2
 Framework group  C1[X(C6H16N2)]
 Deg. of freedom    66
 Full point group                 C1      NOp   1
 Largest Abelian subgroup         C1      NOp   1
 Largest concise Abelian subgroup C1      NOp   1
                         Standard orientation:                         
 ---------------------------------------------------------------------
 Center     Atomic      Atomic             Coordinates (Angstroms)
 Number     Number       Type             X           Y           Z
 ---------------------------------------------------------------------
      1          6           0       -2.095761   -0.404146   -0.292955
      2          1           0       -1.684106   -1.260495    0.238748
      3          1           0       -2.212065   -0.706036   -1.343369
      4          6           0       -1.095706    0.742370   -0.220773
      5          1           0       -0.968019    1.012880    0.826457
      6          1           0       -1.521627    1.620900   -0.712121
      7          6           0        0.242399    0.427205   -0.881096
      8          1           0        0.118228   -0.368677   -1.614789
      9          1           0        0.635180    1.303161   -1.405673
     10          7           0        1.309475   -0.078919    0.063079
     11          6           0        1.750401    1.025491    0.946264
     12          1           0        2.550459    0.641549    1.569427
     13          1           0        2.081826    1.876575    0.349873
     14          1           0        0.924731    1.320211    1.585728
     15          6           0        2.465631   -0.487599   -0.770372
     16          1           0        2.789619    0.339097   -1.405029
     17          1           0        3.255726   -0.808547   -0.100832
     18          1           0        2.162922   -1.331327   -1.384163
     19          6           0        0.951453   -1.260122    0.946963
     20          1           0        0.556958   -2.013663    0.253506
     21          1           0        0.120142   -0.909409    1.567773
     22          7           0       -3.352665   -0.014840    0.344271
     23          1           0       -3.944220    0.507409   -0.287481
     24          1           0       -3.873933   -0.826511    0.642322
 ---------------------------------------------------------------------
 Rotational constants (GHZ):           3.9419763           0.9946155           0.9812445
 Standard basis: 6-311+G(2d,2p) (5D, 7F)
 There are   376 symmetry adapted cartesian basis functions of A   symmetry.
 There are   360 symmetry adapted basis functions of A   symmetry.
   360 basis functions,   512 primitive gaussians,   376 cartesian basis functions
    33 alpha electrons       33 beta electrons
       nuclear repulsion energy       421.8606565848 Hartrees.
 NAtoms=   24 NActive=   24 NUniq=   24 SFac= 1.00D+00 NAtFMM=   60 NAOKFM=F Big=F
 Integral buffers will be    131072 words long.
 Raffenetti 2 integral format.
 Two-electron integral symmetry is turned on.
 Nuclear repulsion after empirical dispersion term =      421.8428901510 Hartrees.
 One-electron integrals computed using PRISM.
 NBasis=   360 RedAO= T EigKep=  1.45D-05  NBF=   360
 NBsUse=   360 1.00D-06 EigRej= -1.00D+00 NBFU=   360
 Initial guess from the checkpoint file:  "diaminopropyl_ylide.chk"
 B after Tr=    -0.000000    0.000000   -0.000000
         Rot=    0.999933   -0.009971    0.004057    0.004195 Ang=  -1.32 deg.
 ExpMin= 4.38D-02 ExpMax= 6.29D+03 ExpMxC= 9.49D+02 IAcc=2 IRadAn=         4 AccDes= 0.00D+00
 Harris functional with IExCor= 4639 and IRadAn=       4 diagonalized for initial guess.
 HarFok:  IExCor= 4639 AccDes= 0.00D+00 IRadAn=         4 IDoV= 1 UseB2=F ITyADJ=14
 ICtDFT=  3500011 ScaDFX=  1.000000  1.000000  1.000000  1.000000
 FoFCou: FMM=F IPFlag=           0 FMFlag=      100000 FMFlg1=           0
         NFxFlg=           0 DoJE=T BraDBF=F KetDBF=T FulRan=T
         wScrn=  0.000000 ICntrl=       500 IOpCl=  0 I1Cent=   200000004 NGrid=           0
         NMat0=    1 NMatS0=      1 NMatT0=    0 NMatD0=    1 NMtDS0=    0 NMtDT0=    0
 Petite list used in FoFCou.
 Requested convergence on RMS density matrix=1.00D-08 within  32 cycles.
 Requested convergence on MAX density matrix=1.00D-06.
 Requested convergence on             energy=1.00D-06.
 No special actions if energy rises.
 SCF Done:  E(RwB97XD) =  -347.663238006     A.U. after   12 cycles
            NFock= 12  Conv=0.64D-08     -V/T= 2.0045
 QCSCF skips out because SCF is already converged.
 Calling FoFJK, ICntrl=      2127 FMM=F ISym2X=0 I1Cent= 0 IOpClX= 0 NMat=1 NMatS=1 NMatT=0.
 ***** Axes restored to original set *****
 -------------------------------------------------------------------
 Center     Atomic                   Forces (Hartrees/Bohr)
 Number     Number              X              Y              Z
 -------------------------------------------------------------------
      1        6           0.002660598    0.000739586    0.000900451
      2        1           0.000790717   -0.000339807    0.000320975
      3        1           0.000628428    0.000862435    0.000215190
      4        6          -0.000626191   -0.001544711   -0.000313192
      5        1           0.000186093   -0.000452123    0.000222112
      6        1           0.000113708    0.000557776   -0.000191671
      7        6           0.001279586    0.001104632   -0.000416081
      8        1           0.000780261   -0.000507484   -0.000369682
      9        1          -0.000987143    0.001226368    0.000353950
     10        7          -0.000861070   -0.002986128    0.000617073
     11        6          -0.000627202   -0.000357104    0.000303255
     12        1          -0.000353838    0.000022906    0.000111308
     13        1           0.000016190    0.000213682   -0.000269063
     14        1          -0.000132488   -0.000098401    0.000119948
     15        6          -0.000352889    0.000042578    0.000394186
     16        1           0.000306084    0.000244367    0.000256698
     17        1          -0.000417039    0.000001933    0.000071773
     18        1           0.000116708    0.000165126   -0.000197327
     19        6          -0.001530870    0.000420590   -0.000021737
     20        1           0.000263072    0.000334849    0.000039127
     21        1          -0.000362612    0.000430475   -0.000338268
     22        7          -0.000809466    0.000699656   -0.001765651
     23        1          -0.000546260   -0.000208712    0.000319855
     24        1           0.000465620   -0.000572489   -0.000363228
 -------------------------------------------------------------------
 Cartesian Forces:  Max     0.002986128 RMS     0.000753292

 GradGradGradGradGradGradGradGradGradGradGradGradGradGradGradGradGradGrad
 Berny optimization.
 Using GEDIIS/GDIIS optimizer.
 FormGI is forming the generalized inverse of G from B-inverse, IUseBI=4.
 Internal  Forces:  Max     0.006399202 RMS     0.001029465
 Search for a local minimum.
 Step number   3 out of a maximum of  132
 All quantities printed in internal units (Hartrees-Bohrs-Radians)
 Mixed Optimization -- RFO/linear search
 Update second derivatives using D2CorX and points    1    2    3
 DE= -4.00D-04 DEPred=-7.29D-04 R= 5.48D-01
 TightC=F SS=  1.41D+00  RLast= 2.30D-01 DXNew= 8.4853D-01 6.9081D-01
 Trust test= 5.48D-01 RLast= 2.30D-01 DXMaxT set to 6.91D-01
 ITU=  1  1  0
 Use linear search instead of GDIIS.
     Eigenvalues ---    0.00230   0.00294   0.00334   0.00432   0.00449
     Eigenvalues ---    0.00455   0.00678   0.03390   0.03751   0.03913
     Eigenvalues ---    0.04326   0.04468   0.04660   0.04848   0.04965
     Eigenvalues ---    0.05528   0.05586   0.05787   0.05795   0.06075
     Eigenvalues ---    0.06131   0.06642   0.08492   0.08643   0.09231
     Eigenvalues ---    0.12171   0.12537   0.12764   0.13806   0.15365
     Eigenvalues ---    0.15642   0.16000   0.16000   0.16000   0.16000
     Eigenvalues ---    0.16000   0.16000   0.16000   0.16082   0.16456
     Eigenvalues ---    0.21385   0.22259   0.27529   0.29458   0.30093
     Eigenvalues ---    0.30700   0.32861   0.32993   0.33518   0.34657
     Eigenvalues ---    0.34743   0.34812   0.34875   0.34999   0.35053
     Eigenvalues ---    0.35060   0.35073   0.35127   0.35150   0.35194
     Eigenvalues ---    0.35251   0.35336   0.35861   0.38766   0.47465
     Eigenvalues ---    0.47691
 RFO step:  Lambda=-4.57793377D-04 EMin= 2.30192245D-03
 Quartic linear search produced a step of -0.30237.
 Iteration  1 RMS(Cart)=  0.04567805 RMS(Int)=  0.00085127
 Iteration  2 RMS(Cart)=  0.00116624 RMS(Int)=  0.00001713
 Iteration  3 RMS(Cart)=  0.00000075 RMS(Int)=  0.00001713
 Variable       Old X    -DE/DX   Delta X   Delta X   Delta X     New X
                                 (Linear)    (Quad)   (Total)
    R1        2.05755  -0.00083  -0.00087   0.00018  -0.00069   2.05686
    R2        2.07701  -0.00025  -0.00062   0.00082   0.00020   2.07721
    R3        2.87823   0.00246  -0.00166   0.00900   0.00734   2.88557
    R4        2.76277  -0.00171   0.00496  -0.01340  -0.00844   2.75432
    R5        2.05813  -0.00000  -0.00006   0.00011   0.00005   2.05818
    R6        2.06547  -0.00034  -0.00053   0.00044  -0.00009   2.06538
    R7        2.88199   0.00164   0.00058   0.00251   0.00309   2.88508
    R8        2.05898   0.00035  -0.00044   0.00158   0.00114   2.06011
    R9        2.06729  -0.00120   0.00083  -0.00397  -0.00315   2.06415
   R10        2.85735   0.00335   0.00240   0.00213   0.00454   2.86189
   R11        2.79919   0.00060  -0.00036   0.00190   0.00154   2.80073
   R12        2.80187  -0.00032  -0.00079   0.00092   0.00013   2.80200
   R13        2.86882   0.00143  -0.00213   0.00748   0.00535   2.87417
   R14        2.04914   0.00036   0.00019   0.00028   0.00047   2.04962
   R15        2.06133  -0.00022  -0.00035   0.00029  -0.00005   2.06128
   R16        2.05059  -0.00004  -0.00042   0.00079   0.00037   2.05096
   R17        2.06247  -0.00021  -0.00046   0.00054   0.00008   2.06256
   R18        2.04889   0.00040   0.00025   0.00025   0.00050   2.04938
   R19        2.05298   0.00027  -0.00036   0.00125   0.00089   2.05387
   R20        2.07382   0.00015  -0.00223   0.00490   0.00267   2.07649
   R21        2.06965  -0.00030  -0.00288   0.00538   0.00249   2.07214
   R22        1.91021  -0.00040  -0.00103   0.00158   0.00055   1.91076
   R23        1.90794  -0.00037  -0.00105   0.00167   0.00061   1.90855
    A1        1.86574   0.00014  -0.00080   0.00146   0.00066   1.86640
    A2        1.89722   0.00010   0.00288  -0.00270   0.00019   1.89741
    A3        1.89825  -0.00045  -0.00018  -0.00087  -0.00103   1.89722
    A4        1.89814   0.00014  -0.00045   0.00245   0.00199   1.90013
    A5        1.98092  -0.00110  -0.00349   0.00038  -0.00311   1.97781
    A6        1.92131   0.00117   0.00219  -0.00084   0.00136   1.92267
    A7        1.88548  -0.00011   0.00506  -0.00344   0.00161   1.88708
    A8        1.90486  -0.00183  -0.00561  -0.00109  -0.00667   1.89818
    A9        1.98233   0.00290   0.00086   0.00846   0.00935   1.99168
   A10        1.85282   0.00034   0.00007  -0.00343  -0.00340   1.84942
   A11        1.94420  -0.00086   0.00208  -0.00118   0.00091   1.94511
   A12        1.88954  -0.00063  -0.00284  -0.00010  -0.00289   1.88664
   A13        1.92039  -0.00193   0.00072  -0.00027   0.00053   1.92093
   A14        1.93604  -0.00142  -0.00793   0.00671  -0.00123   1.93481
   A15        2.00204   0.00640   0.01012   0.00007   0.01019   2.01223
   A16        1.87854   0.00090  -0.00237   0.00173  -0.00059   1.87795
   A17        1.83010  -0.00056   0.00251   0.00479   0.00737   1.83747
   A18        1.89027  -0.00360  -0.00340  -0.01317  -0.01663   1.87364
   A19        1.91008   0.00016   0.00185  -0.00056   0.00129   1.91137
   A20        1.86665  -0.00037  -0.00064  -0.00225  -0.00289   1.86376
   A21        2.04606   0.00102   0.00132   0.00698   0.00832   2.05438
   A22        1.88447  -0.00022  -0.00282  -0.00026  -0.00308   1.88139
   A23        1.87882  -0.00019   0.00143  -0.00224  -0.00082   1.87800
   A24        1.87205  -0.00049  -0.00168  -0.00212  -0.00380   1.86824
   A25        1.87369   0.00014  -0.00154   0.00374   0.00221   1.87589
   A26        1.92429  -0.00048  -0.00263   0.00327   0.00065   1.92494
   A27        1.90431   0.00038  -0.00094   0.00375   0.00281   1.90712
   A28        1.94581   0.00006   0.00106  -0.00249  -0.00142   1.94439
   A29        1.89537  -0.00013   0.00302  -0.00636  -0.00334   1.89203
   A30        1.91928   0.00005   0.00098  -0.00180  -0.00081   1.91847
   A31        1.92791  -0.00065  -0.00271   0.00270  -0.00000   1.92791
   A32        1.87832   0.00028  -0.00156   0.00462   0.00306   1.88139
   A33        1.89060  -0.00006  -0.00143   0.00270   0.00128   1.89188
   A34        1.94657   0.00015   0.00109  -0.00169  -0.00059   1.94597
   A35        1.92031   0.00026   0.00110  -0.00169  -0.00058   1.91973
   A36        1.89868   0.00002   0.00343  -0.00652  -0.00310   1.89559
   A37        1.82464   0.00037  -0.00074   0.00306   0.00233   1.82697
   A38        1.83369   0.00105   0.00239  -0.00061   0.00179   1.83549
   A39        1.88096  -0.00046   0.00588  -0.01406  -0.00817   1.87279
   A40        1.94797  -0.00030  -0.00009  -0.00153  -0.00161   1.94635
   A41        1.93742   0.00011  -0.00182   0.00374   0.00192   1.93934
   A42        1.87308   0.00000   0.00395  -0.00923  -0.00529   1.86779
    D1       -1.08846  -0.00039  -0.01009   0.02920   0.01913  -1.06934
    D2       -3.09576   0.00022  -0.00989   0.03565   0.02574  -3.07001
    D3        1.07749   0.00041  -0.00290   0.03093   0.02805   1.10553
    D4       -3.11380  -0.00069  -0.01046   0.02760   0.01716  -3.09664
    D5        1.16210  -0.00008  -0.01026   0.03405   0.02377   1.18587
    D6       -0.94785   0.00011  -0.00326   0.02933   0.02607  -0.92177
    D7        0.98906  -0.00019  -0.00722   0.02601   0.01879   1.00785
    D8       -1.01824   0.00042  -0.00702   0.03246   0.02541  -0.99283
    D9       -3.12818   0.00061  -0.00002   0.02774   0.02771  -3.10047
   D10       -2.75201   0.00015   0.01303  -0.05936  -0.04632  -2.79834
   D11       -0.66325   0.00002   0.01674  -0.06955  -0.05280  -0.71605
   D12       -0.67778  -0.00067   0.00974  -0.05787  -0.04813  -0.72592
   D13        1.41098  -0.00080   0.01345  -0.06806  -0.05461   1.35637
   D14        1.45428  -0.00039   0.00831  -0.05505  -0.04673   1.40755
   D15       -2.74014  -0.00052   0.01202  -0.06523  -0.05321  -2.79335
   D16        0.39848  -0.00009  -0.01238  -0.01896  -0.03135   0.36713
   D17        2.47517  -0.00109  -0.01972  -0.01277  -0.03252   2.44265
   D18       -1.65954  -0.00219  -0.02311  -0.02495  -0.04804  -1.70758
   D19        2.53224   0.00125  -0.00338  -0.01815  -0.02153   2.51071
   D20       -1.67425   0.00025  -0.01071  -0.01196  -0.02270  -1.69695
   D21        0.47423  -0.00085  -0.01411  -0.02414  -0.03822   0.43600
   D22       -1.72005   0.00080  -0.00385  -0.02303  -0.02688  -1.74693
   D23        0.35664  -0.00021  -0.01118  -0.01684  -0.02804   0.32860
   D24        2.50512  -0.00130  -0.01458  -0.02902  -0.04357   2.46155
   D25       -1.22523   0.00003   0.01222  -0.02711  -0.01491  -1.24013
   D26        3.02080   0.00041   0.01493  -0.02528  -0.01036   3.01044
   D27        0.91981   0.00067   0.01676  -0.02535  -0.00860   0.91121
   D28        2.94949  -0.00091   0.00327  -0.03014  -0.02687   2.92262
   D29        0.91233  -0.00053   0.00598  -0.02831  -0.02232   0.89001
   D30       -1.18866  -0.00027   0.00781  -0.02838  -0.02056  -1.20922
   D31        0.94762  -0.00007   0.00627  -0.02860  -0.02234   0.92528
   D32       -1.08954   0.00032   0.00899  -0.02677  -0.01779  -1.10732
   D33        3.09266   0.00058   0.01081  -0.02684  -0.01603   3.07663
   D34       -3.08830   0.00067   0.00229   0.00449   0.00678  -3.08152
   D35       -0.96554   0.00054   0.00108   0.00575   0.00681  -0.95872
   D36        1.14398   0.00054   0.00007   0.00796   0.00802   1.15200
   D37       -1.06244   0.00019   0.00096   0.00138   0.00234  -1.06010
   D38        1.06032   0.00007  -0.00025   0.00263   0.00238   1.06270
   D39       -3.11334   0.00007  -0.00126   0.00484   0.00358  -3.10976
   D40        0.95345  -0.00059  -0.00170  -0.00237  -0.00406   0.94939
   D41        3.07621  -0.00072  -0.00292  -0.00112  -0.00402   3.07219
   D42       -1.09745  -0.00072  -0.00392   0.00109  -0.00282  -1.10027
   D43        0.96668  -0.00034   0.00030  -0.00828  -0.00798   0.95870
   D44        3.09547  -0.00037  -0.00098  -0.00577  -0.00676   3.08871
   D45       -1.13766  -0.00023   0.00146  -0.00954  -0.00808  -1.14574
   D46       -1.08735  -0.00022  -0.00010  -0.00631  -0.00640  -1.09375
   D47        1.04144  -0.00024  -0.00138  -0.00380  -0.00518   1.03626
   D48        3.09150  -0.00010   0.00107  -0.00757  -0.00650   3.08500
   D49       -3.10768   0.00037   0.00049  -0.00249  -0.00200  -3.10967
   D50       -0.97889   0.00034  -0.00079   0.00002  -0.00077  -0.97966
   D51        1.07117   0.00048   0.00165  -0.00375  -0.00209   1.06908
   D52        0.90247  -0.00039   0.00265  -0.03667  -0.03403   0.86844
   D53       -1.07587  -0.00046  -0.00456  -0.02206  -0.02662  -1.10249
   D54        3.06344   0.00040   0.00733  -0.03420  -0.02688   3.03656
   D55        1.08509   0.00034   0.00012  -0.01959  -0.01947   1.06563
   D56       -1.19567  -0.00020   0.00392  -0.03669  -0.03277  -1.22844
   D57        3.10917  -0.00027  -0.00329  -0.02208  -0.02536   3.08381
         Item               Value     Threshold  Converged?
 Maximum Force            0.006399     0.000450     NO 
 RMS     Force            0.001029     0.000300     NO 
 Maximum Displacement     0.199708     0.001800     NO 
 RMS     Displacement     0.045486     0.001200     NO 
 Predicted change in Energy=-3.257495D-04
 GradGradGradGradGradGradGradGradGradGradGradGradGradGradGradGradGradGrad

                          Input orientation:                          
 ---------------------------------------------------------------------
 Center     Atomic      Atomic             Coordinates (Angstroms)
 Number     Number       Type             X           Y           Z
 ---------------------------------------------------------------------
      1          6           0        1.294765    0.476166   -0.390570
      2          1           0        0.564889    1.265543   -0.560491
      3          1           0        1.629742    0.131554   -1.379155
      4          6           0        0.605981   -0.681396    0.328659
      5          1           0        0.238798   -0.314798    1.286267
      6          1           0        1.353449   -1.442978    0.564936
      7          6           0       -0.507096   -1.343966   -0.479382
      8          1           0       -0.375403   -1.132523   -1.540706
      9          1           0       -0.486006   -2.428801   -0.353668
     10          7           0       -1.910246   -0.878403   -0.150797
     11          6           0       -2.301934   -1.390405    1.183747
     12          1           0       -3.329569   -1.090927    1.358851
     13          1           0       -2.191641   -2.474989    1.220108
     14          1           0       -1.676771   -0.929523    1.941825
     15          6           0       -2.811603   -1.493589   -1.154624
     16          1           0       -2.685903   -2.577719   -1.166666
     17          1           0       -3.828631   -1.214231   -0.902186
     18          1           0       -2.570631   -1.080699   -2.130698
     19          6           0       -2.180662    0.618224   -0.166751
     20          1           0       -1.774272    0.964365   -1.127203
     21          1           0       -1.545165    1.033009    0.624749
     22          7           0        2.374634    1.007225    0.431768
     23          1           0        3.210107    0.442677    0.356572
     24          1           0        2.623582    1.943168    0.145311
 ---------------------------------------------------------------------
                    Distance matrix (angstroms):
                    1          2          3          4          5
     1  C    0.000000
     2  H    1.088443   0.000000
     3  H    1.099212   1.757855   0.000000
     4  C    1.526979   2.140758   2.150722   0.000000
     5  H    2.133653   2.452413   3.039479   1.089142   0.000000
     6  H    2.144656   3.037186   2.516939   1.092952   1.742285
     7  C    2.562708   2.822280   2.748240   1.526718   2.175560
     8  H    2.588466   2.756028   2.375835   2.158971   3.006276
     9  H    3.407542   3.846470   3.476123   2.170583   2.771956
    10  N    3.487757   3.300098   3.880772   2.569064   2.645977
    11  C    4.347276   4.279615   4.933853   3.112851   2.760935
    12  H    5.186591   4.940003   5.795334   4.088712   3.652518
    13  H    4.843411   4.975999   5.305959   3.440690   3.252359
    14  H    4.030640   4.013096   4.804979   2.806212   2.115903
    15  C    4.618006   4.400739   4.734665   3.813092   4.080741
    16  H    5.076835   5.070085   5.100009   4.082712   4.437518
    17  H    5.419261   5.056586   5.642027   4.632999   4.705559
    18  H    4.515879   4.219229   4.435933   4.037170   4.489448
    19  C    3.485523   2.848175   4.028144   3.114453   2.972470
    20  H    3.193737   2.425603   3.513455   3.239393   3.393162
    21  H    3.066945   2.431295   3.861125   2.766637   2.331676
    22  N    1.457525   2.080019   2.145020   2.447490   2.653245
    23  H    2.056180   2.918097   2.367932   2.836511   3.204181
    24  H    2.050614   2.279374   2.567813   3.315519   3.476692
                    6          7          8          9         10
     6  H    0.000000
     7  C    2.135892   0.000000
     8  H    2.742087   1.090165   0.000000
     9  H    2.280192   1.092299   1.761144   0.000000
    10  N    3.388617   1.514446   2.086184   2.115030   0.000000
    11  C    3.707765   2.447366   3.346740   2.596057   1.482085
    12  H    4.762867   3.377793   4.139596   3.578894   2.082950
    13  H    3.749929   2.646728   3.566936   2.321228   2.123123
    14  H    3.367743   2.720688   3.723277   2.989155   2.106227
    15  C    4.506341   2.406053   2.492890   2.631455   1.482756
    16  H    4.538992   2.596479   2.750801   2.350040   2.126336
    17  H    5.390615   3.350849   3.512715   3.598500   2.087479
    18  H    4.774526   2.655999   2.273720   3.053011   2.096912
    19  C    4.156184   2.597835   2.865628   3.491584   1.520944
    20  H    4.294331   2.711789   2.554360   3.711006   2.089892
    21  H    3.812618   2.818989   3.278271   3.750100   2.094815
    22  N    2.657828   3.829185   4.003983   4.539433   4.717539
    23  H    2.654485   4.208148   4.351643   4.734034   5.312315
    24  H    3.640784   4.582208   4.614806   5.388194   5.348321
                   11         12         13         14         15
    11  C    0.000000
    12  H    1.084611   0.000000
    13  H    1.090783   1.797152   0.000000
    14  H    1.085323   1.760015   1.781694   0.000000
    15  C    2.395493   2.597687   2.643264   3.345745   0.000000
    16  H    2.661125   3.000515   2.439577   3.660275   1.091459
    17  H    2.590938   2.318740   2.961989   3.577704   1.084487
    18  H    3.339710   3.571140   3.649051   4.172204   1.086861
    19  C    2.423457   2.562937   3.389906   2.663742   2.415312
    20  H    3.341236   3.581010   4.184879   3.607666   2.668023
    21  H    2.599637   2.869514   3.616411   2.367180   3.339720
    22  N    5.308898   6.148143   5.796392   4.737631   5.972250
    23  H    5.867453   6.791456   6.199787   5.317663   6.503371
    24  H    6.037530   6.791054   6.622814   5.474746   6.560668
                   16         17         18         19         20
    16  H    0.000000
    17  H    1.798577   0.000000
    18  H    1.784296   1.763416   0.000000
    19  C    3.386613   2.571878   2.625929   0.000000
    20  H    3.657729   3.002882   2.413188   1.098833   0.000000
    21  H    4.189010   3.549061   3.621026   1.096529   1.768201
    22  N    6.404362   6.722708   5.948219   4.610886   4.432341
    23  H    6.797498   7.339867   6.474884   5.418955   5.226642
    24  H    7.095796   7.259302   6.426806   4.993357   4.681716
                   21         22         23         24
    21  H    0.000000
    22  N    3.924631   0.000000
    23  H    4.799273   1.011131   0.000000
    24  H    4.293798   1.009961   1.624844   0.000000
 Stoichiometry    C6H16N2
 Framework group  C1[X(C6H16N2)]
 Deg. of freedom    66
 Full point group                 C1      NOp   1
 Largest Abelian subgroup         C1      NOp   1
 Largest concise Abelian subgroup C1      NOp   1
                         Standard orientation:                         
 ---------------------------------------------------------------------
 Center     Atomic      Atomic             Coordinates (Angstroms)
 Number     Number       Type             X           Y           Z
 ---------------------------------------------------------------------
      1          6           0       -2.130829   -0.424086   -0.265210
      2          1           0       -1.744499   -1.265118    0.307609
      3          1           0       -2.241187   -0.767556   -1.303535
      4          6           0       -1.106335    0.707509   -0.225621
      5          1           0       -0.972442    1.007089    0.812914
      6          1           0       -1.524011    1.577843   -0.738075
      7          6           0        0.227694    0.364482   -0.884081
      8          1           0        0.099341   -0.466039   -1.578502
      9          1           0        0.610474    1.214633   -1.453149
     10          7           0        1.323629   -0.074243    0.064599
     11          6           0        1.786917    1.088960    0.857629
     12          1           0        2.609796    0.752672    1.479049
     13          1           0        2.093445    1.900045    0.195822
     14          1           0        0.983032    1.423942    1.505303
     15          6           0        2.457831   -0.531844   -0.773706
     16          1           0        2.753309    0.250039   -1.475584
     17          1           0        3.273202   -0.799514   -0.110657
     18          1           0        2.146431   -1.420343   -1.316723
     19          6           0        1.007392   -1.198534    1.038886
     20          1           0        0.567534   -1.990446    0.416926
     21          1           0        0.209124   -0.806308    1.680214
     22          7           0       -3.385382    0.012874    0.334408
     23          1           0       -3.937407    0.556550   -0.315261
     24          1           0       -3.949883   -0.776825    0.613216
 ---------------------------------------------------------------------
 Rotational constants (GHZ):           3.9566984           0.9769425           0.9648660
 Standard basis: 6-311+G(2d,2p) (5D, 7F)
 There are   376 symmetry adapted cartesian basis functions of A   symmetry.
 There are   360 symmetry adapted basis functions of A   symmetry.
   360 basis functions,   512 primitive gaussians,   376 cartesian basis functions
    33 alpha electrons       33 beta electrons
       nuclear repulsion energy       420.4932743920 Hartrees.
 NAtoms=   24 NActive=   24 NUniq=   24 SFac= 1.00D+00 NAtFMM=   60 NAOKFM=F Big=F
 Integral buffers will be    131072 words long.
 Raffenetti 2 integral format.
 Two-electron integral symmetry is turned on.
 Nuclear repulsion after empirical dispersion term =      420.4756056745 Hartrees.
 One-electron integrals computed using PRISM.
 NBasis=   360 RedAO= T EigKep=  1.43D-05  NBF=   360
 NBsUse=   360 1.00D-06 EigRej= -1.00D+00 NBFU=   360
 Initial guess from the checkpoint file:  "diaminopropyl_ylide.chk"
 B after Tr=     0.000000   -0.000000    0.000000
         Rot=    0.999534    0.030318   -0.003569    0.000051 Ang=   3.50 deg.
 ExpMin= 4.38D-02 ExpMax= 6.29D+03 ExpMxC= 9.49D+02 IAcc=2 IRadAn=         4 AccDes= 0.00D+00
 Harris functional with IExCor= 4639 and IRadAn=       4 diagonalized for initial guess.
 HarFok:  IExCor= 4639 AccDes= 0.00D+00 IRadAn=         4 IDoV= 1 UseB2=F ITyADJ=14
 ICtDFT=  3500011 ScaDFX=  1.000000  1.000000  1.000000  1.000000
 FoFCou: FMM=F IPFlag=           0 FMFlag=      100000 FMFlg1=           0
         NFxFlg=           0 DoJE=T BraDBF=F KetDBF=T FulRan=T
         wScrn=  0.000000 ICntrl=       500 IOpCl=  0 I1Cent=   200000004 NGrid=           0
         NMat0=    1 NMatS0=      1 NMatT0=    0 NMatD0=    1 NMtDS0=    0 NMtDT0=    0
 Petite list used in FoFCou.
 Requested convergence on RMS density matrix=1.00D-08 within  32 cycles.
 Requested convergence on MAX density matrix=1.00D-06.
 Requested convergence on             energy=1.00D-06.
 No special actions if energy rises.
 SCF Done:  E(RwB97XD) =  -347.663503644     A.U. after   12 cycles
            NFock= 12  Conv=0.68D-08     -V/T= 2.0045
 QCSCF skips out because SCF is already converged.
 Calling FoFJK, ICntrl=      2127 FMM=F ISym2X=0 I1Cent= 0 IOpClX= 0 NMat=1 NMatS=1 NMatT=0.
 ***** Axes restored to original set *****
 -------------------------------------------------------------------
 Center     Atomic                   Forces (Hartrees/Bohr)
 Number     Number              X              Y              Z
 -------------------------------------------------------------------
      1        6          -0.000644579   -0.001405448   -0.000064868
      2        1          -0.000234840    0.000137428    0.000236293
      3        1           0.000031708    0.000371554    0.000043158
      4        6          -0.000054022   -0.001092114   -0.000028376
      5        1          -0.000412533   -0.000005929    0.000123052
      6        1           0.000174994    0.000268815   -0.000254422
      7        6           0.000715306    0.001659566    0.000105057
      8        1           0.000055943   -0.000024059    0.000171819
      9        1           0.000274728    0.000193369   -0.000107491
     10        7          -0.000952323   -0.001330202    0.000255358
     11        6          -0.000011311   -0.000041619    0.000502508
     12        1          -0.000260839    0.000076479   -0.000270181
     13        1          -0.000045038    0.000254834   -0.000399417
     14        1           0.000551872    0.000038875   -0.000184923
     15        6          -0.000547703   -0.000037793   -0.000495535
     16        1           0.000293104    0.000124122    0.000229288
     17        1          -0.000064041   -0.000016326    0.000349441
     18        1           0.000248806    0.000100431    0.000155187
     19        6           0.000825947    0.000800590   -0.000181399
     20        1          -0.000283293   -0.000457100    0.000271095
     21        1           0.000000911   -0.000140678   -0.000530849
     22        7           0.001131582    0.001449943   -0.000146219
     23        1          -0.000682306   -0.000418144    0.000408167
     24        1          -0.000112075   -0.000506593   -0.000186741
 -------------------------------------------------------------------
 Cartesian Forces:  Max     0.001659566 RMS     0.000511238

 GradGradGradGradGradGradGradGradGradGradGradGradGradGradGradGradGradGrad
 Berny optimization.
 Using GEDIIS/GDIIS optimizer.
 FormGI is forming the generalized inverse of G from B-inverse, IUseBI=4.
 Internal  Forces:  Max     0.001036492 RMS     0.000306087
 Search for a local minimum.
 Step number   4 out of a maximum of  132
 All quantities printed in internal units (Hartrees-Bohrs-Radians)
 Mixed Optimization -- En-DIIS/RFO-DIIS
 Update second derivatives using D2CorX and points    1    2    3    4
 DE= -2.66D-04 DEPred=-3.26D-04 R= 8.15D-01
 TightC=F SS=  1.41D+00  RLast= 2.00D-01 DXNew= 1.1618D+00 5.9975D-01
 Trust test= 8.15D-01 RLast= 2.00D-01 DXMaxT set to 6.91D-01
 ITU=  1  1  1  0
 Use linear search instead of GDIIS.
     Eigenvalues ---    0.00242   0.00271   0.00380   0.00417   0.00448
     Eigenvalues ---    0.00472   0.00532   0.03311   0.03708   0.03987
     Eigenvalues ---    0.04343   0.04427   0.04742   0.04839   0.04932
     Eigenvalues ---    0.05582   0.05606   0.05775   0.05781   0.06111
     Eigenvalues ---    0.06154   0.06845   0.08593   0.08799   0.09283
     Eigenvalues ---    0.12488   0.12595   0.12933   0.14515   0.15523
     Eigenvalues ---    0.15824   0.15999   0.16000   0.16000   0.16000
     Eigenvalues ---    0.16000   0.16000   0.16053   0.16113   0.16961
     Eigenvalues ---    0.21672   0.22174   0.27643   0.29225   0.30163
     Eigenvalues ---    0.31133   0.32861   0.32975   0.34480   0.34710
     Eigenvalues ---    0.34758   0.34818   0.34985   0.34998   0.35045
     Eigenvalues ---    0.35064   0.35087   0.35136   0.35169   0.35213
     Eigenvalues ---    0.35277   0.35353   0.36132   0.39924   0.47503
     Eigenvalues ---    0.47694
 RFO step:  Lambda=-2.56356439D-04 EMin= 2.41772532D-03
 Quartic linear search produced a step of -0.11125.
 Iteration  1 RMS(Cart)=  0.04384249 RMS(Int)=  0.00068471
 Iteration  2 RMS(Cart)=  0.00094575 RMS(Int)=  0.00000298
 Iteration  3 RMS(Cart)=  0.00000040 RMS(Int)=  0.00000297
 Variable       Old X    -DE/DX   Delta X   Delta X   Delta X     New X
                                 (Linear)    (Quad)   (Total)
    R1        2.05686   0.00022   0.00008   0.00041   0.00048   2.05734
    R2        2.07721  -0.00015  -0.00002   0.00032   0.00029   2.07750
    R3        2.88557  -0.00064  -0.00082   0.00366   0.00284   2.88841
    R4        2.75432   0.00048   0.00094  -0.00698  -0.00604   2.74828
    R5        2.05818   0.00024  -0.00001   0.00058   0.00057   2.05875
    R6        2.06538  -0.00012   0.00001   0.00002   0.00003   2.06541
    R7        2.88508  -0.00104  -0.00034  -0.00105  -0.00139   2.88369
    R8        2.06011  -0.00016  -0.00013   0.00057   0.00044   2.06056
    R9        2.06415  -0.00020   0.00035  -0.00279  -0.00244   2.06171
   R10        2.86189  -0.00004  -0.00050   0.00206   0.00155   2.86344
   R11        2.80073  -0.00049  -0.00017  -0.00030  -0.00047   2.80026
   R12        2.80200  -0.00019  -0.00001  -0.00035  -0.00036   2.80164
   R13        2.87417   0.00011  -0.00059   0.00489   0.00430   2.87846
   R14        2.04962   0.00022  -0.00005   0.00067   0.00061   2.05023
   R15        2.06128  -0.00027   0.00001  -0.00041  -0.00040   2.06088
   R16        2.05096   0.00020  -0.00004   0.00088   0.00084   2.05180
   R17        2.06256  -0.00009  -0.00001   0.00015   0.00014   2.06270
   R18        2.04938   0.00014  -0.00006   0.00047   0.00041   2.04980
   R19        2.05387  -0.00005  -0.00010   0.00063   0.00053   2.05440
   R20        2.07649  -0.00049  -0.00030   0.00191   0.00161   2.07810
   R21        2.07214  -0.00044  -0.00028   0.00220   0.00192   2.07406
   R22        1.91076  -0.00036  -0.00006   0.00051   0.00044   1.91120
   R23        1.90855  -0.00044  -0.00007   0.00039   0.00032   1.90887
    A1        1.86640   0.00008  -0.00007   0.00081   0.00074   1.86713
    A2        1.89741  -0.00008  -0.00002  -0.00182  -0.00184   1.89557
    A3        1.89722  -0.00018   0.00011  -0.00102  -0.00091   1.89631
    A4        1.90013  -0.00008  -0.00022   0.00119   0.00097   1.90109
    A5        1.97781  -0.00025   0.00035  -0.00012   0.00023   1.97804
    A6        1.92267   0.00049  -0.00015   0.00085   0.00070   1.92337
    A7        1.88708   0.00037  -0.00018  -0.00061  -0.00078   1.88630
    A8        1.89818  -0.00004   0.00074  -0.00228  -0.00154   1.89664
    A9        1.99168  -0.00061  -0.00104   0.00310   0.00206   1.99374
   A10        1.84942   0.00002   0.00038  -0.00004   0.00034   1.84976
   A11        1.94511  -0.00010  -0.00010  -0.00210  -0.00220   1.94291
   A12        1.88664   0.00041   0.00032   0.00168   0.00201   1.88865
   A13        1.92093   0.00038  -0.00006   0.00268   0.00263   1.92356
   A14        1.93481  -0.00027   0.00014  -0.00065  -0.00053   1.93427
   A15        2.01223  -0.00055  -0.00113  -0.00011  -0.00125   2.01099
   A16        1.87795  -0.00010   0.00007   0.00048   0.00055   1.87850
   A17        1.83747   0.00007  -0.00082   0.00470   0.00389   1.84136
   A18        1.87364   0.00050   0.00185  -0.00697  -0.00513   1.86851
   A19        1.91137  -0.00011  -0.00014  -0.00096  -0.00111   1.91026
   A20        1.86376   0.00058   0.00032   0.00168   0.00200   1.86575
   A21        2.05438  -0.00070  -0.00093   0.00066  -0.00026   2.05411
   A22        1.88139  -0.00021   0.00034   0.00017   0.00052   1.88191
   A23        1.87800   0.00050   0.00009   0.00043   0.00053   1.87853
   A24        1.86824  -0.00004   0.00042  -0.00202  -0.00160   1.86664
   A25        1.87589  -0.00021  -0.00025   0.00155   0.00130   1.87720
   A26        1.92494  -0.00045  -0.00007  -0.00073  -0.00080   1.92414
   A27        1.90712  -0.00045  -0.00031   0.00023  -0.00008   1.90704
   A28        1.94439   0.00026   0.00016  -0.00071  -0.00055   1.94384
   A29        1.89203   0.00048   0.00037  -0.00041  -0.00004   1.89199
   A30        1.91847   0.00036   0.00009   0.00012   0.00021   1.91868
   A31        1.92791  -0.00048   0.00000  -0.00109  -0.00109   1.92682
   A32        1.88139  -0.00019  -0.00034   0.00206   0.00172   1.88310
   A33        1.89188  -0.00029  -0.00014   0.00019   0.00005   1.89193
   A34        1.94597   0.00028   0.00007   0.00002   0.00009   1.94606
   A35        1.91973   0.00032   0.00006   0.00027   0.00034   1.92007
   A36        1.89559   0.00035   0.00034  -0.00143  -0.00109   1.89450
   A37        1.82697  -0.00056  -0.00026  -0.00180  -0.00206   1.82491
   A38        1.83549  -0.00001  -0.00020  -0.00077  -0.00097   1.83451
   A39        1.87279   0.00009   0.00091  -0.00896  -0.00806   1.86473
   A40        1.94635  -0.00039   0.00018  -0.00200  -0.00182   1.94453
   A41        1.93934  -0.00022  -0.00021   0.00181   0.00160   1.94093
   A42        1.86779   0.00040   0.00059  -0.00300  -0.00241   1.86538
    D1       -1.06934   0.00015  -0.00213   0.01649   0.01436  -1.05497
    D2       -3.07001  -0.00004  -0.00286   0.01803   0.01517  -3.05484
    D3        1.10553  -0.00013  -0.00312   0.01547   0.01235   1.11789
    D4       -3.09664   0.00014  -0.00191   0.01587   0.01397  -3.08267
    D5        1.18587  -0.00005  -0.00264   0.01742   0.01478   1.20064
    D6       -0.92177  -0.00014  -0.00290   0.01486   0.01196  -0.90981
    D7        1.00785   0.00018  -0.00209   0.01464   0.01255   1.02039
    D8       -0.99283  -0.00002  -0.00283   0.01618   0.01335  -0.97947
    D9       -3.10047  -0.00010  -0.00308   0.01362   0.01054  -3.08993
   D10       -2.79834  -0.00026   0.00515  -0.06470  -0.05955  -2.85788
   D11       -0.71605  -0.00016   0.00587  -0.06860  -0.06273  -0.77878
   D12       -0.72592  -0.00043   0.00535  -0.06445  -0.05910  -0.78501
   D13        1.35637  -0.00033   0.00608  -0.06836  -0.06228   1.29409
   D14        1.40755  -0.00034   0.00520  -0.06236  -0.05716   1.35038
   D15       -2.79335  -0.00024   0.00592  -0.06627  -0.06035  -2.85370
   D16        0.36713   0.00006   0.00349   0.00028   0.00377   0.37090
   D17        2.44265   0.00000   0.00362   0.00218   0.00580   2.44845
   D18       -1.70758   0.00005   0.00534  -0.00773  -0.00239  -1.70996
   D19        2.51071   0.00000   0.00240   0.00017   0.00256   2.51327
   D20       -1.69695  -0.00005   0.00253   0.00207   0.00459  -1.69236
   D21        0.43600   0.00000   0.00425  -0.00785  -0.00360   0.43241
   D22       -1.74693   0.00022   0.00299  -0.00004   0.00294  -1.74398
   D23        0.32860   0.00016   0.00312   0.00185   0.00497   0.33357
   D24        2.46155   0.00021   0.00485  -0.00806  -0.00321   2.45834
   D25       -1.24013   0.00039   0.00166   0.05096   0.05261  -1.18752
   D26        3.01044   0.00038   0.00115   0.05034   0.05148   3.06193
   D27        0.91121   0.00044   0.00096   0.05123   0.05218   0.96339
   D28        2.92262   0.00020   0.00299   0.04424   0.04723   2.96985
   D29        0.89001   0.00018   0.00248   0.04362   0.04610   0.93611
   D30       -1.20922   0.00025   0.00229   0.04451   0.04680  -1.16242
   D31        0.92528   0.00006   0.00249   0.04458   0.04707   0.97235
   D32       -1.10732   0.00004   0.00198   0.04395   0.04594  -1.06139
   D33        3.07663   0.00011   0.00178   0.04485   0.04664   3.12327
   D34       -3.08152  -0.00035  -0.00075  -0.01151  -0.01226  -3.09378
   D35       -0.95872  -0.00044  -0.00076  -0.01184  -0.01259  -0.97132
   D36        1.15200  -0.00056  -0.00089  -0.01200  -0.01289   1.13911
   D37       -1.06010   0.00016  -0.00026  -0.00993  -0.01019  -1.07029
   D38        1.06270   0.00007  -0.00026  -0.01026  -0.01053   1.05217
   D39       -3.10976  -0.00005  -0.00040  -0.01043  -0.01083  -3.12059
   D40        0.94939   0.00026   0.00045  -0.01198  -0.01153   0.93786
   D41        3.07219   0.00017   0.00045  -0.01231  -0.01187   3.06032
   D42       -1.10027   0.00004   0.00031  -0.01248  -0.01216  -1.11244
   D43        0.95870   0.00015   0.00089  -0.01152  -0.01063   0.94807
   D44        3.08871   0.00008   0.00075  -0.01084  -0.01009   3.07862
   D45       -1.14574   0.00023   0.00090  -0.01132  -0.01042  -1.15615
   D46       -1.09375   0.00008   0.00071  -0.01136  -0.01064  -1.10440
   D47        1.03626   0.00001   0.00058  -0.01068  -0.01010   1.02616
   D48        3.08500   0.00016   0.00072  -0.01115  -0.01043   3.07457
   D49       -3.10967  -0.00038   0.00022  -0.01093  -0.01071  -3.12038
   D50       -0.97966  -0.00045   0.00009  -0.01025  -0.01016  -0.98982
   D51        1.06908  -0.00030   0.00023  -0.01073  -0.01049   1.05859
   D52        0.86844   0.00028   0.00379   0.03330   0.03709   0.90553
   D53       -1.10249   0.00041   0.00296   0.04428   0.04724  -1.05525
   D54        3.03656   0.00004   0.00299   0.03285   0.03585   3.07241
   D55        1.06563   0.00017   0.00217   0.04384   0.04600   1.11162
   D56       -1.22844   0.00002   0.00365   0.03226   0.03591  -1.19254
   D57        3.08381   0.00016   0.00282   0.04324   0.04606   3.12986
         Item               Value     Threshold  Converged?
 Maximum Force            0.001036     0.000450     NO 
 RMS     Force            0.000306     0.000300     NO 
 Maximum Displacement     0.162370     0.001800     NO 
 RMS     Displacement     0.043858     0.001200     NO 
 Predicted change in Energy=-1.424300D-04
 GradGradGradGradGradGradGradGradGradGradGradGradGradGradGradGradGradGrad

                          Input orientation:                          
 ---------------------------------------------------------------------
 Center     Atomic      Atomic             Coordinates (Angstroms)
 Number     Number       Type             X           Y           Z
 ---------------------------------------------------------------------
      1          6           0        1.293256    0.491701   -0.362778
      2          1           0        0.564824    1.289375   -0.498309
      3          1           0        1.620068    0.181596   -1.365593
      4          6           0        0.602814   -0.688369    0.320585
      5          1           0        0.231795   -0.349399    1.287192
      6          1           0        1.351849   -1.454195    0.537453
      7          6           0       -0.508189   -1.328644   -0.506666
      8          1           0       -0.376045   -1.091371   -1.562702
      9          1           0       -0.489018   -2.414935   -0.407152
     10          7           0       -1.912528   -0.875485   -0.162404
     11          6           0       -2.273101   -1.368605    1.187651
     12          1           0       -3.297734   -1.069756    1.382338
     13          1           0       -2.158957   -2.452081    1.236600
     14          1           0       -1.631966   -0.895180    1.925012
     15          6           0       -2.824334   -1.518268   -1.138846
     16          1           0       -2.677347   -2.599854   -1.141760
     17          1           0       -3.841362   -1.255992   -0.867824
     18          1           0       -2.613331   -1.111479   -2.124684
     19          6           0       -2.203334    0.619229   -0.200527
     20          1           0       -1.852196    0.944012   -1.190741
     21          1           0       -1.523614    1.061885    0.538826
     22          7           0        2.378091    0.988848    0.468518
     23          1           0        3.192599    0.392349    0.408309
     24          1           0        2.668172    1.911598    0.177398
 ---------------------------------------------------------------------
                    Distance matrix (angstroms):
                    1          2          3          4          5
     1  C    0.000000
     2  H    1.088699   0.000000
     3  H    1.099368   1.758664   0.000000
     4  C    1.528483   2.140911   2.152868   0.000000
     5  H    2.134608   2.446324   3.040810   1.089443   0.000000
     6  H    2.144846   3.036344   2.523754   1.092966   1.742758
     7  C    2.565067   2.829390   2.747373   1.525983   2.173574
     8  H    2.594707   2.772385   2.375661   2.160404   3.006974
     9  H    3.409840   3.852377   3.479774   2.168578   2.767095
    10  N    3.490902   3.307071   3.878700   2.568119   2.641253
    11  C    4.310856   4.238058   4.907030   3.079840   2.706140
    12  H    5.153715   4.901192   5.770770   4.060425   3.603546
    13  H    4.810576   4.942406   5.290434   3.402520   3.184262
    14  H    3.964133   3.933274   4.750079   2.758840   2.044088
    15  C    4.647236   4.447419   4.763786   3.816282   4.073308
    16  H    5.092172   5.104096   5.123898   4.068375   4.407659
    17  H    5.447367   5.101951   5.669361   4.635214   4.696446
    18  H    4.575580   4.302309   4.491095   4.062259   4.507373
    19  C    3.502675   2.863646   4.020859   3.139401   3.013536
    20  H    3.283897   2.537858   3.559280   3.312981   3.486557
    21  H    3.012102   2.342856   3.779479   2.762737   2.373443
    22  N    1.454329   2.076778   2.142479   2.446743   2.658519
    23  H    2.052303   2.920927   2.379915   2.807603   3.176317
    24  H    2.048973   2.295173   2.544062   3.323558   3.504239
                    6          7          8          9         10
     6  H    0.000000
     7  C    2.136747   0.000000
     8  H    2.743704   1.090401   0.000000
     9  H    2.281247   1.091009   1.760648   0.000000
    10  N    3.388342   1.515267   2.090029   2.110969   0.000000
    11  C    3.683795   2.446880   3.352630   2.611735   1.481834
    12  H    4.741334   3.378893   4.148493   3.591750   2.083931
    13  H    3.716226   2.650683   3.586976   2.343502   2.122168
    14  H    3.337809   2.713636   3.712140   3.009149   2.106279
    15  C    4.500509   2.408347   2.521113   2.606355   1.482565
    16  H    4.512948   2.593176   2.783649   2.315734   2.125449
    17  H    5.383634   3.353469   3.538132   3.576811   2.088732
    18  H    4.788223   2.663976   2.306876   3.026817   2.096988
    19  C    4.181271   2.600278   2.849678   3.491093   1.523218
    20  H    4.359352   2.727504   2.541685   3.708746   2.090857
    21  H    3.820857   2.799780   3.220225   3.748806   2.096755
    22  N    2.650733   3.827841   4.004802   4.535731   4.720509
    23  H    2.610511   4.182682   4.338379   4.701077   5.291071
    24  H    3.631930   4.588724   4.616605   5.387805   5.372719
                   11         12         13         14         15
    11  C    0.000000
    12  H    1.084936   0.000000
    13  H    1.090570   1.796906   0.000000
    14  H    1.085766   1.760613   1.782013   0.000000
    15  C    2.395589   2.604158   2.637703   3.346223   0.000000
    16  H    2.665622   3.016148   2.438680   3.661123   1.091532
    17  H    2.587876   2.322379   2.947832   3.579323   1.084706
    18  H    3.339676   3.573423   3.647177   4.172518   1.087141
    19  C    2.425570   2.560438   3.391202   2.671669   2.415570
    20  H    3.343966   3.572895   4.185634   3.624782   2.647748
    21  H    2.624879   2.898777   3.638476   2.400699   3.341204
    22  N    5.263870   6.106383   5.745846   4.663850   5.994537
    23  H    5.795016   6.723906   6.116862   5.218673   6.499817
    24  H    6.016355   6.777344   6.592783   5.424329   6.607882
                   16         17         18         19         20
    16  H    0.000000
    17  H    1.798871   0.000000
    18  H    1.784796   1.763133   0.000000
    19  C    3.387197   2.577765   2.620273   0.000000
    20  H    3.638991   2.983467   2.382566   1.099684   0.000000
    21  H    4.190919   3.566956   3.606284   1.097546   1.764444
    22  N    6.405406   6.745866   6.004196   4.644749   4.544280
    23  H    6.768475   7.336358   6.510482   5.434910   5.320832
    24  H    7.118142   7.314380   6.506371   5.054169   4.820971
                   21         22         23         24
    21  H    0.000000
    22  N    3.903022   0.000000
    23  H    4.765289   1.011365   0.000000
    24  H    4.292286   1.010132   1.623719   0.000000
 Stoichiometry    C6H16N2
 Framework group  C1[X(C6H16N2)]
 Deg. of freedom    66
 Full point group                 C1      NOp   1
 Largest Abelian subgroup         C1      NOp   1
 Largest concise Abelian subgroup C1      NOp   1
                         Standard orientation:                         
 ---------------------------------------------------------------------
 Center     Atomic      Atomic             Coordinates (Angstroms)
 Number     Number       Type             X           Y           Z
 ---------------------------------------------------------------------
      1          6           0       -2.132799   -0.428750   -0.258877
      2          1           0       -1.749237   -1.264917    0.323335
      3          1           0       -2.238898   -0.780816   -1.294929
      4          6           0       -1.105785    0.702700   -0.222514
      5          1           0       -0.966856    0.999879    0.816365
      6          1           0       -1.526756    1.573791   -0.731001
      7          6           0        0.225933    0.361307   -0.884782
      8          1           0        0.098099   -0.466129   -1.583339
      9          1           0        0.608562    1.213485   -1.448419
     10          7           0        1.325185   -0.074672    0.062638
     11          6           0        1.736874    1.074370    0.902904
     12          1           0        2.555311    0.742381    1.533007
     13          1           0        2.034741    1.914149    0.274104
     14          1           0        0.908797    1.365815    1.541838
     15          6           0        2.485691   -0.464106   -0.773762
     16          1           0        2.756615    0.348333   -1.450506
     17          1           0        3.304824   -0.718213   -0.109655
     18          1           0        2.215806   -1.349240   -1.344355
     19          6           0        1.035058   -1.245719    0.992512
     20          1           0        0.666938   -2.041313    0.328566
     21          1           0        0.182759   -0.921637    1.603383
     22          7           0       -3.386893    0.012203    0.330939
     23          1           0       -3.910079    0.596355   -0.307733
     24          1           0       -3.978497   -0.773452    0.561410
 ---------------------------------------------------------------------
 Rotational constants (GHZ):           3.9614771           0.9766311           0.9636786
 Standard basis: 6-311+G(2d,2p) (5D, 7F)
 There are   376 symmetry adapted cartesian basis functions of A   symmetry.
 There are   360 symmetry adapted basis functions of A   symmetry.
   360 basis functions,   512 primitive gaussians,   376 cartesian basis functions
    33 alpha electrons       33 beta electrons
       nuclear repulsion energy       420.4603376460 Hartrees.
 NAtoms=   24 NActive=   24 NUniq=   24 SFac= 1.00D+00 NAtFMM=   60 NAOKFM=F Big=F
 Integral buffers will be    131072 words long.
 Raffenetti 2 integral format.
 Two-electron integral symmetry is turned on.
 Nuclear repulsion after empirical dispersion term =      420.4427009527 Hartrees.
 One-electron integrals computed using PRISM.
 NBasis=   360 RedAO= T EigKep=  1.42D-05  NBF=   360
 NBsUse=   360 1.00D-06 EigRej= -1.00D+00 NBFU=   360
 Initial guess from the checkpoint file:  "diaminopropyl_ylide.chk"
 B after Tr=    -0.000000    0.000000   -0.000000
         Rot=    0.999890   -0.014246    0.001792   -0.003595 Ang=  -1.70 deg.
 ExpMin= 4.38D-02 ExpMax= 6.29D+03 ExpMxC= 9.49D+02 IAcc=2 IRadAn=         4 AccDes= 0.00D+00
 Harris functional with IExCor= 4639 and IRadAn=       4 diagonalized for initial guess.
 HarFok:  IExCor= 4639 AccDes= 0.00D+00 IRadAn=         4 IDoV= 1 UseB2=F ITyADJ=14
 ICtDFT=  3500011 ScaDFX=  1.000000  1.000000  1.000000  1.000000
 FoFCou: FMM=F IPFlag=           0 FMFlag=      100000 FMFlg1=           0
         NFxFlg=           0 DoJE=T BraDBF=F KetDBF=T FulRan=T
         wScrn=  0.000000 ICntrl=       500 IOpCl=  0 I1Cent=   200000004 NGrid=           0
         NMat0=    1 NMatS0=      1 NMatT0=    0 NMatD0=    1 NMtDS0=    0 NMtDT0=    0
 Petite list used in FoFCou.
 Requested convergence on RMS density matrix=1.00D-08 within  32 cycles.
 Requested convergence on MAX density matrix=1.00D-06.
 Requested convergence on             energy=1.00D-06.
 No special actions if energy rises.
 SCF Done:  E(RwB97XD) =  -347.663542613     A.U. after   12 cycles
            NFock= 12  Conv=0.48D-08     -V/T= 2.0045
 QCSCF skips out because SCF is already converged.
 Calling FoFJK, ICntrl=      2127 FMM=F ISym2X=0 I1Cent= 0 IOpClX= 0 NMat=1 NMatS=1 NMatT=0.
 ***** Axes restored to original set *****
 -------------------------------------------------------------------
 Center     Atomic                   Forces (Hartrees/Bohr)
 Number     Number              X              Y              Z
 -------------------------------------------------------------------
      1        6          -0.002261128   -0.002007959   -0.001075123
      2        1          -0.000084086    0.000094841   -0.000180132
      3        1          -0.000198742    0.000112971   -0.000014031
      4        6           0.000784807    0.000554795   -0.000306708
      5        1           0.000329853   -0.000031465   -0.000161537
      6        1          -0.000044728    0.000097769   -0.000242851
      7        6          -0.000466827    0.001833968    0.000032887
      8        1          -0.000475634    0.000066826    0.000383134
      9        1           0.000724421   -0.000706017    0.000147342
     10        7          -0.000579075   -0.000491448   -0.000079353
     11        6          -0.000295004    0.000049803    0.000904460
     12        1          -0.000011665    0.000032858   -0.000565958
     13        1           0.000210400   -0.000032560   -0.000244445
     14        1          -0.000306955   -0.000199352   -0.000354366
     15        6          -0.000246204    0.000026581   -0.000757035
     16        1          -0.000009027    0.000315685    0.000273915
     17        1           0.000097209    0.000028408    0.000423801
     18        1           0.000419986   -0.000097896    0.000251708
     19        6           0.001896578    0.000924066   -0.000229900
     20        1          -0.000053208   -0.000702187    0.000442142
     21        1          -0.000856588   -0.000671883   -0.000050716
     22        7           0.002503689    0.001603665    0.001159331
     23        1          -0.000627242   -0.000423315    0.000384587
     24        1          -0.000450832   -0.000378153   -0.000141153
 -------------------------------------------------------------------
 Cartesian Forces:  Max     0.002503689 RMS     0.000723702

 GradGradGradGradGradGradGradGradGradGradGradGradGradGradGradGradGradGrad
 Berny optimization.
 Using GEDIIS/GDIIS optimizer.
 FormGI is forming the generalized inverse of G from B-inverse, IUseBI=4.
 Internal  Forces:  Max     0.002139768 RMS     0.000472645
 Search for a local minimum.
 Step number   5 out of a maximum of  132
 All quantities printed in internal units (Hartrees-Bohrs-Radians)
 Mixed Optimization -- En-DIIS/RFO-DIIS
 Swapping is turned off.
 Update second derivatives using D2CorX and points    1    2    3    4    5
 DE= -3.90D-05 DEPred=-1.42D-04 R= 2.74D-01
 Trust test= 2.74D-01 RLast= 2.40D-01 DXMaxT set to 6.91D-01
 ITU=  0  1  1  1  0
     Eigenvalues ---    0.00177   0.00249   0.00365   0.00426   0.00447
     Eigenvalues ---    0.00470   0.00848   0.03505   0.03852   0.04027
     Eigenvalues ---    0.04313   0.04478   0.04804   0.04852   0.04949
     Eigenvalues ---    0.05589   0.05626   0.05779   0.05796   0.06105
     Eigenvalues ---    0.06149   0.06848   0.08603   0.08795   0.09268
     Eigenvalues ---    0.12477   0.12586   0.13042   0.15177   0.15701
     Eigenvalues ---    0.15793   0.15998   0.16000   0.16000   0.16000
     Eigenvalues ---    0.16000   0.16017   0.16051   0.16507   0.17448
     Eigenvalues ---    0.21788   0.23296   0.27938   0.29569   0.30138
     Eigenvalues ---    0.31308   0.32831   0.33142   0.34523   0.34726
     Eigenvalues ---    0.34780   0.34817   0.34957   0.35008   0.35056
     Eigenvalues ---    0.35077   0.35098   0.35137   0.35174   0.35208
     Eigenvalues ---    0.35315   0.35406   0.39147   0.41615   0.47444
     Eigenvalues ---    0.47717
 En-DIIS/RFO-DIIS/Sim-DIIS IScMMF=       -3 using points:     5    4
 RFO step:  Lambda=-2.14954330D-04.
 DidBck=F Rises=F RFO-DIIS coefs:    0.94583    0.05417
 Iteration  1 RMS(Cart)=  0.02756972 RMS(Int)=  0.00043205
 Iteration  2 RMS(Cart)=  0.00048136 RMS(Int)=  0.00000193
 Iteration  3 RMS(Cart)=  0.00000033 RMS(Int)=  0.00000191
 Variable       Old X    -DE/DX   Delta X   Delta X   Delta X     New X
                                 (Linear)    (Quad)   (Total)
    R1        2.05734   0.00015  -0.00003   0.00048   0.00045   2.05780
    R2        2.07750  -0.00008  -0.00002   0.00017   0.00015   2.07766
    R3        2.88841  -0.00133  -0.00015  -0.00060  -0.00076   2.88766
    R4        2.74828   0.00214   0.00033  -0.00075  -0.00043   2.74786
    R5        2.05875  -0.00027  -0.00003  -0.00008  -0.00011   2.05864
    R6        2.06541  -0.00015  -0.00000  -0.00013  -0.00014   2.06527
    R7        2.88369  -0.00051   0.00008  -0.00162  -0.00154   2.88215
    R8        2.06056  -0.00041  -0.00002  -0.00032  -0.00034   2.06022
    R9        2.06171   0.00073   0.00013  -0.00035  -0.00022   2.06149
   R10        2.86344  -0.00049  -0.00008   0.00021   0.00013   2.86357
   R11        2.80026  -0.00009   0.00003  -0.00050  -0.00047   2.79979
   R12        2.80164  -0.00041   0.00002  -0.00094  -0.00092   2.80073
   R13        2.87846  -0.00063  -0.00023   0.00157   0.00134   2.87980
   R14        2.05023  -0.00008  -0.00003   0.00020   0.00017   2.05040
   R15        2.06088   0.00005   0.00002  -0.00012  -0.00010   2.06078
   R16        2.05180  -0.00051  -0.00005  -0.00024  -0.00028   2.05152
   R17        2.06270  -0.00032  -0.00001  -0.00032  -0.00033   2.06237
   R18        2.04980   0.00002  -0.00002   0.00024   0.00022   2.05002
   R19        2.05440  -0.00018  -0.00003   0.00005   0.00002   2.05442
   R20        2.07810  -0.00062  -0.00009   0.00021   0.00012   2.07823
   R21        2.07406  -0.00083  -0.00010   0.00010   0.00000   2.07406
   R22        1.91120  -0.00028  -0.00002   0.00011   0.00008   1.91129
   R23        1.90887  -0.00043  -0.00002  -0.00013  -0.00015   1.90872
    A1        1.86713  -0.00013  -0.00004  -0.00038  -0.00042   1.86672
    A2        1.89557   0.00027   0.00010  -0.00033  -0.00023   1.89534
    A3        1.89631  -0.00006   0.00005  -0.00037  -0.00032   1.89599
    A4        1.90109  -0.00017  -0.00005  -0.00047  -0.00052   1.90057
    A5        1.97804   0.00023  -0.00001   0.00167   0.00166   1.97970
    A6        1.92337  -0.00014  -0.00004  -0.00020  -0.00024   1.92313
    A7        1.88630   0.00041   0.00004   0.00033   0.00037   1.88667
    A8        1.89664   0.00030   0.00008  -0.00112  -0.00104   1.89560
    A9        1.99374  -0.00139  -0.00011  -0.00216  -0.00227   1.99147
   A10        1.84976  -0.00019  -0.00002   0.00089   0.00087   1.85062
   A11        1.94291   0.00055   0.00012   0.00075   0.00087   1.94379
   A12        1.88865   0.00040  -0.00011   0.00147   0.00136   1.89001
   A13        1.92356  -0.00035  -0.00014  -0.00205  -0.00220   1.92136
   A14        1.93427  -0.00049   0.00003   0.00082   0.00085   1.93512
   A15        2.01099   0.00116   0.00007   0.00196   0.00203   2.01301
   A16        1.87850   0.00022  -0.00003   0.00016   0.00014   1.87863
   A17        1.84136  -0.00078  -0.00021  -0.00252  -0.00273   1.83863
   A18        1.86851   0.00021   0.00028   0.00147   0.00175   1.87025
   A19        1.91026   0.00097   0.00006   0.00365   0.00371   1.91397
   A20        1.86575  -0.00005  -0.00011   0.00018   0.00007   1.86582
   A21        2.05411  -0.00102   0.00001  -0.00393  -0.00392   2.05019
   A22        1.88191  -0.00059  -0.00003  -0.00066  -0.00069   1.88121
   A23        1.87853   0.00013  -0.00003   0.00131   0.00129   1.87982
   A24        1.86664   0.00055   0.00009  -0.00051  -0.00043   1.86621
   A25        1.87720  -0.00071  -0.00007  -0.00146  -0.00153   1.87566
   A26        1.92414  -0.00035   0.00004  -0.00140  -0.00136   1.92278
   A27        1.90704   0.00019   0.00000   0.00085   0.00085   1.90789
   A28        1.94384   0.00041   0.00003   0.00035   0.00038   1.94422
   A29        1.89199   0.00032   0.00000   0.00096   0.00097   1.89296
   A30        1.91868   0.00013  -0.00001   0.00072   0.00071   1.91939
   A31        1.92682  -0.00021   0.00006  -0.00130  -0.00125   1.92557
   A32        1.88310  -0.00043  -0.00009  -0.00021  -0.00031   1.88279
   A33        1.89193  -0.00034  -0.00000  -0.00074  -0.00074   1.89119
   A34        1.94606   0.00021  -0.00000   0.00010   0.00009   1.94615
   A35        1.92007   0.00025  -0.00002   0.00086   0.00084   1.92091
   A36        1.89450   0.00051   0.00006   0.00129   0.00135   1.89585
   A37        1.82491  -0.00094   0.00011  -0.00407  -0.00396   1.82095
   A38        1.83451  -0.00040   0.00005  -0.00185  -0.00180   1.83272
   A39        1.86473   0.00056   0.00044  -0.00277  -0.00234   1.86238
   A40        1.94453  -0.00030   0.00010  -0.00132  -0.00122   1.94332
   A41        1.94093  -0.00050  -0.00009   0.00002  -0.00007   1.94087
   A42        1.86538   0.00056   0.00013   0.00080   0.00093   1.86631
    D1       -1.05497  -0.00008  -0.00078  -0.00026  -0.00104  -1.05601
    D2       -3.05484  -0.00022  -0.00082  -0.00090  -0.00172  -3.05657
    D3        1.11789  -0.00003  -0.00067  -0.00055  -0.00121   1.11667
    D4       -3.08267   0.00001  -0.00076   0.00062  -0.00014  -3.08281
    D5        1.20064  -0.00013  -0.00080  -0.00002  -0.00082   1.19982
    D6       -0.90981   0.00006  -0.00065   0.00034  -0.00031  -0.91013
    D7        1.02039  -0.00007  -0.00068  -0.00103  -0.00171   1.01869
    D8       -0.97947  -0.00021  -0.00072  -0.00167  -0.00239  -0.98186
    D9       -3.08993  -0.00002  -0.00057  -0.00131  -0.00188  -3.09181
   D10       -2.85788  -0.00020   0.00323  -0.05000  -0.04678  -2.90466
   D11       -0.77878  -0.00003   0.00340  -0.04985  -0.04645  -0.82523
   D12       -0.78501  -0.00025   0.00320  -0.04968  -0.04648  -0.83150
   D13        1.29409  -0.00008   0.00337  -0.04953  -0.04616   1.24793
   D14        1.35038  -0.00041   0.00310  -0.04926  -0.04617   1.30422
   D15       -2.85370  -0.00024   0.00327  -0.04911  -0.04584  -2.89954
   D16        0.37090  -0.00016  -0.00020  -0.00519  -0.00540   0.36550
   D17        2.44845  -0.00043  -0.00031  -0.00578  -0.00610   2.44236
   D18       -1.70996   0.00033   0.00013  -0.00173  -0.00160  -1.71156
   D19        2.51327  -0.00023  -0.00014  -0.00579  -0.00593   2.50735
   D20       -1.69236  -0.00050  -0.00025  -0.00638  -0.00663  -1.69899
   D21        0.43241   0.00026   0.00019  -0.00232  -0.00213   0.43028
   D22       -1.74398   0.00008  -0.00016  -0.00341  -0.00357  -1.74755
   D23        0.33357  -0.00018  -0.00027  -0.00400  -0.00427   0.32930
   D24        2.45834   0.00057   0.00017   0.00005   0.00023   2.45857
   D25       -1.18752  -0.00068  -0.00285  -0.02713  -0.02997  -1.21749
   D26        3.06193  -0.00045  -0.00279  -0.02832  -0.03111   3.03081
   D27        0.96339  -0.00045  -0.00283  -0.02521  -0.02804   0.93535
   D28        2.96985  -0.00038  -0.00256  -0.02391  -0.02646   2.94339
   D29        0.93611  -0.00015  -0.00250  -0.02510  -0.02760   0.90851
   D30       -1.16242  -0.00015  -0.00254  -0.02199  -0.02453  -1.18695
   D31        0.97235  -0.00036  -0.00255  -0.02358  -0.02612   0.94623
   D32       -1.06139  -0.00013  -0.00249  -0.02478  -0.02726  -1.08865
   D33        3.12327  -0.00014  -0.00253  -0.02166  -0.02419   3.09908
   D34       -3.09378  -0.00007   0.00066   0.00098   0.00164  -3.09214
   D35       -0.97132  -0.00022   0.00068  -0.00035   0.00033  -0.97099
   D36        1.13911  -0.00015   0.00070   0.00019   0.00089   1.14000
   D37       -1.07029   0.00006   0.00055   0.00276   0.00331  -1.06698
   D38        1.05217  -0.00009   0.00057   0.00143   0.00200   1.05417
   D39       -3.12059  -0.00003   0.00059   0.00198   0.00256  -3.11803
   D40        0.93786   0.00047   0.00062   0.00249   0.00311   0.94097
   D41        3.06032   0.00032   0.00064   0.00116   0.00180   3.06212
   D42       -1.11244   0.00038   0.00066   0.00171   0.00237  -1.11007
   D43        0.94807   0.00067   0.00058   0.00326   0.00383   0.95190
   D44        3.07862   0.00052   0.00055   0.00244   0.00299   3.08161
   D45       -1.15615   0.00071   0.00056   0.00346   0.00402  -1.15213
   D46       -1.10440  -0.00012   0.00058  -0.00076  -0.00018  -1.10458
   D47        1.02616  -0.00028   0.00055  -0.00158  -0.00103   1.02513
   D48        3.07457  -0.00009   0.00056  -0.00056   0.00001   3.07457
   D49       -3.12038  -0.00026   0.00058  -0.00170  -0.00112  -3.12150
   D50       -0.98982  -0.00041   0.00055  -0.00252  -0.00197  -0.99179
   D51        1.05859  -0.00023   0.00057  -0.00150  -0.00093   1.05765
   D52        0.90553  -0.00048  -0.00201  -0.02684  -0.02884   0.87669
   D53       -1.05525  -0.00058  -0.00256  -0.02142  -0.02398  -1.07923
   D54        3.07241   0.00017  -0.00194  -0.02371  -0.02564   3.04677
   D55        1.11162   0.00008  -0.00249  -0.01829  -0.02079   1.09084
   D56       -1.19254  -0.00018  -0.00195  -0.02408  -0.02603  -1.21856
   D57        3.12986  -0.00027  -0.00249  -0.01867  -0.02117   3.10870
         Item               Value     Threshold  Converged?
 Maximum Force            0.002140     0.000450     NO 
 RMS     Force            0.000473     0.000300     NO 
 Maximum Displacement     0.131169     0.001800     NO 
 RMS     Displacement     0.027530     0.001200     NO 
 Predicted change in Energy=-1.100113D-04
 GradGradGradGradGradGradGradGradGradGradGradGradGradGradGradGradGradGrad

                          Input orientation:                          
 ---------------------------------------------------------------------
 Center     Atomic      Atomic             Coordinates (Angstroms)
 Number     Number       Type             X           Y           Z
 ---------------------------------------------------------------------
      1          6           0        1.289506    0.493016   -0.379480
      2          1           0        0.557846    1.285566   -0.528902
      3          1           0        1.615649    0.165503   -1.377054
      4          6           0        0.603889   -0.676471    0.325692
      5          1           0        0.233202   -0.321855    1.286733
      6          1           0        1.356213   -1.435662    0.553851
      7          6           0       -0.505429   -1.331979   -0.490307
      8          1           0       -0.375205   -1.105818   -1.548832
      9          1           0       -0.480911   -2.416867   -0.378649
     10          7           0       -1.911940   -0.879618   -0.153660
     11          6           0       -2.291366   -1.386288    1.185899
     12          1           0       -3.317874   -1.086155    1.368883
     13          1           0       -2.181326   -2.470613    1.222764
     14          1           0       -1.658849   -0.923622    1.937182
     15          6           0       -2.815580   -1.506217   -1.147324
     16          1           0       -2.673323   -2.588192   -1.159871
     17          1           0       -3.834304   -1.242059   -0.884148
     18          1           0       -2.590473   -1.089143   -2.125730
     19          6           0       -2.193884    0.617773   -0.179755
     20          1           0       -1.802980    0.951502   -1.152004
     21          1           0       -1.535817    1.044292    0.588123
     22          7           0        2.372383    1.009312    0.442245
     23          1           0        3.173245    0.391806    0.426254
     24          1           0        2.687740    1.908770    0.107986
 ---------------------------------------------------------------------
                    Distance matrix (angstroms):
                    1          2          3          4          5
     1  C    0.000000
     2  H    1.088940   0.000000
     3  H    1.099449   1.758651   0.000000
     4  C    1.528083   2.140571   2.152190   0.000000
     5  H    2.134492   2.446574   3.040467   1.089386   0.000000
     6  H    2.143678   3.035594   2.521791   1.092895   1.743226
     7  C    2.562164   2.825525   2.743674   1.525166   2.173430
     8  H    2.587454   2.762166   2.368389   2.157963   3.004195
     9  H    3.406141   3.848325   3.472897   2.168379   2.769934
    10  N    3.490613   3.305855   3.877223   2.569133   2.643382
    11  C    4.336455   4.265836   4.923571   3.102628   2.741647
    12  H    5.174795   4.924211   5.783292   4.078764   3.633324
    13  H    4.837041   4.967926   5.303318   3.432362   3.232832
    14  H    4.008315   3.984448   4.784632   2.788902   2.089275
    15  C    4.630146   4.422274   4.741648   3.814581   4.077060
    16  H    5.080046   5.083757   5.101499   4.074518   4.423804
    17  H    5.433102   5.079968   5.650325   4.634777   4.701500
    18  H    4.539477   4.254529   4.452653   4.047681   4.495195
    19  C    3.491341   2.853046   4.018783   3.123792   2.987345
    20  H    3.220322   2.464418   3.515035   3.259893   3.422706
    21  H    3.036876   2.385244   3.816535   2.758304   2.341760
    22  N    1.454103   2.076533   2.143480   2.446021   2.657303
    23  H    2.051322   2.924285   2.393583   2.784406   3.145407
    24  H    2.048668   2.308778   2.528578   3.327657   3.519927
                    6          7          8          9         10
     6  H    0.000000
     7  C    2.136991   0.000000
     8  H    2.743699   1.090221   0.000000
     9  H    2.281961   1.090894   1.760497   0.000000
    10  N    3.389776   1.515334   2.087876   2.112250   0.000000
    11  C    3.702264   2.449936   3.350983   2.605312   1.481585
    12  H    4.757470   3.380364   4.144001   3.587899   2.082653
    13  H    3.746032   2.653249   3.578615   2.336413   2.120938
    14  H    3.356545   2.718426   3.719306   2.996731   2.106564
    15  C    4.505867   2.408076   2.505386   2.621225   1.482080
    16  H    4.527950   2.593482   2.762258   2.333737   2.124003
    17  H    5.389507   3.353297   3.525015   3.589003   2.088171
    18  H    4.782945   2.661012   2.289214   3.043911   2.096037
    19  C    4.166289   2.597856   2.855298   3.490397   1.523926
    20  H    4.311496   2.708463   2.535464   3.700251   2.088436
    21  H    3.809880   2.805597   3.246008   3.745277   2.095982
    22  N    2.650086   3.825324   3.998425   4.533636   4.720020
    23  H    2.580218   4.164633   4.328434   4.678608   5.273702
    24  H    3.627256   4.588762   4.605912   5.384079   5.385223
                   11         12         13         14         15
    11  C    0.000000
    12  H    1.085026   0.000000
    13  H    1.090518   1.797169   0.000000
    14  H    1.085617   1.761177   1.782290   0.000000
    15  C    2.394392   2.600009   2.636220   3.345388   0.000000
    16  H    2.663288   3.011006   2.435741   3.659466   1.091359
    17  H    2.585837   2.316711   2.946312   3.576857   1.084822
    18  H    3.338360   3.569516   3.645309   4.171640   1.087154
    19  C    2.427091   2.562226   3.391953   2.672748   2.415374
    20  H    3.342091   3.577963   4.182528   3.616620   2.658151
    21  H    2.614557   2.885154   3.629602   2.389096   3.339860
    22  N    5.295515   6.134221   5.784061   4.714012   5.980768
    23  H    5.796607   6.723656   6.123668   5.230907   6.476471
    24  H    6.067190   6.828384   6.643006   5.501022   6.597308
                   16         17         18         19         20
    16  H    0.000000
    17  H    1.798881   0.000000
    18  H    1.785188   1.764094   0.000000
    19  C    3.386547   2.578007   2.618714   0.000000
    20  H    3.645133   3.001622   2.394268   1.099750   0.000000
    21  H    4.188597   3.560621   3.609549   1.097546   1.762961
    22  N    6.400622   6.734311   5.968915   4.625038   4.469746
    23  H    6.751188   7.313850   6.475051   5.405958   5.250427
    24  H    7.111338   7.310890   6.468115   5.057640   4.761355
                   21         22         23         24
    21  H    0.000000
    22  N    3.911079   0.000000
    23  H    4.756807   1.011409   0.000000
    24  H    4.337775   1.010052   1.624251   0.000000
 Stoichiometry    C6H16N2
 Framework group  C1[X(C6H16N2)]
 Deg. of freedom    66
 Full point group                 C1      NOp   1
 Largest Abelian subgroup         C1      NOp   1
 Largest concise Abelian subgroup C1      NOp   1
                         Standard orientation:                         
 ---------------------------------------------------------------------
 Center     Atomic      Atomic             Coordinates (Angstroms)
 Number     Number       Type             X           Y           Z
 ---------------------------------------------------------------------
      1          6           0       -2.132208   -0.433455   -0.249411
      2          1           0       -1.747078   -1.258306    0.348155
      3          1           0       -2.236957   -0.804904   -1.278897
      4          6           0       -1.107028    0.699599   -0.234074
      5          1           0       -0.968835    1.016983    0.798850
      6          1           0       -1.529548    1.559377   -0.760075
      7          6           0        0.223715    0.344410   -0.889128
      8          1           0        0.094105   -0.500176   -1.566224
      9          1           0        0.604502    1.182234   -1.474878
     10          7           0        1.325368   -0.071570    0.064579
     11          6           0        1.770990    1.100805    0.853282
     12          1           0        2.590907    0.775640    1.485173
     13          1           0        2.078062    1.907539    0.186861
     14          1           0        0.957888    1.435163    1.490176
     15          6           0        2.468218   -0.519245   -0.766108
     16          1           0        2.748240    0.259895   -1.477159
     17          1           0        3.288817   -0.763163   -0.099805
     18          1           0        2.172901   -1.420474   -1.297594
     19          6           0        1.019439   -1.199187    1.042966
     20          1           0        0.602343   -1.999384    0.414344
     21          1           0        0.195281   -0.822409    1.662166
     22          7           0       -3.386175    0.016499    0.333276
     23          1           0       -3.889607    0.623380   -0.300127
     24          1           0       -3.994120   -0.763455    0.538894
 ---------------------------------------------------------------------
 Rotational constants (GHZ):           3.9640286           0.9767484           0.9639688
 Standard basis: 6-311+G(2d,2p) (5D, 7F)
 There are   376 symmetry adapted cartesian basis functions of A   symmetry.
 There are   360 symmetry adapted basis functions of A   symmetry.
   360 basis functions,   512 primitive gaussians,   376 cartesian basis functions
    33 alpha electrons       33 beta electrons
       nuclear repulsion energy       420.5292068523 Hartrees.
 NAtoms=   24 NActive=   24 NUniq=   24 SFac= 1.00D+00 NAtFMM=   60 NAOKFM=F Big=F
 Integral buffers will be    131072 words long.
 Raffenetti 2 integral format.
 Two-electron integral symmetry is turned on.
 Nuclear repulsion after empirical dispersion term =      420.5115250340 Hartrees.
 One-electron integrals computed using PRISM.
 NBasis=   360 RedAO= T EigKep=  1.43D-05  NBF=   360
 NBsUse=   360 1.00D-06 EigRej= -1.00D+00 NBFU=   360
 Initial guess from the checkpoint file:  "diaminopropyl_ylide.chk"
 B after Tr=     0.000000   -0.000000    0.000000
         Rot=    0.999837    0.017868   -0.001239    0.002423 Ang=   2.07 deg.
 ExpMin= 4.38D-02 ExpMax= 6.29D+03 ExpMxC= 9.49D+02 IAcc=2 IRadAn=         4 AccDes= 0.00D+00
 Harris functional with IExCor= 4639 and IRadAn=       4 diagonalized for initial guess.
 HarFok:  IExCor= 4639 AccDes= 0.00D+00 IRadAn=         4 IDoV= 1 UseB2=F ITyADJ=14
 ICtDFT=  3500011 ScaDFX=  1.000000  1.000000  1.000000  1.000000
 FoFCou: FMM=F IPFlag=           0 FMFlag=      100000 FMFlg1=           0
         NFxFlg=           0 DoJE=T BraDBF=F KetDBF=T FulRan=T
         wScrn=  0.000000 ICntrl=       500 IOpCl=  0 I1Cent=   200000004 NGrid=           0
         NMat0=    1 NMatS0=      1 NMatT0=    0 NMatD0=    1 NMtDS0=    0 NMtDT0=    0
 Petite list used in FoFCou.
 Requested convergence on RMS density matrix=1.00D-08 within  32 cycles.
 Requested convergence on MAX density matrix=1.00D-06.
 Requested convergence on             energy=1.00D-06.
 No special actions if energy rises.
 SCF Done:  E(RwB97XD) =  -347.663664188     A.U. after   12 cycles
            NFock= 12  Conv=0.44D-08     -V/T= 2.0045
 QCSCF skips out because SCF is already converged.
 Calling FoFJK, ICntrl=      2127 FMM=F ISym2X=0 I1Cent= 0 IOpClX= 0 NMat=1 NMatS=1 NMatT=0.
 ***** Axes restored to original set *****
 -------------------------------------------------------------------
 Center     Atomic                   Forces (Hartrees/Bohr)
 Number     Number              X              Y              Z
 -------------------------------------------------------------------
      1        6          -0.002404676   -0.001726216   -0.000962404
      2        1           0.000041630    0.000086874   -0.000022171
      3        1          -0.000025607   -0.000036318   -0.000045843
      4        6           0.000847883    0.000688746    0.000101677
      5        1          -0.000063769   -0.000083887    0.000075350
      6        1          -0.000097055   -0.000151980   -0.000231642
      7        6          -0.000704142    0.001567973   -0.000108664
      8        1          -0.000265755   -0.000065870    0.000251054
      9        1           0.000579896   -0.000786369    0.000051876
     10        7          -0.000331453    0.000118541   -0.000057299
     11        6           0.000036595    0.000087657    0.000546849
     12        1           0.000043773    0.000026798   -0.000329325
     13        1           0.000064571    0.000001112   -0.000128250
     14        1           0.000200913   -0.000061160   -0.000295439
     15        6          -0.000264598   -0.000042453   -0.000767150
     16        1           0.000011458    0.000057773    0.000092599
     17        1           0.000187063   -0.000003676    0.000279055
     18        1           0.000187016   -0.000141128    0.000269293
     19        6           0.001874687    0.000615822   -0.000186485
     20        1          -0.000572499   -0.000444055    0.000322420
     21        1          -0.000687349   -0.000473600   -0.000176732
     22        7           0.002252493    0.001315754    0.001204648
     23        1          -0.000476683   -0.000333457    0.000224138
     24        1          -0.000434390   -0.000216882   -0.000107555
 -------------------------------------------------------------------
 Cartesian Forces:  Max     0.002404676 RMS     0.000654672

 GradGradGradGradGradGradGradGradGradGradGradGradGradGradGradGradGradGrad
 Berny optimization.
 Using GEDIIS/GDIIS optimizer.
 FormGI is forming the generalized inverse of G from B-inverse, IUseBI=4.
 Internal  Forces:  Max     0.002018613 RMS     0.000330673
 Search for a local minimum.
 Step number   6 out of a maximum of  132
 All quantities printed in internal units (Hartrees-Bohrs-Radians)
 Mixed Optimization -- En-DIIS/RFO-DIIS
 Swapping is turned off.
 Update second derivatives using D2CorX and points    2    3    4    5    6
 DE= -1.22D-04 DEPred=-1.10D-04 R= 1.11D+00
 TightC=F SS=  1.41D+00  RLast= 1.54D-01 DXNew= 1.1618D+00 4.6108D-01
 Trust test= 1.11D+00 RLast= 1.54D-01 DXMaxT set to 6.91D-01
 ITU=  1  0  1  1  1  0
     Eigenvalues ---    0.00184   0.00252   0.00349   0.00428   0.00447
     Eigenvalues ---    0.00471   0.00885   0.03488   0.03907   0.04019
     Eigenvalues ---    0.04342   0.04578   0.04810   0.04914   0.05090
     Eigenvalues ---    0.05587   0.05682   0.05791   0.05828   0.06108
     Eigenvalues ---    0.06121   0.06714   0.08694   0.08793   0.09173
     Eigenvalues ---    0.12449   0.12594   0.13130   0.14844   0.15671
     Eigenvalues ---    0.15870   0.15979   0.16000   0.16000   0.16000
     Eigenvalues ---    0.16000   0.16014   0.16185   0.16684   0.16769
     Eigenvalues ---    0.21741   0.22840   0.27774   0.29711   0.30250
     Eigenvalues ---    0.31124   0.32939   0.33087   0.34572   0.34706
     Eigenvalues ---    0.34803   0.34827   0.34966   0.35006   0.35062
     Eigenvalues ---    0.35075   0.35096   0.35138   0.35175   0.35208
     Eigenvalues ---    0.35310   0.35417   0.37607   0.44081   0.47461
     Eigenvalues ---    0.47702
 En-DIIS/RFO-DIIS/Sim-DIIS IScMMF=       -3 using points:     6    5    4
 RFO step:  Lambda=-8.09330585D-05.
 DidBck=F Rises=F RFO-DIIS coefs:    1.60004   -0.32336   -0.27668
 Iteration  1 RMS(Cart)=  0.01243955 RMS(Int)=  0.00029921
 Iteration  2 RMS(Cart)=  0.00030671 RMS(Int)=  0.00000227
 Iteration  3 RMS(Cart)=  0.00000018 RMS(Int)=  0.00000226
 Variable       Old X    -DE/DX   Delta X   Delta X   Delta X     New X
                                 (Linear)    (Quad)   (Total)
    R1        2.05780   0.00004   0.00041  -0.00020   0.00020   2.05800
    R2        2.07766   0.00004   0.00017   0.00002   0.00019   2.07785
    R3        2.88766  -0.00130   0.00033  -0.00319  -0.00286   2.88480
    R4        2.74786   0.00202  -0.00193   0.00523   0.00331   2.75116
    R5        2.05864   0.00006   0.00009   0.00018   0.00028   2.05892
    R6        2.06527  -0.00001  -0.00007  -0.00003  -0.00010   2.06517
    R7        2.88215  -0.00033  -0.00131   0.00033  -0.00098   2.88116
    R8        2.06022  -0.00029  -0.00008  -0.00057  -0.00065   2.05957
    R9        2.06149   0.00080  -0.00080   0.00221   0.00140   2.06290
   R10        2.86357  -0.00087   0.00050  -0.00272  -0.00221   2.86135
   R11        2.79979  -0.00029  -0.00041  -0.00014  -0.00055   2.79924
   R12        2.80073   0.00007  -0.00065   0.00095   0.00030   2.80103
   R13        2.87980  -0.00041   0.00199  -0.00124   0.00076   2.88056
   R14        2.05040  -0.00009   0.00027  -0.00033  -0.00006   2.05034
   R15        2.06078   0.00000  -0.00017   0.00010  -0.00007   2.06071
   R16        2.05152  -0.00011   0.00006  -0.00028  -0.00022   2.05130
   R17        2.06237  -0.00006  -0.00016  -0.00008  -0.00024   2.06213
   R18        2.05002  -0.00011   0.00025  -0.00038  -0.00013   2.04988
   R19        2.05442  -0.00026   0.00016  -0.00068  -0.00052   2.05391
   R20        2.07823  -0.00063   0.00052  -0.00162  -0.00110   2.07712
   R21        2.07406  -0.00072   0.00053  -0.00191  -0.00138   2.07268
   R22        1.91129  -0.00018   0.00017  -0.00046  -0.00029   1.91100
   R23        1.90872  -0.00029  -0.00000  -0.00060  -0.00060   1.90812
    A1        1.86672  -0.00003  -0.00005   0.00029   0.00024   1.86696
    A2        1.89534   0.00023  -0.00065   0.00276   0.00212   1.89746
    A3        1.89599  -0.00010  -0.00044  -0.00100  -0.00144   1.89455
    A4        1.90057  -0.00012  -0.00005  -0.00077  -0.00082   1.89975
    A5        1.97970   0.00016   0.00106  -0.00087   0.00019   1.97988
    A6        1.92313  -0.00013   0.00005  -0.00021  -0.00016   1.92297
    A7        1.88667   0.00032   0.00001   0.00255   0.00256   1.88923
    A8        1.89560   0.00030  -0.00105   0.00088  -0.00018   1.89543
    A9        1.99147  -0.00075  -0.00079  -0.00181  -0.00261   1.98887
   A10        1.85062  -0.00006   0.00061   0.00057   0.00119   1.85181
   A11        1.94379   0.00016  -0.00008   0.00046   0.00038   1.94416
   A12        1.89001   0.00009   0.00137  -0.00248  -0.00111   1.88890
   A13        1.92136   0.00034  -0.00059   0.00199   0.00140   1.92277
   A14        1.93512  -0.00033   0.00036  -0.00280  -0.00244   1.93268
   A15        2.01301  -0.00035   0.00087  -0.00034   0.00053   2.01355
   A16        1.87863  -0.00007   0.00023  -0.00060  -0.00036   1.87827
   A17        1.83863  -0.00020  -0.00056  -0.00073  -0.00129   1.83734
   A18        1.87025   0.00063  -0.00037   0.00256   0.00218   1.87244
   A19        1.91397  -0.00002   0.00192  -0.00202  -0.00010   1.91387
   A20        1.86582   0.00014   0.00059   0.00041   0.00100   1.86682
   A21        2.05019  -0.00039  -0.00242  -0.00267  -0.00509   2.04510
   A22        1.88121  -0.00002  -0.00027   0.00191   0.00163   1.88285
   A23        1.87982   0.00017   0.00092   0.00052   0.00144   1.88126
   A24        1.86621   0.00014  -0.00070   0.00235   0.00165   1.86786
   A25        1.87566  -0.00034  -0.00056  -0.00120  -0.00176   1.87390
   A26        1.92278  -0.00011  -0.00104  -0.00029  -0.00133   1.92144
   A27        1.90789  -0.00031   0.00049  -0.00167  -0.00118   1.90670
   A28        1.94422   0.00021   0.00007   0.00097   0.00104   1.94526
   A29        1.89296   0.00038   0.00057   0.00214   0.00271   1.89567
   A30        1.91939   0.00016   0.00048   0.00001   0.00049   1.91987
   A31        1.92557  -0.00005  -0.00105  -0.00004  -0.00109   1.92449
   A32        1.88279  -0.00036   0.00029  -0.00189  -0.00160   1.88119
   A33        1.89119  -0.00015  -0.00043   0.00005  -0.00038   1.89081
   A34        1.94615   0.00014   0.00008   0.00002   0.00010   1.94625
   A35        1.92091   0.00009   0.00060  -0.00002   0.00057   1.92148
   A36        1.89585   0.00032   0.00051   0.00188   0.00239   1.89824
   A37        1.82095  -0.00023  -0.00295   0.00251  -0.00044   1.82051
   A38        1.83272  -0.00017  -0.00135   0.00146   0.00010   1.83282
   A39        1.86238   0.00044  -0.00364   0.00677   0.00311   1.86550
   A40        1.94332  -0.00031  -0.00123  -0.00151  -0.00275   1.94057
   A41        1.94087  -0.00046   0.00040  -0.00244  -0.00204   1.93883
   A42        1.86631   0.00050  -0.00011   0.00360   0.00349   1.86981
    D1       -1.05601   0.00009   0.00335  -0.01377  -0.01041  -1.06643
    D2       -3.05657  -0.00016   0.00316  -0.01622  -0.01305  -3.06962
    D3        1.11667   0.00000   0.00269  -0.01249  -0.00980   1.10687
    D4       -3.08281   0.00005   0.00378  -0.01520  -0.01141  -3.09422
    D5        1.19982  -0.00019   0.00360  -0.01765  -0.01405   1.18577
    D6       -0.91013  -0.00003   0.00312  -0.01392  -0.01080  -0.92092
    D7        1.01869   0.00002   0.00245  -0.01342  -0.01098   1.00771
    D8       -0.98186  -0.00022   0.00226  -0.01588  -0.01362  -0.99548
    D9       -3.09181  -0.00006   0.00179  -0.01215  -0.01036  -3.10217
   D10       -2.90466  -0.00012  -0.04454  -0.00251  -0.04705  -2.95171
   D11       -0.82523  -0.00001  -0.04523  -0.00058  -0.04581  -0.87104
   D12       -0.83150  -0.00013  -0.04424  -0.00337  -0.04761  -0.87911
   D13        1.24793  -0.00001  -0.04493  -0.00144  -0.04637   1.20156
   D14        1.30422  -0.00027  -0.04352  -0.00514  -0.04866   1.25555
   D15       -2.89954  -0.00015  -0.04420  -0.00322  -0.04742  -2.94696
   D16        0.36550  -0.00004  -0.00219  -0.00389  -0.00609   0.35942
   D17        2.44236  -0.00012  -0.00205  -0.00513  -0.00718   2.43518
   D18       -1.71156   0.00020  -0.00162  -0.00420  -0.00582  -1.71738
   D19        2.50735  -0.00006  -0.00285  -0.00151  -0.00435   2.50299
   D20       -1.69899  -0.00014  -0.00271  -0.00274  -0.00544  -1.70443
   D21        0.43028   0.00018  -0.00227  -0.00181  -0.00408   0.42620
   D22       -1.74755   0.00001  -0.00133  -0.00204  -0.00337  -1.75092
   D23        0.32930  -0.00007  -0.00119  -0.00327  -0.00446   0.32484
   D24        2.45857   0.00025  -0.00075  -0.00234  -0.00310   2.45547
   D25       -1.21749   0.00015  -0.00343   0.00924   0.00581  -1.21169
   D26        3.03081   0.00011  -0.00443   0.00780   0.00338   3.03419
   D27        0.93535   0.00006  -0.00239   0.00617   0.00378   0.93913
   D28        2.94339   0.00007  -0.00281   0.00745   0.00464   2.94803
   D29        0.90851   0.00003  -0.00381   0.00602   0.00221   0.91072
   D30       -1.18695  -0.00001  -0.00177   0.00438   0.00261  -1.18434
   D31        0.94623  -0.00004  -0.00265   0.00734   0.00469   0.95092
   D32       -1.08865  -0.00008  -0.00365   0.00591   0.00226  -1.08639
   D33        3.09908  -0.00012  -0.00161   0.00427   0.00266   3.10173
   D34       -3.09214  -0.00016  -0.00241  -0.00402  -0.00643  -3.09857
   D35       -0.97099  -0.00018  -0.00329  -0.00376  -0.00705  -0.97803
   D36        1.14000  -0.00025  -0.00303  -0.00500  -0.00803   1.13197
   D37       -1.06698  -0.00001  -0.00083  -0.00355  -0.00439  -1.07137
   D38        1.05417  -0.00003  -0.00171  -0.00329  -0.00501   1.04917
   D39       -3.11803  -0.00010  -0.00146  -0.00453  -0.00599  -3.12402
   D40        0.94097   0.00023  -0.00132   0.00040  -0.00092   0.94005
   D41        3.06212   0.00021  -0.00220   0.00067  -0.00154   3.06059
   D42       -1.11007   0.00014  -0.00195  -0.00058  -0.00252  -1.11259
   D43        0.95190   0.00016  -0.00064   0.00566   0.00501   0.95691
   D44        3.08161   0.00007  -0.00100   0.00445   0.00346   3.08507
   D45       -1.15213   0.00017  -0.00047   0.00568   0.00521  -1.14693
   D46       -1.10458   0.00012  -0.00305   0.00682   0.00377  -1.10081
   D47        1.02513   0.00002  -0.00341   0.00562   0.00221   1.02734
   D48        3.07457   0.00013  -0.00288   0.00684   0.00396   3.07853
   D49       -3.12150  -0.00014  -0.00364   0.00410   0.00046  -3.12104
   D50       -0.99179  -0.00023  -0.00399   0.00290  -0.00110  -0.99289
   D51        1.05765  -0.00013  -0.00346   0.00412   0.00066   1.05831
   D52        0.87669   0.00024  -0.00704   0.00116  -0.00587   0.87082
   D53       -1.07923  -0.00009  -0.00132  -0.00786  -0.00918  -1.08841
   D54        3.04677   0.00007  -0.00547  -0.00309  -0.00856   3.03821
   D55        1.09084  -0.00026   0.00025  -0.01212  -0.01187   1.07897
   D56       -1.21856   0.00020  -0.00568   0.00055  -0.00513  -1.22369
   D57        3.10870  -0.00013   0.00004  -0.00847  -0.00844   3.10026
         Item               Value     Threshold  Converged?
 Maximum Force            0.002019     0.000450     NO 
 RMS     Force            0.000331     0.000300     NO 
 Maximum Displacement     0.088787     0.001800     NO 
 RMS     Displacement     0.012466     0.001200     NO 
 Predicted change in Energy=-4.106669D-05
 GradGradGradGradGradGradGradGradGradGradGradGradGradGradGradGradGradGrad

                          Input orientation:                          
 ---------------------------------------------------------------------
 Center     Atomic      Atomic             Coordinates (Angstroms)
 Number     Number       Type             X           Y           Z
 ---------------------------------------------------------------------
      1          6           0        1.286945    0.494084   -0.382743
      2          1           0        0.554313    1.283868   -0.542486
      3          1           0        1.622039    0.161574   -1.375799
      4          6           0        0.602438   -0.673553    0.323300
      5          1           0        0.231844   -0.320649    1.285172
      6          1           0        1.354422   -1.433837    0.548667
      7          6           0       -0.506344   -1.327068   -0.494052
      8          1           0       -0.379599   -1.096030   -1.551590
      9          1           0       -0.476440   -2.413055   -0.387231
     10          7           0       -1.912498   -0.880153   -0.153921
     11          6           0       -2.286062   -1.387595    1.186668
     12          1           0       -3.311040   -1.084755    1.373531
     13          1           0       -2.178211   -2.472215    1.220072
     14          1           0       -1.647170   -0.927764    1.934119
     15          6           0       -2.817468   -1.507257   -1.146296
     16          1           0       -2.675241   -2.589129   -1.156874
     17          1           0       -3.835236   -1.242440   -0.880389
     18          1           0       -2.592407   -1.091480   -2.124961
     19          6           0       -2.192112    0.618094   -0.179270
     20          1           0       -1.796986    0.951785   -1.149161
     21          1           0       -1.539395    1.042045    0.593539
     22          7           0        2.362548    1.020652    0.445092
     23          1           0        3.147425    0.383615    0.473239
     24          1           0        2.704648    1.898243    0.081272
 ---------------------------------------------------------------------
                    Distance matrix (angstroms):
                    1          2          3          4          5
     1  C    0.000000
     2  H    1.089048   0.000000
     3  H    1.099550   1.758975   0.000000
     4  C    1.526572   2.140887   2.150339   0.000000
     5  H    2.135174   2.453323   3.040714   1.089531   0.000000
     6  H    2.142186   3.035904   2.514065   1.092842   1.744078
     7  C    2.558295   2.818568   2.742908   1.524646   2.173348
     8  H    2.583028   2.748525   2.370448   2.158263   3.003714
     9  H    3.400148   3.841066   3.465486   2.166725   2.770697
    10  N    3.489603   3.304410   3.882156   2.568137   2.642393
    11  C    4.332453   4.265491   4.923354   3.098176   2.736409
    12  H    5.169014   4.921631   5.783375   4.072762   3.625424
    13  H    4.834796   4.968043   5.302573   3.430947   3.231384
    14  H    3.999817   3.983895   4.778069   2.778507   2.078562
    15  C    4.629751   4.418582   4.748357   3.814517   4.076565
    16  H    5.079804   5.080118   5.106947   4.074743   4.422753
    17  H    5.431382   5.075878   5.656725   4.633082   4.698989
    18  H    4.538581   4.248335   4.460151   4.046688   4.494395
    19  C    3.487208   2.849216   4.023412   3.119365   2.983520
    20  H    3.210532   2.450906   3.516466   3.250708   3.414853
    21  H    3.039998   2.394294   3.827295   2.757491   2.339355
    22  N    1.455852   2.077091   2.145230   2.446047   2.654189
    23  H    2.050925   2.926838   2.407289   2.759898   3.107383
    24  H    2.048622   2.321739   2.512194   3.330465   3.533782
                    6          7          8          9         10
     6  H    0.000000
     7  C    2.135677   0.000000
     8  H    2.744453   1.089876   0.000000
     9  H    2.277461   1.091637   1.760587   0.000000
    10  N    3.387177   1.514164   2.085632   2.113406   0.000000
    11  C    3.696256   2.448648   3.349279   2.608344   1.481292
    12  H    4.750663   3.378299   4.141233   3.591604   2.081079
    13  H    3.742794   2.654189   3.579246   2.341569   2.119698
    14  H    3.344420   2.712368   3.712845   2.994221   2.105369
    15  C    4.503661   2.408150   2.505310   2.622416   1.482241
    16  H    4.525678   2.595428   2.766789   2.336254   2.123274
    17  H    5.386222   3.352303   3.523262   3.590969   2.087086
    18  H    4.779431   2.658388   2.285890   3.040327   2.095694
    19  C    4.161516   2.593175   2.847224   3.489218   1.524326
    20  H    4.301766   2.699647   2.522792   3.694120   2.088024
    21  H    3.808699   2.804059   3.243157   3.745597   2.095888
    22  N    2.655478   3.824176   3.998306   4.532433   4.716768
    23  H    2.554149   4.148748   4.327722   4.657699   5.252928
    24  H    3.625511   4.587385   4.598313   5.378299   5.393778
                   11         12         13         14         15
    11  C    0.000000
    12  H    1.084993   0.000000
    13  H    1.090480   1.797747   0.000000
    14  H    1.085500   1.762773   1.782469   0.000000
    15  C    2.395711   2.602239   2.634291   3.345798   0.000000
    16  H    2.662204   3.011699   2.431168   3.656679   1.091233
    17  H    2.587225   2.319440   2.944489   3.578842   1.084751
    18  H    3.338925   3.571544   3.642421   4.170900   1.086880
    19  C    2.428456   2.561813   3.392397   2.674519   2.417297
    20  H    3.341855   3.578244   4.181193   3.614107   2.662382
    21  H    2.610070   2.875829   3.626382   2.385145   3.340575
    22  N    5.287643   6.122446   5.780934   4.700146   5.979583
    23  H    5.759249   6.684191   6.089000   5.180929   6.463609
    24  H    6.076662   6.837888   6.651321   5.509780   6.602887
                   16         17         18         19         20
    16  H    0.000000
    17  H    1.798779   0.000000
    18  H    1.785219   1.765325   0.000000
    19  C    3.387537   2.579343   2.620801   0.000000
    20  H    3.648214   3.006879   2.399961   1.099165   0.000000
    21  H    4.188021   3.558401   3.612618   1.096817   1.763946
    22  N    6.401260   6.729860   5.968070   4.614847   4.455122
    23  H    6.737797   7.296157   6.470874   5.384366   5.234711
    24  H    7.114262   7.318385   6.470294   5.068029   4.761770
                   21         22         23         24
    21  H    0.000000
    22  N    3.904825   0.000000
    23  H    4.734373   1.011256   0.000000
    24  H    4.359747   1.009735   1.625973   0.000000
 Stoichiometry    C6H16N2
 Framework group  C1[X(C6H16N2)]
 Deg. of freedom    66
 Full point group                 C1      NOp   1
 Largest Abelian subgroup         C1      NOp   1
 Largest concise Abelian subgroup C1      NOp   1
                         Standard orientation:                         
 ---------------------------------------------------------------------
 Center     Atomic      Atomic             Coordinates (Angstroms)
 Number     Number       Type             X           Y           Z
 ---------------------------------------------------------------------
      1          6           0       -2.130388   -0.437781   -0.246831
      2          1           0       -1.744273   -1.257855    0.356840
      3          1           0       -2.240674   -0.818524   -1.272444
      4          6           0       -1.105878    0.693943   -0.248413
      5          1           0       -0.968376    1.031027    0.778498
      6          1           0       -1.525822    1.543525   -0.792619
      7          6           0        0.224312    0.323832   -0.895064
      8          1           0        0.096121   -0.535832   -1.552616
      9          1           0        0.602610    1.149528   -1.500694
     10          7           0        1.325633   -0.070221    0.066448
     11          6           0        1.766097    1.117951    0.833563
     12          1           0        2.582032    0.804282    1.476270
     13          1           0        2.077344    1.909881    0.151567
     14          1           0        0.947879    1.464988    1.456777
     15          6           0        2.470575   -0.532589   -0.753529
     16          1           0        2.752275    0.234967   -1.476226
     17          1           0        3.288616   -0.763941   -0.079756
     18          1           0        2.175683   -1.442008   -1.270545
     19          6           0        1.014598   -1.179742    1.064342
     20          1           0        0.593570   -1.987807    0.449581
     21          1           0        0.195464   -0.787411    1.679243
     22          7           0       -3.382404    0.019062    0.339050
     23          1           0       -3.865316    0.655449   -0.280988
     24          1           0       -4.005620   -0.755846    0.514216
 ---------------------------------------------------------------------
 Rotational constants (GHZ):           3.9646871           0.9782032           0.9655595
 Standard basis: 6-311+G(2d,2p) (5D, 7F)
 There are   376 symmetry adapted cartesian basis functions of A   symmetry.
 There are   360 symmetry adapted basis functions of A   symmetry.
   360 basis functions,   512 primitive gaussians,   376 cartesian basis functions
    33 alpha electrons       33 beta electrons
       nuclear repulsion energy       420.6918623937 Hartrees.
 NAtoms=   24 NActive=   24 NUniq=   24 SFac= 1.00D+00 NAtFMM=   60 NAOKFM=F Big=F
 Integral buffers will be    131072 words long.
 Raffenetti 2 integral format.
 Two-electron integral symmetry is turned on.
 Nuclear repulsion after empirical dispersion term =      420.6741599341 Hartrees.
 One-electron integrals computed using PRISM.
 NBasis=   360 RedAO= T EigKep=  1.42D-05  NBF=   360
 NBsUse=   360 1.00D-06 EigRej= -1.00D+00 NBFU=   360
 Initial guess from the checkpoint file:  "diaminopropyl_ylide.chk"
 B after Tr=     0.000000    0.000000    0.000000
         Rot=    0.999960    0.008987    0.000378    0.000047 Ang=   1.03 deg.
 ExpMin= 4.38D-02 ExpMax= 6.29D+03 ExpMxC= 9.49D+02 IAcc=2 IRadAn=         4 AccDes= 0.00D+00
 Harris functional with IExCor= 4639 and IRadAn=       4 diagonalized for initial guess.
 HarFok:  IExCor= 4639 AccDes= 0.00D+00 IRadAn=         4 IDoV= 1 UseB2=F ITyADJ=14
 ICtDFT=  3500011 ScaDFX=  1.000000  1.000000  1.000000  1.000000
 FoFCou: FMM=F IPFlag=           0 FMFlag=      100000 FMFlg1=           0
         NFxFlg=           0 DoJE=T BraDBF=F KetDBF=T FulRan=T
         wScrn=  0.000000 ICntrl=       500 IOpCl=  0 I1Cent=   200000004 NGrid=           0
         NMat0=    1 NMatS0=      1 NMatT0=    0 NMatD0=    1 NMtDS0=    0 NMtDT0=    0
 Petite list used in FoFCou.
 Requested convergence on RMS density matrix=1.00D-08 within  32 cycles.
 Requested convergence on MAX density matrix=1.00D-06.
 Requested convergence on             energy=1.00D-06.
 No special actions if energy rises.
 SCF Done:  E(RwB97XD) =  -347.663714095     A.U. after   11 cycles
            NFock= 11  Conv=0.53D-08     -V/T= 2.0045
 QCSCF skips out because SCF is already converged.
 Calling FoFJK, ICntrl=      2127 FMM=F ISym2X=0 I1Cent= 0 IOpClX= 0 NMat=1 NMatS=1 NMatT=0.
 ***** Axes restored to original set *****
 -------------------------------------------------------------------
 Center     Atomic                   Forces (Hartrees/Bohr)
 Number     Number              X              Y              Z
 -------------------------------------------------------------------
      1        6          -0.001306373   -0.000810528   -0.000544597
      2        1           0.000010631    0.000007121    0.000073331
      3        1           0.000052573   -0.000085375   -0.000023426
      4        6           0.000799630    0.000733676    0.000137540
      5        1           0.000068342    0.000014864   -0.000098402
      6        1          -0.000045459   -0.000192442   -0.000053118
      7        6          -0.000707897    0.000374708   -0.000136130
      8        1          -0.000022732   -0.000040724    0.000091788
      9        1           0.000300792   -0.000432354   -0.000058103
     10        7           0.000208526    0.000635864   -0.000047691
     11        6          -0.000109409    0.000092439    0.000065994
     12        1           0.000024684   -0.000014723   -0.000054840
     13        1          -0.000009974   -0.000003554    0.000003481
     14        1          -0.000063223   -0.000079433   -0.000104974
     15        6          -0.000065274    0.000018505   -0.000131700
     16        1          -0.000001306   -0.000043078   -0.000013296
     17        1           0.000097213    0.000025354    0.000078072
     18        1           0.000044848   -0.000046474    0.000126914
     19        6           0.000910927    0.000027141   -0.000084728
     20        1          -0.000465650   -0.000249884    0.000174489
     21        1          -0.000351335   -0.000270425   -0.000114252
     22        7           0.000782944    0.000463365    0.000803265
     23        1          -0.000055157   -0.000145090    0.000009883
     24        1          -0.000097320    0.000021045   -0.000099501
 -------------------------------------------------------------------
 Cartesian Forces:  Max     0.001306373 RMS     0.000339843

 GradGradGradGradGradGradGradGradGradGradGradGradGradGradGradGradGradGrad
 Berny optimization.
 Using GEDIIS/GDIIS optimizer.
 FormGI is forming the generalized inverse of G from B-inverse, IUseBI=4.
 Internal  Forces:  Max     0.000995024 RMS     0.000166036
 Search for a local minimum.
 Step number   7 out of a maximum of  132
 All quantities printed in internal units (Hartrees-Bohrs-Radians)
 Mixed Optimization -- En-DIIS/RFO-DIIS
 Swapping is turned off.
 Update second derivatives using D2CorX and points    3    4    5    6    7
 DE= -4.99D-05 DEPred=-4.11D-05 R= 1.22D+00
 TightC=F SS=  1.41D+00  RLast= 1.26D-01 DXNew= 1.1618D+00 3.7797D-01
 Trust test= 1.22D+00 RLast= 1.26D-01 DXMaxT set to 6.91D-01
 ITU=  1  1  0  1  1  1  0
     Eigenvalues ---    0.00163   0.00303   0.00337   0.00427   0.00447
     Eigenvalues ---    0.00474   0.00885   0.03501   0.03992   0.04054
     Eigenvalues ---    0.04313   0.04593   0.04661   0.04885   0.05011
     Eigenvalues ---    0.05607   0.05705   0.05806   0.05845   0.06118
     Eigenvalues ---    0.06145   0.06910   0.08625   0.08733   0.09185
     Eigenvalues ---    0.12560   0.12603   0.12909   0.14465   0.15627
     Eigenvalues ---    0.15799   0.15980   0.16000   0.16000   0.16000
     Eigenvalues ---    0.16016   0.16032   0.16192   0.16658   0.16768
     Eigenvalues ---    0.21625   0.22575   0.27617   0.29787   0.30766
     Eigenvalues ---    0.31103   0.32976   0.33032   0.34373   0.34602
     Eigenvalues ---    0.34818   0.34843   0.34897   0.35019   0.35052
     Eigenvalues ---    0.35091   0.35126   0.35134   0.35165   0.35197
     Eigenvalues ---    0.35326   0.35431   0.36333   0.39788   0.47608
     Eigenvalues ---    0.47690
 En-DIIS/RFO-DIIS/Sim-DIIS IScMMF=       -3 using points:     7    6    5    4
 RFO step:  Lambda=-3.03360440D-05.
 DidBck=F Rises=F RFO-DIIS coefs:    0.92564    0.41591   -0.13927   -0.20228
 Iteration  1 RMS(Cart)=  0.00719023 RMS(Int)=  0.00007560
 Iteration  2 RMS(Cart)=  0.00007788 RMS(Int)=  0.00000163
 Iteration  3 RMS(Cart)=  0.00000001 RMS(Int)=  0.00000163
 Variable       Old X    -DE/DX   Delta X   Delta X   Delta X     New X
                                 (Linear)    (Quad)   (Total)
    R1        2.05800  -0.00001   0.00024  -0.00020   0.00004   2.05804
    R2        2.07785   0.00006   0.00010   0.00009   0.00018   2.07803
    R3        2.88480  -0.00079   0.00053  -0.00318  -0.00265   2.88215
    R4        2.75116   0.00100  -0.00161   0.00431   0.00269   2.75386
    R5        2.05892  -0.00011   0.00006  -0.00025  -0.00019   2.05872
    R6        2.06517   0.00009  -0.00003   0.00018   0.00015   2.06532
    R7        2.88116   0.00027  -0.00074   0.00125   0.00052   2.88168
    R8        2.05957  -0.00010   0.00002  -0.00040  -0.00038   2.05919
    R9        2.06290   0.00043  -0.00067   0.00183   0.00116   2.06406
   R10        2.86135  -0.00020   0.00052  -0.00134  -0.00082   2.86053
   R11        2.79924  -0.00004  -0.00022   0.00006  -0.00016   2.79908
   R12        2.80103  -0.00007  -0.00041   0.00025  -0.00016   2.80087
   R13        2.88056  -0.00050   0.00127  -0.00202  -0.00075   2.87981
   R14        2.05034  -0.00004   0.00019  -0.00023  -0.00004   2.05030
   R15        2.06071   0.00000  -0.00011   0.00007  -0.00004   2.06067
   R16        2.05130  -0.00014   0.00009  -0.00050  -0.00041   2.05089
   R17        2.06213   0.00004  -0.00007   0.00006  -0.00001   2.06212
   R18        2.04988  -0.00007   0.00017  -0.00029  -0.00012   2.04976
   R19        2.05391  -0.00012   0.00015  -0.00052  -0.00037   2.05354
   R20        2.07712  -0.00040   0.00045  -0.00157  -0.00112   2.07600
   R21        2.07268  -0.00039   0.00049  -0.00169  -0.00120   2.07149
   R22        1.91100   0.00005   0.00014  -0.00014   0.00000   1.91100
   R23        1.90812   0.00002   0.00006  -0.00020  -0.00014   1.90798
    A1        1.86696   0.00003  -0.00001   0.00081   0.00080   1.86776
    A2        1.89746   0.00007  -0.00061   0.00146   0.00085   1.89831
    A3        1.89455  -0.00001  -0.00019  -0.00069  -0.00087   1.89368
    A4        1.89975  -0.00000   0.00008  -0.00033  -0.00025   1.89950
    A5        1.97988   0.00009   0.00060  -0.00041   0.00019   1.98008
    A6        1.92297  -0.00016   0.00007  -0.00071  -0.00064   1.92233
    A7        1.88923   0.00002  -0.00022   0.00081   0.00059   1.88983
    A8        1.89543   0.00022  -0.00065   0.00143   0.00077   1.89620
    A9        1.98887  -0.00030  -0.00016  -0.00159  -0.00175   1.98712
   A10        1.85181  -0.00002   0.00028   0.00053   0.00080   1.85262
   A11        1.94416   0.00013  -0.00017   0.00074   0.00057   1.94473
   A12        1.88890  -0.00004   0.00095  -0.00176  -0.00081   1.88809
   A13        1.92277   0.00003  -0.00032  -0.00015  -0.00047   1.92229
   A14        1.93268  -0.00016   0.00036  -0.00166  -0.00130   1.93138
   A15        2.01355  -0.00001   0.00040   0.00089   0.00129   2.01484
   A16        1.87827  -0.00004   0.00018  -0.00112  -0.00094   1.87733
   A17        1.83734  -0.00008  -0.00005  -0.00097  -0.00102   1.83632
   A18        1.87244   0.00026  -0.00060   0.00296   0.00236   1.87479
   A19        1.91387   0.00011   0.00105   0.00050   0.00156   1.91543
   A20        1.86682  -0.00001   0.00035  -0.00037  -0.00002   1.86681
   A21        2.04510  -0.00004  -0.00101  -0.00054  -0.00155   2.04355
   A22        1.88285  -0.00009  -0.00025  -0.00039  -0.00064   1.88221
   A23        1.88126  -0.00001   0.00044   0.00023   0.00067   1.88193
   A24        1.86786   0.00003  -0.00059   0.00054  -0.00006   1.86780
   A25        1.87390  -0.00006  -0.00013  -0.00073  -0.00086   1.87305
   A26        1.92144   0.00001  -0.00053  -0.00001  -0.00054   1.92090
   A27        1.90670   0.00001   0.00036  -0.00030   0.00006   1.90676
   A28        1.94526   0.00001  -0.00006   0.00024   0.00018   1.94544
   A29        1.89567   0.00004   0.00012   0.00088   0.00100   1.89667
   A30        1.91987  -0.00001   0.00025  -0.00009   0.00016   1.92003
   A31        1.92449   0.00006  -0.00056   0.00034  -0.00022   1.92427
   A32        1.88119  -0.00015   0.00036  -0.00145  -0.00109   1.88011
   A33        1.89081  -0.00007  -0.00021  -0.00026  -0.00048   1.89033
   A34        1.94625   0.00005   0.00004   0.00022   0.00026   1.94651
   A35        1.92148   0.00001   0.00031  -0.00002   0.00030   1.92178
   A36        1.89824   0.00010   0.00006   0.00114   0.00120   1.89944
   A37        1.82051  -0.00004  -0.00174   0.00184   0.00010   1.82061
   A38        1.83282  -0.00012  -0.00082   0.00090   0.00008   1.83290
   A39        1.86550   0.00027  -0.00266   0.00618   0.00350   1.86900
   A40        1.94057  -0.00013  -0.00058  -0.00119  -0.00177   1.93880
   A41        1.93883  -0.00018   0.00045  -0.00193  -0.00148   1.93736
   A42        1.86981   0.00015  -0.00043   0.00194   0.00151   1.87132
    D1       -1.06643   0.00006   0.00332  -0.01043  -0.00710  -1.07353
    D2       -3.06962  -0.00004   0.00345  -0.01221  -0.00876  -3.07838
    D3        1.10687   0.00004   0.00281  -0.00995  -0.00714   1.09973
    D4       -3.09422  -0.00001   0.00363  -0.01202  -0.00839  -3.10261
    D5        1.18577  -0.00011   0.00375  -0.01380  -0.01005   1.17572
    D6       -0.92092  -0.00002   0.00312  -0.01154  -0.00843  -0.92935
    D7        1.00771  -0.00001   0.00277  -0.01080  -0.00803   0.99968
    D8       -0.99548  -0.00011   0.00290  -0.01259  -0.00969  -1.00517
    D9       -3.10217  -0.00002   0.00226  -0.01033  -0.00807  -3.11024
   D10       -2.95171  -0.00005  -0.02452   0.00257  -0.02195  -2.97366
   D11       -0.87104  -0.00006  -0.02515   0.00296  -0.02218  -0.89323
   D12       -0.87911   0.00003  -0.02429   0.00288  -0.02142  -0.90052
   D13        1.20156   0.00002  -0.02492   0.00326  -0.02165   1.17991
   D14        1.25555  -0.00003  -0.02371   0.00163  -0.02208   1.23348
   D15       -2.94696  -0.00004  -0.02434   0.00202  -0.02231  -2.96928
   D16        0.35942   0.00008  -0.00063  -0.00115  -0.00178   0.35763
   D17        2.43518  -0.00005  -0.00038  -0.00368  -0.00406   2.43112
   D18       -1.71738   0.00016  -0.00060  -0.00039  -0.00099  -1.71836
   D19        2.50299  -0.00001  -0.00118  -0.00068  -0.00187   2.50113
   D20       -1.70443  -0.00014  -0.00093  -0.00321  -0.00414  -1.70857
   D21        0.42620   0.00007  -0.00115   0.00008  -0.00107   0.42513
   D22       -1.75092   0.00002  -0.00037  -0.00068  -0.00106  -1.75198
   D23        0.32484  -0.00011  -0.00012  -0.00321  -0.00333   0.32151
   D24        2.45547   0.00010  -0.00034   0.00008  -0.00026   2.45521
   D25       -1.21169  -0.00003  -0.00003  -0.00324  -0.00326  -1.21495
   D26        3.03419   0.00002  -0.00046  -0.00284  -0.00331   3.03088
   D27        0.93913   0.00001   0.00070  -0.00291  -0.00222   0.93691
   D28        2.94803  -0.00001   0.00017  -0.00289  -0.00272   2.94531
   D29        0.91072   0.00004  -0.00027  -0.00249  -0.00276   0.90796
   D30       -1.18434   0.00004   0.00089  -0.00256  -0.00167  -1.18601
   D31        0.95092  -0.00005   0.00025  -0.00247  -0.00222   0.94870
   D32       -1.08639   0.00000  -0.00019  -0.00207  -0.00226  -1.08865
   D33        3.10173  -0.00000   0.00097  -0.00214  -0.00117   3.10056
   D34       -3.09857   0.00002  -0.00144   0.00042  -0.00102  -3.09959
   D35       -0.97803  -0.00000  -0.00191   0.00025  -0.00166  -0.97969
   D36        1.13197  -0.00000  -0.00171  -0.00006  -0.00176   1.13020
   D37       -1.07137   0.00002  -0.00061   0.00004  -0.00057  -1.07194
   D38        1.04917  -0.00000  -0.00107  -0.00013  -0.00120   1.04796
   D39       -3.12402  -0.00000  -0.00087  -0.00044  -0.00131  -3.12533
   D40        0.94005  -0.00000  -0.00120   0.00059  -0.00062   0.93943
   D41        3.06059  -0.00002  -0.00167   0.00042  -0.00125   3.05934
   D42       -1.11259  -0.00002  -0.00147   0.00011  -0.00136  -1.11395
   D43        0.95691   0.00004  -0.00121   0.00374   0.00253   0.95944
   D44        3.08507   0.00004  -0.00128   0.00330   0.00202   3.08709
   D45       -1.14693   0.00004  -0.00112   0.00371   0.00259  -1.14433
   D46       -1.10081  -0.00003  -0.00250   0.00354   0.00104  -1.09977
   D47        1.02734  -0.00004  -0.00256   0.00310   0.00054   1.02788
   D48        3.07853  -0.00004  -0.00240   0.00352   0.00111   3.07965
   D49       -3.12104   0.00001  -0.00258   0.00320   0.00061  -3.12043
   D50       -0.99289   0.00000  -0.00265   0.00275   0.00010  -0.99278
   D51        1.05831   0.00000  -0.00249   0.00317   0.00068   1.05899
   D52        0.87082   0.00014  -0.00191   0.01785   0.01595   0.88677
   D53       -1.08841  -0.00010   0.00205   0.00996   0.01201  -1.07641
   D54        3.03821   0.00024  -0.00087   0.01833   0.01746   3.05567
   D55        1.07897   0.00001   0.00309   0.01043   0.01352   1.09249
   D56       -1.22369   0.00015  -0.00124   0.01826   0.01702  -1.20667
   D57        3.10026  -0.00009   0.00271   0.01037   0.01308   3.11334
         Item               Value     Threshold  Converged?
 Maximum Force            0.000995     0.000450     NO 
 RMS     Force            0.000166     0.000300     YES
 Maximum Displacement     0.040843     0.001800     NO 
 RMS     Displacement     0.007194     0.001200     NO 
 Predicted change in Energy=-1.419605D-05
 GradGradGradGradGradGradGradGradGradGradGradGradGradGradGradGradGradGrad

                          Input orientation:                          
 ---------------------------------------------------------------------
 Center     Atomic      Atomic             Coordinates (Angstroms)
 Number     Number       Type             X           Y           Z
 ---------------------------------------------------------------------
      1          6           0        1.286273    0.493398   -0.385779
      2          1           0        0.551982    1.280344   -0.551921
      3          1           0        1.626645    0.156685   -1.375726
      4          6           0        0.604381   -0.672193    0.323137
      5          1           0        0.235826   -0.318453    1.285369
      6          1           0        1.356248   -1.433222    0.546766
      7          6           0       -0.506002   -1.325646   -0.492599
      8          1           0       -0.381190   -1.093395   -1.549894
      9          1           0       -0.472791   -2.412342   -0.387696
     10          7           0       -1.911890   -0.880237   -0.151331
     11          6           0       -2.287597   -1.391051    1.187283
     12          1           0       -3.312365   -1.086932    1.373082
     13          1           0       -2.181715   -2.475954    1.216868
     14          1           0       -1.648548   -0.934984    1.936589
     15          6           0       -2.816515   -1.504231   -1.145856
     16          1           0       -2.675726   -2.586270   -1.157961
     17          1           0       -3.833785   -1.238179   -0.879545
     18          1           0       -2.589242   -1.086929   -2.123146
     19          6           0       -2.189837    0.617962   -0.173854
     20          1           0       -1.809827    0.950046   -1.149646
     21          1           0       -1.527882    1.041176    0.590555
     22          7           0        2.357541    1.028420    0.444759
     23          1           0        3.135375    0.384132    0.494852
     24          1           0        2.711051    1.894835    0.065592
 ---------------------------------------------------------------------
                    Distance matrix (angstroms):
                    1          2          3          4          5
     1  C    0.000000
     2  H    1.089069   0.000000
     3  H    1.099647   1.759593   0.000000
     4  C    1.525169   2.140297   2.148999   0.000000
     5  H    2.134310   2.455960   3.039994   1.089429   0.000000
     6  H    2.141588   3.036016   2.509361   1.092922   1.744588
     7  C    2.555892   2.813190   2.743247   1.524919   2.173918
     8  H    2.579440   2.738868   2.371589   2.158010   3.003325
     9  H    3.396709   3.835761   3.461753   2.166495   2.772302
    10  N    3.488566   3.301401   3.885304   2.569052   2.644314
    11  C    4.335692   4.269004   4.928062   3.102748   2.743675
    12  H    5.170930   4.923699   5.787603   4.076187   3.631517
    13  H    4.838644   4.971065   5.306217   3.437243   3.240989
    14  H    4.005852   3.992830   4.784356   2.783519   2.086879
    15  C    4.626133   4.410600   4.749016   3.814808   4.078445
    16  H    5.077209   5.073075   5.107016   4.076327   4.426058
    17  H    5.427445   5.068062   5.657574   4.632937   4.700477
    18  H    4.531611   4.235566   4.458578   4.044198   4.493277
    19  C    3.484792   2.845920   4.027755   3.117556   2.981618
    20  H    3.221468   2.458560   3.534102   3.260238   3.423899
    21  H    3.028656   2.385013   3.820946   2.748398   2.332814
    22  N    1.457277   2.077710   2.146695   2.445495   2.649975
    23  H    2.051006   2.927942   2.413930   2.747951   3.086409
    24  H    2.048842   2.328196   2.504895   3.330768   3.537405
                    6          7          8          9         10
     6  H    0.000000
     7  C    2.135375   0.000000
     8  H    2.744113   1.089675   0.000000
     9  H    2.275363   1.092252   1.760317   0.000000
    10  N    3.387309   1.513729   2.084337   2.115236   0.000000
    11  C    3.699952   2.449564   3.348900   2.610961   1.481208
    12  H    4.753805   3.378376   4.139519   3.594473   2.080357
    13  H    3.748801   2.655843   3.578873   2.345015   2.119219
    14  H    3.347932   2.712745   3.713065   2.994544   2.105174
    15  C    4.503550   2.407718   2.502567   2.625360   1.482159
    16  H    4.526856   2.596070   2.765354   2.340188   2.123039
    17  H    5.385986   3.351346   3.520049   3.594003   2.086168
    18  H    4.776530   2.656230   2.281262   3.041031   2.095132
    19  C    4.159491   2.591238   2.844896   3.489515   1.523929
    20  H    4.310662   2.703784   2.525243   3.697822   2.087339
    21  H    3.800363   2.796303   3.233082   3.741253   2.095158
    22  N    2.659450   3.823630   3.997673   4.532395   4.714482
    23  H    2.543769   4.142225   4.327851   4.649518   5.243192
    24  H    3.625325   4.586121   4.593611   5.375322   5.396264
                   11         12         13         14         15
    11  C    0.000000
    12  H    1.084970   0.000000
    13  H    1.090459   1.797820   0.000000
    14  H    1.085283   1.763212   1.782372   0.000000
    15  C    2.395017   2.600972   2.632429   3.345094   0.000000
    16  H    2.660707   3.009900   2.428174   3.654870   1.091227
    17  H    2.585701   2.317128   2.942171   3.577401   1.084686
    18  H    3.338026   3.570226   3.640214   4.170064   1.086687
    19  C    2.428659   2.561199   3.392122   2.675557   2.416860
    20  H    3.342191   3.573661   4.180451   3.619972   2.652717
    21  H    2.617056   2.885407   3.631800   2.394071   3.339880
    22  N    5.289848   6.122445   5.786332   4.704175   5.976222
    23  H    5.747987   6.671481   6.080529   5.167648   6.456224
    24  H    6.086191   6.847044   6.660960   5.524003   6.601154
                   16         17         18         19         20
    16  H    0.000000
    17  H    1.798879   0.000000
    18  H    1.785241   1.765873   0.000000
    19  C    3.386983   2.577949   2.620289   0.000000
    20  H    3.640794   2.992940   2.388400   1.098571   0.000000
    21  H    4.187269   3.560035   3.608253   1.096183   1.765248
    22  N    6.400662   6.724863   5.961502   4.607582   4.462648
    23  H    6.732307   7.286292   6.464454   5.372125   5.242104
    24  H    7.112998   7.317373   6.463327   5.070152   4.775748
                   21         22         23         24
    21  H    0.000000
    22  N    3.888178   0.000000
    23  H    4.710289   1.011257   0.000000
    24  H    4.355786   1.009659   1.626819   0.000000
 Stoichiometry    C6H16N2
 Framework group  C1[X(C6H16N2)]
 Deg. of freedom    66
 Full point group                 C1      NOp   1
 Largest Abelian subgroup         C1      NOp   1
 Largest concise Abelian subgroup C1      NOp   1
                         Standard orientation:                         
 ---------------------------------------------------------------------
 Center     Atomic      Atomic             Coordinates (Angstroms)
 Number     Number       Type             X           Y           Z
 ---------------------------------------------------------------------
      1          6           0       -2.129519   -0.438770   -0.247414
      2          1           0       -1.741256   -1.258059    0.355983
      3          1           0       -2.243606   -0.820074   -1.272507
      4          6           0       -1.107203    0.693028   -0.254025
      5          1           0       -0.971653    1.037028    0.770741
      6          1           0       -1.525680    1.538638   -0.805656
      7          6           0        0.223983    0.317867   -0.896346
      8          1           0        0.096235   -0.547174   -1.546559
      9          1           0        0.600571    1.138961   -1.510350
     10          7           0        1.325051   -0.068986    0.067692
     11          6           0        1.770117    1.124301    0.823972
     12          1           0        2.585059    0.812542    1.468826
     13          1           0        2.084461    1.908371    0.134391
     14          1           0        0.953375    1.480292    1.443683
     15          6           0        2.468219   -0.541625   -0.748748
     16          1           0        2.752295    0.219464   -1.477323
     17          1           0        3.284999   -0.769743   -0.072452
     18          1           0        2.169685   -1.453774   -1.258405
     19          6           0        1.011033   -1.169042    1.074483
     20          1           0        0.604163   -1.987242    0.464676
     21          1           0        0.184635   -0.774935    1.677279
     22          7           0       -3.380524    0.018473    0.343833
     23          1           0       -3.855024    0.669773   -0.267149
     24          1           0       -4.009726   -0.755027    0.502624
 ---------------------------------------------------------------------
 Rotational constants (GHZ):           3.9642117           0.9787453           0.9660878
 Standard basis: 6-311+G(2d,2p) (5D, 7F)
 There are   376 symmetry adapted cartesian basis functions of A   symmetry.
 There are   360 symmetry adapted basis functions of A   symmetry.
   360 basis functions,   512 primitive gaussians,   376 cartesian basis functions
    33 alpha electrons       33 beta electrons
       nuclear repulsion energy       420.7467417070 Hartrees.
 NAtoms=   24 NActive=   24 NUniq=   24 SFac= 1.00D+00 NAtFMM=   60 NAOKFM=F Big=F
 Integral buffers will be    131072 words long.
 Raffenetti 2 integral format.
 Two-electron integral symmetry is turned on.
 Nuclear repulsion after empirical dispersion term =      420.7290340930 Hartrees.
 One-electron integrals computed using PRISM.
 NBasis=   360 RedAO= T EigKep=  1.41D-05  NBF=   360
 NBsUse=   360 1.00D-06 EigRej= -1.00D+00 NBFU=   360
 Initial guess from the checkpoint file:  "diaminopropyl_ylide.chk"
 B after Tr=    -0.000000   -0.000000   -0.000000
         Rot=    0.999993    0.003671   -0.000073    0.000250 Ang=   0.42 deg.
 ExpMin= 4.38D-02 ExpMax= 6.29D+03 ExpMxC= 9.49D+02 IAcc=2 IRadAn=         4 AccDes= 0.00D+00
 Harris functional with IExCor= 4639 and IRadAn=       4 diagonalized for initial guess.
 HarFok:  IExCor= 4639 AccDes= 0.00D+00 IRadAn=         4 IDoV= 1 UseB2=F ITyADJ=14
 ICtDFT=  3500011 ScaDFX=  1.000000  1.000000  1.000000  1.000000
 FoFCou: FMM=F IPFlag=           0 FMFlag=      100000 FMFlg1=           0
         NFxFlg=           0 DoJE=T BraDBF=F KetDBF=T FulRan=T
         wScrn=  0.000000 ICntrl=       500 IOpCl=  0 I1Cent=   200000004 NGrid=           0
         NMat0=    1 NMatS0=      1 NMatT0=    0 NMatD0=    1 NMtDS0=    0 NMtDT0=    0
 Petite list used in FoFCou.
 Requested convergence on RMS density matrix=1.00D-08 within  32 cycles.
 Requested convergence on MAX density matrix=1.00D-06.
 Requested convergence on             energy=1.00D-06.
 No special actions if energy rises.
 SCF Done:  E(RwB97XD) =  -347.663723599     A.U. after   11 cycles
            NFock= 11  Conv=0.56D-08     -V/T= 2.0045
 QCSCF skips out because SCF is already converged.
 Calling FoFJK, ICntrl=      2127 FMM=F ISym2X=0 I1Cent= 0 IOpClX= 0 NMat=1 NMatS=1 NMatT=0.
 ***** Axes restored to original set *****
 -------------------------------------------------------------------
 Center     Atomic                   Forces (Hartrees/Bohr)
 Number     Number              X              Y              Z
 -------------------------------------------------------------------
      1        6          -0.000397438   -0.000146048   -0.000238220
      2        1           0.000005246   -0.000015293    0.000041960
      3        1           0.000084129   -0.000028151    0.000026607
      4        6           0.000360950    0.000347546    0.000162534
      5        1          -0.000050470   -0.000005218    0.000009479
      6        1          -0.000053497   -0.000129163    0.000021373
      7        6          -0.000435310   -0.000241425   -0.000123091
      8        1           0.000077737   -0.000003474   -0.000017439
      9        1           0.000035274   -0.000092691   -0.000026391
     10        7           0.000230627    0.000645615   -0.000216168
     11        6          -0.000024841    0.000027888   -0.000074803
     12        1           0.000067787   -0.000004588    0.000053275
     13        1           0.000033622   -0.000051701    0.000064321
     14        1           0.000036216    0.000049133    0.000023858
     15        6          -0.000005247   -0.000012810    0.000076774
     16        1          -0.000024528   -0.000006511   -0.000031183
     17        1          -0.000002200    0.000008273   -0.000032776
     18        1          -0.000035480   -0.000042569   -0.000019269
     19        6           0.000295591   -0.000282860    0.000032456
     20        1          -0.000123505   -0.000046617    0.000063446
     21        1          -0.000231686   -0.000037109    0.000017194
     22        7          -0.000036098    0.000003065    0.000330879
     23        1           0.000120634   -0.000021697   -0.000081975
     24        1           0.000072488    0.000086404   -0.000062841
 -------------------------------------------------------------------
 Cartesian Forces:  Max     0.000645615 RMS     0.000157090

 GradGradGradGradGradGradGradGradGradGradGradGradGradGradGradGradGradGrad
 Berny optimization.
 Using GEDIIS/GDIIS optimizer.
 FormGI is forming the generalized inverse of G from B-inverse, IUseBI=4.
 Internal  Forces:  Max     0.000351674 RMS     0.000084133
 Search for a local minimum.
 Step number   8 out of a maximum of  132
 All quantities printed in internal units (Hartrees-Bohrs-Radians)
 Mixed Optimization -- En-DIIS/RFO-DIIS
 Swapping is turned off.
 Update second derivatives using D2CorX and points    3    4    5    6    7
                                                      8
 DE= -9.50D-06 DEPred=-1.42D-05 R= 6.70D-01
 TightC=F SS=  1.41D+00  RLast= 7.14D-02 DXNew= 1.1618D+00 2.1410D-01
 Trust test= 6.70D-01 RLast= 7.14D-02 DXMaxT set to 6.91D-01
 ITU=  1  1  1  0  1  1  1  0
     Eigenvalues ---    0.00144   0.00322   0.00388   0.00433   0.00449
     Eigenvalues ---    0.00478   0.00895   0.03528   0.03970   0.04082
     Eigenvalues ---    0.04235   0.04510   0.04691   0.04881   0.05062
     Eigenvalues ---    0.05599   0.05706   0.05812   0.05872   0.06137
     Eigenvalues ---    0.06165   0.07011   0.08482   0.08757   0.09171
     Eigenvalues ---    0.12492   0.12583   0.13015   0.15052   0.15587
     Eigenvalues ---    0.15752   0.15981   0.16000   0.16000   0.16006
     Eigenvalues ---    0.16028   0.16065   0.16178   0.16531   0.17592
     Eigenvalues ---    0.21658   0.22954   0.27967   0.28864   0.30244
     Eigenvalues ---    0.31144   0.32862   0.33016   0.34003   0.34645
     Eigenvalues ---    0.34831   0.34844   0.34888   0.35022   0.35051
     Eigenvalues ---    0.35101   0.35111   0.35125   0.35165   0.35210
     Eigenvalues ---    0.35270   0.35484   0.35821   0.41347   0.47580
     Eigenvalues ---    0.47699
 En-DIIS/RFO-DIIS/Sim-DIIS IScMMF=       -3 using points:     8    7    6    5    4
 RFO step:  Lambda=-8.49542395D-06.
 DidBck=T Rises=F RFO-DIIS coefs:    0.73017    0.54853   -0.55393    0.14803    0.12720
 Iteration  1 RMS(Cart)=  0.00460564 RMS(Int)=  0.00002296
 Iteration  2 RMS(Cart)=  0.00002486 RMS(Int)=  0.00000104
 Iteration  3 RMS(Cart)=  0.00000000 RMS(Int)=  0.00000104
 Variable       Old X    -DE/DX   Delta X   Delta X   Delta X     New X
                                 (Linear)    (Quad)   (Total)
    R1        2.05804  -0.00002  -0.00014   0.00004  -0.00010   2.05794
    R2        2.07803   0.00001  -0.00008  -0.00004  -0.00012   2.07791
    R3        2.88215  -0.00017  -0.00023  -0.00043  -0.00067   2.88149
    R4        2.75386   0.00025   0.00108   0.00002   0.00110   2.75496
    R5        2.05872   0.00002   0.00009  -0.00019  -0.00011   2.05861
    R6        2.06532   0.00006  -0.00003   0.00015   0.00012   2.06544
    R7        2.88168   0.00023   0.00019   0.00082   0.00101   2.88269
    R8        2.05919   0.00003  -0.00004   0.00010   0.00006   2.05925
    R9        2.06406   0.00009   0.00045  -0.00014   0.00031   2.06436
   R10        2.86053  -0.00014  -0.00063   0.00045  -0.00017   2.86036
   R11        2.79908   0.00002   0.00008   0.00021   0.00028   2.79936
   R12        2.80087   0.00007   0.00043  -0.00027   0.00015   2.80103
   R13        2.87981  -0.00035  -0.00050  -0.00118  -0.00168   2.87813
   R14        2.05030  -0.00006  -0.00013   0.00001  -0.00012   2.05017
   R15        2.06067   0.00006   0.00007   0.00004   0.00011   2.06078
   R16        2.05089   0.00006   0.00002  -0.00003  -0.00001   2.05087
   R17        2.06212   0.00000   0.00001  -0.00001   0.00000   2.06212
   R18        2.04976  -0.00000  -0.00012   0.00011  -0.00001   2.04975
   R19        2.05354  -0.00001  -0.00012   0.00010  -0.00002   2.05352
   R20        2.07600  -0.00011  -0.00024  -0.00031  -0.00056   2.07544
   R21        2.07149  -0.00014  -0.00031  -0.00028  -0.00059   2.07090
   R22        1.91100   0.00010  -0.00016   0.00021   0.00005   1.91105
   R23        1.90798   0.00012  -0.00013   0.00027   0.00014   1.90812
    A1        1.86776   0.00003  -0.00013   0.00067   0.00054   1.86830
    A2        1.89831  -0.00002   0.00066  -0.00066  -0.00001   1.89830
    A3        1.89368   0.00002   0.00004  -0.00003   0.00001   1.89368
    A4        1.89950   0.00006  -0.00014   0.00062   0.00048   1.89998
    A5        1.98008  -0.00002  -0.00049  -0.00041  -0.00090   1.97917
    A6        1.92233  -0.00006   0.00011  -0.00018  -0.00007   1.92226
    A7        1.88983   0.00000   0.00055  -0.00088  -0.00033   1.88950
    A8        1.89620   0.00011   0.00022   0.00100   0.00122   1.89743
    A9        1.98712  -0.00002   0.00011  -0.00037  -0.00027   1.98685
   A10        1.85262   0.00000  -0.00017   0.00020   0.00003   1.85265
   A11        1.94473  -0.00003  -0.00001  -0.00028  -0.00029   1.94444
   A12        1.88809  -0.00007  -0.00072   0.00042  -0.00030   1.88779
   A13        1.92229   0.00007   0.00079  -0.00117  -0.00038   1.92191
   A14        1.93138   0.00004  -0.00050   0.00041  -0.00009   1.93129
   A15        2.01484  -0.00029  -0.00060   0.00015  -0.00044   2.01439
   A16        1.87733  -0.00005   0.00005  -0.00033  -0.00028   1.87705
   A17        1.83632   0.00013   0.00017   0.00038   0.00055   1.83687
   A18        1.87479   0.00012   0.00014   0.00054   0.00069   1.87548
   A19        1.91543  -0.00016  -0.00133   0.00087  -0.00046   1.91497
   A20        1.86681  -0.00001   0.00001   0.00004   0.00005   1.86686
   A21        2.04355   0.00020   0.00011   0.00121   0.00132   2.04487
   A22        1.88221   0.00011   0.00075  -0.00115  -0.00039   1.88181
   A23        1.88193  -0.00007  -0.00020  -0.00045  -0.00065   1.88128
   A24        1.86780  -0.00007   0.00080  -0.00076   0.00004   1.86784
   A25        1.87305   0.00008  -0.00000   0.00040   0.00040   1.87345
   A26        1.92090   0.00008   0.00025   0.00015   0.00040   1.92130
   A27        1.90676  -0.00008  -0.00057   0.00040  -0.00017   1.90659
   A28        1.94544  -0.00003   0.00021  -0.00014   0.00007   1.94550
   A29        1.89667  -0.00003   0.00022  -0.00065  -0.00042   1.89625
   A30        1.92003  -0.00002  -0.00013  -0.00014  -0.00027   1.91976
   A31        1.92427   0.00004   0.00024  -0.00001   0.00023   1.92450
   A32        1.88011   0.00001  -0.00029   0.00022  -0.00007   1.88004
   A33        1.89033   0.00007   0.00022  -0.00002   0.00020   1.89053
   A34        1.94651  -0.00002  -0.00008   0.00013   0.00005   1.94656
   A35        1.92178  -0.00006  -0.00019  -0.00008  -0.00028   1.92150
   A36        1.89944  -0.00004   0.00011  -0.00023  -0.00012   1.89931
   A37        1.82061   0.00004   0.00120  -0.00033   0.00087   1.82148
   A38        1.83290   0.00012   0.00063   0.00047   0.00110   1.83400
   A39        1.86900   0.00007   0.00159   0.00078   0.00237   1.87137
   A40        1.93880  -0.00002   0.00028  -0.00048  -0.00020   1.93860
   A41        1.93736  -0.00001  -0.00035  -0.00013  -0.00048   1.93688
   A42        1.87132  -0.00004   0.00062  -0.00115  -0.00053   1.87078
    D1       -1.07353   0.00005  -0.00253   0.00030  -0.00222  -1.07576
    D2       -3.07838  -0.00001  -0.00273   0.00001  -0.00272  -3.08111
    D3        1.09973   0.00001  -0.00204  -0.00100  -0.00304   1.09669
    D4       -3.10261  -0.00000  -0.00266  -0.00046  -0.00312  -3.10573
    D5        1.17572  -0.00006  -0.00286  -0.00076  -0.00362   1.17211
    D6       -0.92935  -0.00004  -0.00217  -0.00176  -0.00393  -0.93328
    D7        0.99968   0.00003  -0.00202  -0.00024  -0.00226   0.99742
    D8       -1.00517  -0.00003  -0.00222  -0.00054  -0.00276  -1.00793
    D9       -3.11024  -0.00002  -0.00153  -0.00154  -0.00308  -3.11332
   D10       -2.97366   0.00003   0.01326   0.00033   0.01359  -2.96007
   D11       -0.89323  -0.00004   0.01398  -0.00151   0.01247  -0.88075
   D12       -0.90052   0.00006   0.01282   0.00089   0.01371  -0.88682
   D13        1.17991  -0.00000   0.01355  -0.00096   0.01259   1.19250
   D14        1.23348   0.00007   0.01237   0.00126   0.01364   1.24711
   D15       -2.96928   0.00001   0.01310  -0.00058   0.01252  -2.95676
   D16        0.35763   0.00005  -0.00021   0.00257   0.00236   0.36000
   D17        2.43112   0.00005   0.00003   0.00168   0.00172   2.43284
   D18       -1.71836   0.00002  -0.00061   0.00285   0.00224  -1.71612
   D19        2.50113   0.00002   0.00060   0.00090   0.00150   2.50263
   D20       -1.70857   0.00002   0.00084   0.00001   0.00086  -1.70772
   D21        0.42513  -0.00000   0.00019   0.00118   0.00138   0.42651
   D22       -1.75198  -0.00003  -0.00005   0.00124   0.00119  -1.75078
   D23        0.32151  -0.00003   0.00020   0.00035   0.00055   0.32206
   D24        2.45521  -0.00006  -0.00045   0.00152   0.00107   2.45628
   D25       -1.21495   0.00010   0.00406  -0.00065   0.00341  -1.21154
   D26        3.03088   0.00006   0.00385   0.00023   0.00408   3.03497
   D27        0.93691   0.00002   0.00273   0.00041   0.00314   0.94005
   D28        2.94531   0.00010   0.00330   0.00046   0.00376   2.94908
   D29        0.90796   0.00005   0.00309   0.00135   0.00444   0.91240
   D30       -1.18601   0.00001   0.00198   0.00152   0.00350  -1.18251
   D31        0.94870   0.00004   0.00311   0.00042   0.00352   0.95223
   D32       -1.08865  -0.00000   0.00290   0.00130   0.00420  -1.08445
   D33        3.10056  -0.00004   0.00178   0.00147   0.00326   3.10382
   D34       -3.09959   0.00002  -0.00041   0.00298   0.00257  -3.09702
   D35       -0.97969   0.00007  -0.00001   0.00314   0.00313  -0.97656
   D36        1.13020   0.00005  -0.00037   0.00331   0.00294   1.13314
   D37       -1.07194  -0.00002  -0.00068   0.00285   0.00216  -1.06977
   D38        1.04796   0.00004  -0.00028   0.00301   0.00273   1.05069
   D39       -3.12533   0.00001  -0.00064   0.00318   0.00253  -3.12279
   D40        0.93943  -0.00007   0.00052   0.00116   0.00168   0.94111
   D41        3.05934  -0.00002   0.00092   0.00132   0.00224   3.06158
   D42       -1.11395  -0.00004   0.00056   0.00149   0.00205  -1.11191
   D43        0.95944  -0.00011   0.00101  -0.00040   0.00061   0.96005
   D44        3.08709  -0.00010   0.00088  -0.00011   0.00077   3.08785
   D45       -1.14433  -0.00011   0.00097  -0.00028   0.00069  -1.14365
   D46       -1.09977   0.00003   0.00217  -0.00085   0.00132  -1.09844
   D47        1.02788   0.00004   0.00204  -0.00056   0.00148   1.02936
   D48        3.07965   0.00003   0.00213  -0.00073   0.00140   3.08105
   D49       -3.12043   0.00009   0.00164   0.00062   0.00225  -3.11817
   D50       -0.99278   0.00010   0.00150   0.00091   0.00241  -0.99037
   D51        1.05899   0.00009   0.00159   0.00074   0.00233   1.06132
   D52        0.88677   0.00011  -0.00272  -0.00017  -0.00289   0.88388
   D53       -1.07641  -0.00003  -0.00521  -0.00108  -0.00628  -1.08269
   D54        3.05567  -0.00002  -0.00460   0.00152  -0.00308   3.05259
   D55        1.09249  -0.00016  -0.00708   0.00061  -0.00647   1.08602
   D56       -1.20667   0.00004  -0.00343  -0.00042  -0.00384  -1.21051
   D57        3.11334  -0.00010  -0.00591  -0.00132  -0.00723   3.10610
         Item               Value     Threshold  Converged?
 Maximum Force            0.000352     0.000450     YES
 RMS     Force            0.000084     0.000300     YES
 Maximum Displacement     0.022244     0.001800     NO 
 RMS     Displacement     0.004609     0.001200     NO 
 Predicted change in Energy=-3.851198D-06
 GradGradGradGradGradGradGradGradGradGradGradGradGradGradGradGradGradGrad

                          Input orientation:                          
 ---------------------------------------------------------------------
 Center     Atomic      Atomic             Coordinates (Angstroms)
 Number     Number       Type             X           Y           Z
 ---------------------------------------------------------------------
      1          6           0        1.286621    0.491229   -0.384341
      2          1           0        0.551660    1.277505   -0.550349
      3          1           0        1.629691    0.156541   -1.373973
      4          6           0        0.605311   -0.675879    0.321876
      5          1           0        0.237209   -0.324183    1.284966
      6          1           0        1.356375   -1.438370    0.543523
      7          6           0       -0.506362   -1.326783   -0.495140
      8          1           0       -0.380638   -1.093226   -1.552071
      9          1           0       -0.474436   -2.413848   -0.391991
     10          7           0       -1.911275   -0.879262   -0.153024
     11          6           0       -2.285354   -1.387567    1.187167
     12          1           0       -3.310355   -1.084702    1.373352
     13          1           0       -2.177471   -2.472243    1.219780
     14          1           0       -1.646608   -0.928475    1.934871
     15          6           0       -2.817974   -1.504865   -1.144766
     16          1           0       -2.678850   -2.587146   -1.154155
     17          1           0       -3.834525   -1.236503   -0.878043
     18          1           0       -2.591392   -1.090823   -2.123586
     19          6           0       -2.189289    0.617995   -0.177072
     20          1           0       -1.808108    0.950248   -1.152019
     21          1           0       -1.531850    1.042423    0.590112
     22          7           0        2.356530    1.026517    0.448798
     23          1           0        3.140175    0.388547    0.488621
     24          1           0        2.701329    1.899849    0.077363
 ---------------------------------------------------------------------
                    Distance matrix (angstroms):
                    1          2          3          4          5
     1  C    0.000000
     2  H    1.089016   0.000000
     3  H    1.099584   1.759848   0.000000
     4  C    1.524817   2.139945   2.148996   0.000000
     5  H    2.133717   2.456149   3.039746   1.089372   0.000000
     6  H    2.142230   3.036461   2.509031   1.092985   1.744615
     7  C    2.555823   2.811543   2.745054   1.525453   2.174139
     8  H    2.579504   2.737333   2.373828   2.158229   3.003655
     9  H    3.397183   3.834584   3.463891   2.167024   2.772242
    10  N    3.486874   3.297811   3.886134   2.569065   2.644223
    11  C    4.331110   4.262654   4.926590   3.100189   2.739284
    12  H    5.167711   4.918924   5.787274   4.074945   3.629245
    13  H    4.832732   4.964083   5.304012   3.431767   3.232505
    14  H    3.999767   3.984350   4.781197   2.781491   2.082381
    15  C    4.627130   4.410141   4.753370   3.815381   4.078204
    16  H    5.078776   5.073096   5.112696   4.076434   4.424219
    17  H    5.427240   5.066186   5.660757   4.633168   4.699995
    18  H    4.535068   4.238258   4.464905   4.046155   4.495215
    19  C    3.484391   2.843782   4.028662   3.119751   2.985490
    20  H    3.221393   2.457155   3.535208   3.262092   3.427301
    21  H    3.032680   2.386824   3.825932   2.755353   2.340941
    22  N    1.457861   2.078183   2.146543   2.445615   2.648601
    23  H    2.051407   2.927476   2.409283   2.754332   3.093438
    24  H    2.049093   2.324309   2.508766   3.329783   3.532210
                    6          7          8          9         10
     6  H    0.000000
     7  C    2.135664   0.000000
     8  H    2.743693   1.089706   0.000000
     9  H    2.275657   1.092414   1.760291   0.000000
    10  N    3.387523   1.513637   2.084697   2.115789   0.000000
    11  C    3.698519   2.449217   3.349329   2.612742   1.481358
    12  H    4.753111   3.378201   4.140219   3.595206   2.080735
    13  H    3.743565   2.654361   3.579588   2.345537   2.119679
    14  H    3.348693   2.713625   3.713299   2.999101   2.105178
    15  C    4.503324   2.407753   2.505184   2.623945   1.482239
    16  H    4.526017   2.596636   2.769821   2.338881   2.123277
    17  H    5.385818   3.351333   3.521956   3.593408   2.086184
    18  H    4.776937   2.656100   2.283434   3.038144   2.095336
    19  C    4.161686   2.591442   2.844314   3.489840   1.523039
    20  H    4.312112   2.703868   2.524579   3.697765   2.087041
    21  H    3.807669   2.800452   3.236547   3.745458   2.095015
    22  N    2.661757   3.824289   3.998609   4.534028   4.712572
    23  H    2.553935   4.148177   4.330843   4.657715   5.247494
    24  H    3.629038   4.585651   4.594788   5.377152   5.390051
                   11         12         13         14         15
    11  C    0.000000
    12  H    1.084905   0.000000
    13  H    1.090515   1.797854   0.000000
    14  H    1.085275   1.762886   1.782243   0.000000
    15  C    2.394860   2.599979   2.633845   3.344919   0.000000
    16  H    2.660004   3.007396   2.429023   3.654969   1.091227
    17  H    2.586087   2.316587   2.945121   3.576919   1.084682
    18  H    3.338084   3.570087   3.641119   4.170138   1.086674
    19  C    2.427479   2.561207   3.391298   2.673270   2.416238
    20  H    3.341397   3.574251   4.180347   3.617260   2.654705
    21  H    2.613253   2.881182   3.628523   2.388720   3.339549
    22  N    5.283945   6.117650   5.778659   4.696330   5.976857
    23  H    5.751427   6.675519   6.082440   5.171023   6.461617
    24  H    6.075013   6.835750   6.650037   5.509474   6.599119
                   16         17         18         19         20
    16  H    0.000000
    17  H    1.798906   0.000000
    18  H    1.785057   1.765780   0.000000
    19  C    3.386339   2.576300   2.621195   0.000000
    20  H    3.642987   2.993878   2.392373   1.098277   0.000000
    21  H    4.187105   3.556866   3.610751   1.095873   1.766305
    22  N    6.401802   6.723907   5.965083   4.606851   4.462358
    23  H    6.739029   7.290748   6.470164   5.375778   5.243350
    24  H    7.113092   7.312106   6.465384   5.062217   4.769501
                   21         22         23         24
    21  H    0.000000
    22  N    3.890979   0.000000
    23  H    4.718652   1.011282   0.000000
    24  H    4.349471   1.009732   1.626577   0.000000
 Stoichiometry    C6H16N2
 Framework group  C1[X(C6H16N2)]
 Deg. of freedom    66
 Full point group                 C1      NOp   1
 Largest Abelian subgroup         C1      NOp   1
 Largest concise Abelian subgroup C1      NOp   1
                         Standard orientation:                         
 ---------------------------------------------------------------------
 Center     Atomic      Atomic             Coordinates (Angstroms)
 Number     Number       Type             X           Y           Z
 ---------------------------------------------------------------------
      1          6           0       -2.128642   -0.436442   -0.251769
      2          1           0       -1.738890   -1.259956    0.344781
      3          1           0       -2.245318   -0.809842   -1.279409
      4          6           0       -1.107207    0.695698   -0.251675
      5          1           0       -0.972015    1.033365    0.775182
      6          1           0       -1.524912    1.544924   -0.798442
      7          6           0        0.224856    0.324298   -0.895628
      8          1           0        0.096800   -0.535847   -1.552295
      9          1           0        0.602272    1.149609   -1.503729
     10          7           0        1.324245   -0.070143    0.067106
     11          6           0        1.765326    1.116964    0.835643
     12          1           0        2.581043    0.801713    1.477703
     13          1           0        2.076953    1.909464    0.154427
     14          1           0        0.947283    1.463710    1.458857
     15          6           0        2.470454   -0.532273   -0.751231
     16          1           0        2.755429    0.236808   -1.471009
     17          1           0        3.285679   -0.766360   -0.075104
     18          1           0        2.174972   -1.439405   -1.271482
     19          6           0        1.011540   -1.179296    1.062919
     20          1           0        0.604464   -1.992043    0.446523
     21          1           0        0.188065   -0.791010    1.672887
     22          7           0       -3.379319    0.015911    0.345344
     23          1           0       -3.861295    0.661735   -0.265641
     24          1           0       -4.002973   -0.760933    0.510050
 ---------------------------------------------------------------------
 Rotational constants (GHZ):           3.9625077           0.9791433           0.9665785
 Standard basis: 6-311+G(2d,2p) (5D, 7F)
 There are   376 symmetry adapted cartesian basis functions of A   symmetry.
 There are   360 symmetry adapted basis functions of A   symmetry.
   360 basis functions,   512 primitive gaussians,   376 cartesian basis functions
    33 alpha electrons       33 beta electrons
       nuclear repulsion energy       420.7631067946 Hartrees.
 NAtoms=   24 NActive=   24 NUniq=   24 SFac= 1.00D+00 NAtFMM=   60 NAOKFM=F Big=F
 Integral buffers will be    131072 words long.
 Raffenetti 2 integral format.
 Two-electron integral symmetry is turned on.
 Nuclear repulsion after empirical dispersion term =      420.7454003792 Hartrees.
 One-electron integrals computed using PRISM.
 NBasis=   360 RedAO= T EigKep=  1.42D-05  NBF=   360
 NBsUse=   360 1.00D-06 EigRej= -1.00D+00 NBFU=   360
 Initial guess from the checkpoint file:  "diaminopropyl_ylide.chk"
 B after Tr=    -0.000000    0.000000    0.000000
         Rot=    0.999991   -0.004302    0.000169   -0.000286 Ang=  -0.49 deg.
 ExpMin= 4.38D-02 ExpMax= 6.29D+03 ExpMxC= 9.49D+02 IAcc=2 IRadAn=         4 AccDes= 0.00D+00
 Harris functional with IExCor= 4639 and IRadAn=       4 diagonalized for initial guess.
 HarFok:  IExCor= 4639 AccDes= 0.00D+00 IRadAn=         4 IDoV= 1 UseB2=F ITyADJ=14
 ICtDFT=  3500011 ScaDFX=  1.000000  1.000000  1.000000  1.000000
 FoFCou: FMM=F IPFlag=           0 FMFlag=      100000 FMFlg1=           0
         NFxFlg=           0 DoJE=T BraDBF=F KetDBF=T FulRan=T
         wScrn=  0.000000 ICntrl=       500 IOpCl=  0 I1Cent=   200000004 NGrid=           0
         NMat0=    1 NMatS0=      1 NMatT0=    0 NMatD0=    1 NMtDS0=    0 NMtDT0=    0
 Petite list used in FoFCou.
 Requested convergence on RMS density matrix=1.00D-08 within  32 cycles.
 Requested convergence on MAX density matrix=1.00D-06.
 Requested convergence on             energy=1.00D-06.
 No special actions if energy rises.
 SCF Done:  E(RwB97XD) =  -347.663728658     A.U. after   10 cycles
            NFock= 10  Conv=0.78D-08     -V/T= 2.0045
 QCSCF skips out because SCF is already converged.
 Calling FoFJK, ICntrl=      2127 FMM=F ISym2X=0 I1Cent= 0 IOpClX= 0 NMat=1 NMatS=1 NMatT=0.
 ***** Axes restored to original set *****
 -------------------------------------------------------------------
 Center     Atomic                   Forces (Hartrees/Bohr)
 Number     Number              X              Y              Z
 -------------------------------------------------------------------
      1        6          -0.000000976   -0.000007598   -0.000108694
      2        1           0.000000173   -0.000020814    0.000040838
      3        1           0.000002292    0.000010642   -0.000004464
      4        6           0.000040957    0.000075150    0.000061087
      5        1          -0.000027209    0.000003440    0.000023526
      6        1          -0.000040886   -0.000019668   -0.000000445
      7        6          -0.000092826   -0.000149784   -0.000036308
      8        1           0.000005742    0.000010159   -0.000017331
      9        1          -0.000022912    0.000031565    0.000013434
     10        7           0.000018337    0.000274078    0.000003155
     11        6           0.000017943   -0.000037033   -0.000011283
     12        1           0.000018897   -0.000001128    0.000006681
     13        1           0.000011806   -0.000008141    0.000014360
     14        1           0.000014747    0.000026505    0.000019348
     15        6          -0.000011423   -0.000055364    0.000002045
     16        1           0.000000007   -0.000015047   -0.000020473
     17        1           0.000015085    0.000010342   -0.000021402
     18        1          -0.000011491   -0.000006690   -0.000024743
     19        6           0.000108490   -0.000175554    0.000005452
     20        1          -0.000034429    0.000032557    0.000009372
     21        1          -0.000009611    0.000009743    0.000003114
     22        7          -0.000128528    0.000011361    0.000113470
     23        1           0.000065162   -0.000028224   -0.000015372
     24        1           0.000060652    0.000029502   -0.000055365
 -------------------------------------------------------------------
 Cartesian Forces:  Max     0.000274078 RMS     0.000057183

 GradGradGradGradGradGradGradGradGradGradGradGradGradGradGradGradGradGrad
 Berny optimization.
 Using GEDIIS/GDIIS optimizer.
 FormGI is forming the generalized inverse of G from B-inverse, IUseBI=4.
 Internal  Forces:  Max     0.000150504 RMS     0.000032573
 Search for a local minimum.
 Step number   9 out of a maximum of  132
 All quantities printed in internal units (Hartrees-Bohrs-Radians)
 Mixed Optimization -- En-DIIS/RFO-DIIS
 Swapping is turned off.
 Update second derivatives using D2CorX and points    3    4    5    6    7
                                                      8    9
 DE= -5.06D-06 DEPred=-3.85D-06 R= 1.31D+00
 TightC=F SS=  1.41D+00  RLast= 3.91D-02 DXNew= 1.1618D+00 1.1717D-01
 Trust test= 1.31D+00 RLast= 3.91D-02 DXMaxT set to 6.91D-01
 ITU=  1  1  1  1  0  1  1  1  0
     Eigenvalues ---    0.00193   0.00314   0.00409   0.00446   0.00469
     Eigenvalues ---    0.00520   0.00903   0.03533   0.03740   0.04059
     Eigenvalues ---    0.04363   0.04423   0.04705   0.04877   0.04990
     Eigenvalues ---    0.05534   0.05675   0.05811   0.05878   0.06114
     Eigenvalues ---    0.06153   0.06886   0.08448   0.08812   0.09173
     Eigenvalues ---    0.12351   0.12602   0.13076   0.14932   0.15537
     Eigenvalues ---    0.15776   0.15970   0.15999   0.16000   0.16007
     Eigenvalues ---    0.16047   0.16059   0.16214   0.16703   0.17454
     Eigenvalues ---    0.21727   0.23032   0.26159   0.28019   0.30060
     Eigenvalues ---    0.31170   0.32926   0.33030   0.34318   0.34718
     Eigenvalues ---    0.34813   0.34861   0.34946   0.35011   0.35075
     Eigenvalues ---    0.35089   0.35109   0.35146   0.35203   0.35252
     Eigenvalues ---    0.35333   0.35510   0.36675   0.40660   0.47275
     Eigenvalues ---    0.47691
 En-DIIS/RFO-DIIS/Sim-DIIS IScMMF=       -3 using points:     9    8    7    6    5    4
 RFO step:  Lambda=-1.20728161D-06.
 DidBck=F Rises=F RFO-DIIS coefs:    1.09437    0.03893   -0.10858   -0.00980   -0.01077
                  RFO-DIIS coefs:   -0.00414
 Iteration  1 RMS(Cart)=  0.00157885 RMS(Int)=  0.00000306
 Iteration  2 RMS(Cart)=  0.00000317 RMS(Int)=  0.00000023
 Iteration  3 RMS(Cart)=  0.00000000 RMS(Int)=  0.00000023
 Variable       Old X    -DE/DX   Delta X   Delta X   Delta X     New X
                                 (Linear)    (Quad)   (Total)
    R1        2.05794  -0.00002   0.00001  -0.00007  -0.00006   2.05788
    R2        2.07791   0.00000   0.00002   0.00001   0.00003   2.07794
    R3        2.88149   0.00001  -0.00049   0.00025  -0.00024   2.88125
    R4        2.75496   0.00003   0.00051  -0.00019   0.00032   2.75528
    R5        2.05861   0.00003  -0.00003   0.00009   0.00006   2.05867
    R6        2.06544  -0.00001   0.00003  -0.00004  -0.00001   2.06543
    R7        2.88269   0.00003   0.00011   0.00016   0.00027   2.88296
    R8        2.05925   0.00002  -0.00006   0.00010   0.00004   2.05928
    R9        2.06436  -0.00003   0.00021  -0.00020   0.00001   2.06437
   R10        2.86036  -0.00012  -0.00017  -0.00025  -0.00043   2.85993
   R11        2.79936   0.00002  -0.00002   0.00007   0.00006   2.79942
   R12        2.80103   0.00008  -0.00001   0.00021   0.00020   2.80122
   R13        2.87813  -0.00014  -0.00020  -0.00045  -0.00065   2.87748
   R14        2.05017  -0.00002  -0.00001  -0.00005  -0.00007   2.05011
   R15        2.06078   0.00001  -0.00000   0.00005   0.00005   2.06082
   R16        2.05087   0.00003  -0.00006   0.00012   0.00006   2.05093
   R17        2.06212   0.00002  -0.00001   0.00005   0.00004   2.06216
   R18        2.04975  -0.00002  -0.00002  -0.00004  -0.00005   2.04970
   R19        2.05352   0.00002  -0.00006   0.00009   0.00003   2.05355
   R20        2.07544  -0.00001  -0.00022   0.00007  -0.00015   2.07529
   R21        2.07090   0.00000  -0.00024   0.00011  -0.00013   2.07077
   R22        1.91105   0.00007   0.00000   0.00019   0.00019   1.91124
   R23        1.90812   0.00007  -0.00002   0.00020   0.00018   1.90829
    A1        1.86830   0.00001   0.00016   0.00016   0.00032   1.86862
    A2        1.89830  -0.00001   0.00015  -0.00043  -0.00028   1.89803
    A3        1.89368   0.00000  -0.00016  -0.00011  -0.00027   1.89342
    A4        1.89998   0.00002  -0.00001   0.00028   0.00027   1.90025
    A5        1.97917   0.00001  -0.00003   0.00024   0.00021   1.97938
    A6        1.92226  -0.00002  -0.00010  -0.00017  -0.00027   1.92199
    A7        1.88950   0.00001   0.00011  -0.00002   0.00010   1.88959
    A8        1.89743   0.00003   0.00019   0.00030   0.00049   1.89791
    A9        1.98685   0.00000  -0.00035   0.00020  -0.00015   1.98670
   A10        1.85265   0.00000   0.00015  -0.00006   0.00010   1.85274
   A11        1.94444  -0.00001   0.00006  -0.00020  -0.00014   1.94431
   A12        1.88779  -0.00003  -0.00013  -0.00023  -0.00036   1.88743
   A13        1.92191   0.00004  -0.00009   0.00020   0.00011   1.92203
   A14        1.93129   0.00005  -0.00023   0.00027   0.00004   1.93133
   A15        2.01439  -0.00015   0.00017  -0.00079  -0.00062   2.01377
   A16        1.87705  -0.00002  -0.00016   0.00033   0.00017   1.87722
   A17        1.83687   0.00005  -0.00014   0.00043   0.00029   1.83715
   A18        1.87548   0.00003   0.00044  -0.00037   0.00007   1.87555
   A19        1.91497  -0.00006   0.00021  -0.00079  -0.00058   1.91439
   A20        1.86686  -0.00002   0.00004  -0.00018  -0.00014   1.86672
   A21        2.04487   0.00003  -0.00027   0.00056   0.00030   2.04517
   A22        1.88181   0.00004  -0.00009   0.00023   0.00014   1.88195
   A23        1.88128  -0.00001   0.00008  -0.00018  -0.00009   1.88118
   A24        1.86784   0.00001   0.00002   0.00038   0.00040   1.86824
   A25        1.87345   0.00001  -0.00014   0.00019   0.00005   1.87350
   A26        1.92130   0.00002  -0.00009   0.00021   0.00012   1.92142
   A27        1.90659  -0.00002  -0.00003  -0.00008  -0.00011   1.90648
   A28        1.94550  -0.00000   0.00006   0.00003   0.00009   1.94560
   A29        1.89625  -0.00001   0.00017  -0.00028  -0.00010   1.89614
   A30        1.91976  -0.00000   0.00002  -0.00007  -0.00005   1.91971
   A31        1.92450   0.00002  -0.00006   0.00022   0.00016   1.92466
   A32        1.88004   0.00000  -0.00019   0.00015  -0.00004   1.88000
   A33        1.89053   0.00002  -0.00007   0.00015   0.00009   1.89062
   A34        1.94656  -0.00000   0.00004   0.00005   0.00009   1.94665
   A35        1.92150  -0.00002   0.00004  -0.00021  -0.00017   1.92133
   A36        1.89931  -0.00002   0.00022  -0.00035  -0.00013   1.89918
   A37        1.82148   0.00008   0.00002   0.00060   0.00062   1.82210
   A38        1.83400   0.00002   0.00009   0.00021   0.00029   1.83429
   A39        1.87137  -0.00001   0.00070  -0.00009   0.00061   1.87198
   A40        1.93860  -0.00000  -0.00035  -0.00008  -0.00043   1.93817
   A41        1.93688  -0.00001  -0.00029  -0.00013  -0.00041   1.93646
   A42        1.87078  -0.00002   0.00024  -0.00077  -0.00053   1.87026
    D1       -1.07576   0.00002  -0.00137   0.00080  -0.00057  -1.07633
    D2       -3.08111  -0.00000  -0.00171   0.00072  -0.00099  -3.08210
    D3        1.09669   0.00001  -0.00145   0.00067  -0.00078   1.09591
    D4       -3.10573   0.00001  -0.00164   0.00069  -0.00095  -3.10668
    D5        1.17211  -0.00001  -0.00198   0.00061  -0.00137   1.17073
    D6       -0.93328   0.00000  -0.00172   0.00056  -0.00116  -0.93444
    D7        0.99742  -0.00000  -0.00153   0.00031  -0.00122   0.99621
    D8       -1.00793  -0.00002  -0.00187   0.00023  -0.00164  -1.00957
    D9       -3.11332  -0.00001  -0.00161   0.00018  -0.00143  -3.11474
   D10       -2.96007  -0.00001  -0.00375  -0.00002  -0.00377  -2.96384
   D11       -0.88075  -0.00004  -0.00386  -0.00113  -0.00499  -0.88574
   D12       -0.88682   0.00001  -0.00368   0.00025  -0.00342  -0.89024
   D13        1.19250  -0.00003  -0.00379  -0.00085  -0.00464   1.18786
   D14        1.24711   0.00002  -0.00378   0.00066  -0.00312   1.24399
   D15       -2.95676  -0.00001  -0.00390  -0.00044  -0.00434  -2.96110
   D16        0.36000  -0.00001  -0.00023  -0.00084  -0.00107   0.35893
   D17        2.43284   0.00003  -0.00062  -0.00014  -0.00076   2.43208
   D18       -1.71612  -0.00001  -0.00010  -0.00100  -0.00110  -1.71723
   D19        2.50263  -0.00001  -0.00029  -0.00087  -0.00116   2.50147
   D20       -1.70772   0.00003  -0.00069  -0.00017  -0.00085  -1.70857
   D21        0.42651  -0.00000  -0.00016  -0.00103  -0.00119   0.42531
   D22       -1.75078  -0.00003  -0.00015  -0.00118  -0.00134  -1.75212
   D23        0.32206   0.00001  -0.00055  -0.00048  -0.00103   0.32103
   D24        2.45628  -0.00002  -0.00002  -0.00135  -0.00137   2.45491
   D25       -1.21154   0.00002  -0.00020   0.00037   0.00017  -1.21137
   D26        3.03497   0.00001  -0.00022   0.00061   0.00039   3.03535
   D27        0.94005  -0.00001  -0.00011  -0.00011  -0.00022   0.93983
   D28        2.94908   0.00002  -0.00009   0.00029   0.00020   2.94928
   D29        0.91240   0.00001  -0.00012   0.00053   0.00042   0.91282
   D30       -1.18251  -0.00001  -0.00000  -0.00019  -0.00019  -1.18270
   D31        0.95223   0.00000  -0.00004  -0.00012  -0.00016   0.95207
   D32       -1.08445  -0.00001  -0.00007   0.00012   0.00006  -1.08439
   D33        3.10382  -0.00003   0.00005  -0.00060  -0.00055   3.10327
   D34       -3.09702   0.00001  -0.00008   0.00133   0.00125  -3.09577
   D35       -0.97656   0.00002  -0.00015   0.00162   0.00147  -0.97509
   D36        1.13314   0.00002  -0.00020   0.00160   0.00141   1.13455
   D37       -1.06977  -0.00002   0.00003   0.00083   0.00085  -1.06892
   D38        1.05069  -0.00001  -0.00004   0.00111   0.00107   1.05176
   D39       -3.12279  -0.00001  -0.00009   0.00110   0.00101  -3.12179
   D40        0.94111   0.00001   0.00005   0.00130   0.00135   0.94246
   D41        3.06158   0.00002  -0.00002   0.00158   0.00156   3.06314
   D42       -1.11191   0.00002  -0.00007   0.00157   0.00150  -1.11040
   D43        0.96005  -0.00003   0.00053  -0.00033   0.00021   0.96026
   D44        3.08785  -0.00002   0.00043  -0.00004   0.00039   3.08824
   D45       -1.14365  -0.00003   0.00056  -0.00030   0.00026  -1.14339
   D46       -1.09844   0.00002   0.00031   0.00058   0.00089  -1.09755
   D47        1.02936   0.00003   0.00021   0.00086   0.00107   1.03043
   D48        3.08105   0.00002   0.00034   0.00061   0.00094   3.08199
   D49       -3.11817   0.00000   0.00024   0.00048   0.00072  -3.11745
   D50       -0.99037   0.00001   0.00014   0.00076   0.00090  -0.98947
   D51        1.06132   0.00000   0.00027   0.00051   0.00078   1.06209
   D52        0.88388   0.00004   0.00143   0.00062   0.00206   0.88594
   D53       -1.08269   0.00001   0.00062   0.00040   0.00102  -1.08167
   D54        3.05259  -0.00002   0.00159  -0.00018   0.00142   3.05400
   D55        1.08602  -0.00004   0.00078  -0.00040   0.00038   1.08640
   D56       -1.21051   0.00003   0.00154   0.00019   0.00173  -1.20878
   D57        3.10610   0.00000   0.00073  -0.00003   0.00070   3.10680
         Item               Value     Threshold  Converged?
 Maximum Force            0.000151     0.000450     YES
 RMS     Force            0.000033     0.000300     YES
 Maximum Displacement     0.009446     0.001800     NO 
 RMS     Displacement     0.001579     0.001200     NO 
 Predicted change in Energy=-6.026915D-07
 GradGradGradGradGradGradGradGradGradGradGradGradGradGradGradGradGradGrad

                          Input orientation:                          
 ---------------------------------------------------------------------
 Center     Atomic      Atomic             Coordinates (Angstroms)
 Number     Number       Type             X           Y           Z
 ---------------------------------------------------------------------
      1          6           0        1.286800    0.490904   -0.384947
      2          1           0        0.551764    1.276759   -0.552390
      3          1           0        1.631462    0.155458   -1.373786
      4          6           0        0.604870   -0.675493    0.321576
      5          1           0        0.236131   -0.323141    1.284217
      6          1           0        1.355196   -1.438444    0.544106
      7          6           0       -0.506622   -1.326511   -0.495859
      8          1           0       -0.380893   -1.092703   -1.552754
      9          1           0       -0.474673   -2.413584   -0.392773
     10          7           0       -1.911146   -0.878947   -0.153198
     11          6           0       -2.284029   -1.387828    1.187141
     12          1           0       -3.309296   -1.086300    1.373824
     13          1           0       -2.174598   -2.472371    1.219823
     14          1           0       -1.645575   -0.927796    1.934560
     15          6           0       -2.818219   -1.504649   -1.144692
     16          1           0       -2.679351   -2.586984   -1.154057
     17          1           0       -3.834622   -1.235948   -0.877858
     18          1           0       -2.591840   -1.090888   -2.123696
     19          6           0       -2.189221    0.617963   -0.176248
     20          1           0       -1.810507    0.951081   -1.151772
     21          1           0       -1.530985    1.042371    0.590165
     22          7           0        2.355202    1.027449    0.449613
     23          1           0        3.137627    0.388099    0.493619
     24          1           0        2.702938    1.898486    0.075282
 ---------------------------------------------------------------------
                    Distance matrix (angstroms):
                    1          2          3          4          5
     1  C    0.000000
     2  H    1.088983   0.000000
     3  H    1.099600   1.760044   0.000000
     4  C    1.524691   2.139608   2.149098   0.000000
     5  H    2.133702   2.456101   3.039900   1.089403   0.000000
     6  H    2.142475   3.036467   2.509015   1.092979   1.744698
     7  C    2.555712   2.810763   2.745614   1.525594   2.174191
     8  H    2.579300   2.735859   2.374765   2.158450   3.003556
     9  H    3.396896   3.833756   3.463838   2.167180   2.772633
    10  N    3.486697   3.297324   3.887146   2.568490   2.643082
    11  C    4.330348   4.262360   4.926576   3.098768   2.737551
    12  H    5.167683   4.919566   5.788127   4.073903   3.627740
    13  H    4.830896   4.962838   5.302677   3.429440   3.230317
    14  H    3.998956   3.984129   4.780959   2.780266   2.080715
    15  C    4.627161   4.409516   4.754797   3.815098   4.077329
    16  H    5.078905   5.072535   5.113940   4.076444   4.423822
    17  H    5.427148   5.065570   5.662157   4.632692   4.698810
    18  H    4.535324   4.237570   4.466769   4.046092   4.494522
    19  C    3.484598   2.844028   4.030587   3.118942   2.983450
    20  H    3.223832   2.458790   3.539697   3.263517   3.427304
    21  H    3.032305   2.387093   3.826852   2.754101   2.338596
    22  N    1.458030   2.078113   2.146847   2.445417   2.647851
    23  H    2.051343   2.927549   2.410365   2.752396   3.090240
    24  H    2.049035   2.325525   2.507191   3.329852   3.533028
                    6          7          8          9         10
     6  H    0.000000
     7  C    2.135515   0.000000
     8  H    2.744151   1.089725   0.000000
     9  H    2.275316   1.092417   1.760419   0.000000
    10  N    3.386482   1.513412   2.084735   2.115647   0.000000
    11  C    3.695946   2.448555   3.349037   2.611910   1.481388
    12  H    4.750782   3.377632   4.140102   3.594111   2.080773
    13  H    3.739658   2.653055   3.578833   2.343857   2.119810
    14  H    3.346454   2.713507   3.713216   2.999176   2.105148
    15  C    4.502645   2.407529   2.505348   2.623690   1.482343
    16  H    4.525535   2.596684   2.770332   2.338851   2.123499
    17  H    5.384905   3.351075   3.521966   3.593242   2.086226
    18  H    4.776720   2.655844   2.283476   3.037765   2.095501
    19  C    4.160602   2.591191   2.844503   3.489532   1.522694
    20  H    4.313642   2.705136   2.526190   3.698851   2.087170
    21  H    3.806127   2.800066   3.236256   3.745075   2.094893
    22  N    2.662624   3.824275   3.998841   4.534150   4.711629
    23  H    2.552620   4.147229   4.331328   4.656591   5.245368
    24  H    3.629229   4.585639   4.594315   5.376824   5.390372
                   11         12         13         14         15
    11  C    0.000000
    12  H    1.084870   0.000000
    13  H    1.090540   1.797901   0.000000
    14  H    1.085305   1.762815   1.782252   0.000000
    15  C    2.395089   2.599826   2.634704   3.345092   0.000000
    16  H    2.659975   3.006504   2.429654   3.655291   1.091248
    17  H    2.586819   2.316988   2.946980   3.577231   1.084655
    18  H    3.338347   3.570351   3.641663   4.170306   1.086690
    19  C    2.427141   2.561602   3.391075   2.672159   2.416403
    20  H    3.341441   3.574342   4.180556   3.617019   2.654457
    21  H    2.613297   2.882317   3.628239   2.387904   3.339762
    22  N    5.282042   6.116260   5.775902   4.694067   5.976420
    23  H    5.747107   6.671689   6.076956   5.165938   6.460546
    24  H    6.075024   6.836820   6.648663   5.509478   6.599457
                   16         17         18         19         20
    16  H    0.000000
    17  H    1.798955   0.000000
    18  H    1.784983   1.765690   0.000000
    19  C    3.386447   2.576157   2.621989   0.000000
    20  H    3.643186   2.992518   2.392646   1.098198   0.000000
    21  H    4.187275   3.557045   3.611267   1.095804   1.766581
    22  N    6.401766   6.723024   5.965106   4.605557   4.463563
    23  H    6.738189   7.289083   6.470281   5.373720   5.244835
    24  H    7.113350   7.312512   6.465797   5.063223   4.772255
                   21         22         23         24
    21  H    0.000000
    22  N    3.888756   0.000000
    23  H    4.715224   1.011383   0.000000
    24  H    4.350188   1.009826   1.626416   0.000000
 Stoichiometry    C6H16N2
 Framework group  C1[X(C6H16N2)]
 Deg. of freedom    66
 Full point group                 C1      NOp   1
 Largest Abelian subgroup         C1      NOp   1
 Largest concise Abelian subgroup C1      NOp   1
                         Standard orientation:                         
 ---------------------------------------------------------------------
 Center     Atomic      Atomic             Coordinates (Angstroms)
 Number     Number       Type             X           Y           Z
 ---------------------------------------------------------------------
      1          6           0       -2.128594   -0.437024   -0.252074
      2          1           0       -1.738606   -1.260053    0.344931
      3          1           0       -2.246315   -0.811059   -1.279381
      4          6           0       -1.106896    0.694707   -0.253215
      5          1           0       -0.971523    1.033535    0.773269
      6          1           0       -1.523720    1.543584   -0.801183
      7          6           0        0.225197    0.321861   -0.896607
      8          1           0        0.097169   -0.539750   -1.551387
      9          1           0        0.602700    1.145921   -1.506354
     10          7           0        1.324002   -0.070193    0.067414
     11          6           0        1.764034    1.119233    0.833018
     12          1           0        2.580357    0.806483    1.475472
     13          1           0        2.074293    1.910678    0.149915
     14          1           0        0.945806    1.466312    1.455855
     15          6           0        2.470729   -0.533800   -0.749549
     16          1           0        2.756081    0.233832   -1.470756
     17          1           0        3.285560   -0.766639   -0.072562
     18          1           0        2.175660   -1.441959   -1.268273
     19          6           0        1.011244   -1.176433    1.065920
     20          1           0        0.606277   -1.991979    0.451979
     21          1           0        0.186984   -0.787269    1.674140
     22          7           0       -3.378578    0.016286    0.346175
     23          1           0       -3.859106    0.664432   -0.263658
     24          1           0       -4.003874   -0.759986    0.507903
 ---------------------------------------------------------------------
 Rotational constants (GHZ):           3.9622545           0.9793987           0.9668838
 Standard basis: 6-311+G(2d,2p) (5D, 7F)
 There are   376 symmetry adapted cartesian basis functions of A   symmetry.
 There are   360 symmetry adapted basis functions of A   symmetry.
   360 basis functions,   512 primitive gaussians,   376 cartesian basis functions
    33 alpha electrons       33 beta electrons
       nuclear repulsion energy       420.7888004221 Hartrees.
 NAtoms=   24 NActive=   24 NUniq=   24 SFac= 1.00D+00 NAtFMM=   60 NAOKFM=F Big=F
 Integral buffers will be    131072 words long.
 Raffenetti 2 integral format.
 Two-electron integral symmetry is turned on.
 Nuclear repulsion after empirical dispersion term =      420.7710937207 Hartrees.
 One-electron integrals computed using PRISM.
 NBasis=   360 RedAO= T EigKep=  1.42D-05  NBF=   360
 NBsUse=   360 1.00D-06 EigRej= -1.00D+00 NBFU=   360
 Initial guess from the checkpoint file:  "diaminopropyl_ylide.chk"
 B after Tr=     0.000000    0.000000   -0.000000
         Rot=    0.999999    0.001092    0.000059   -0.000037 Ang=   0.13 deg.
 Requested convergence on RMS density matrix=1.00D-08 within  32 cycles.
 Requested convergence on MAX density matrix=1.00D-06.
 Requested convergence on             energy=1.00D-06.
 No special actions if energy rises.
 SCF Done:  E(RwB97XD) =  -347.663729152     A.U. after   10 cycles
            NFock= 10  Conv=0.40D-08     -V/T= 2.0045
 QCSCF skips out because SCF is already converged.
 Calling FoFJK, ICntrl=      2127 FMM=F ISym2X=0 I1Cent= 0 IOpClX= 0 NMat=1 NMatS=1 NMatT=0.
 ***** Axes restored to original set *****
 -------------------------------------------------------------------
 Center     Atomic                   Forces (Hartrees/Bohr)
 Number     Number              X              Y              Z
 -------------------------------------------------------------------
      1        6           0.000057704    0.000025893    0.000000887
      2        1          -0.000015408    0.000001667    0.000000102
      3        1           0.000002326    0.000010126    0.000017869
      4        6          -0.000002798   -0.000054332    0.000008791
      5        1           0.000001771    0.000007775   -0.000013307
      6        1           0.000004890    0.000013653    0.000010586
      7        6           0.000052017   -0.000074508   -0.000014467
      8        1           0.000004745    0.000009563   -0.000000747
      9        1          -0.000010430    0.000040954   -0.000006383
     10        7          -0.000053225    0.000130728   -0.000001658
     11        6          -0.000019344   -0.000032718    0.000016201
     12        1          -0.000003076   -0.000002405    0.000010808
     13        1          -0.000000369    0.000006924    0.000001387
     14        1          -0.000012440    0.000009874    0.000004843
     15        6          -0.000013358   -0.000021962    0.000016519
     16        1           0.000005545    0.000010803    0.000002279
     17        1          -0.000007372    0.000006066   -0.000002534
     18        1           0.000005360    0.000004952   -0.000010845
     19        6           0.000005233   -0.000121583    0.000001846
     20        1           0.000010280    0.000016488   -0.000005441
     21        1           0.000004079    0.000023040   -0.000004626
     22        7          -0.000063915   -0.000016037   -0.000011862
     23        1           0.000020646   -0.000001643   -0.000008169
     24        1           0.000027139    0.000006682   -0.000012077
 -------------------------------------------------------------------
 Cartesian Forces:  Max     0.000130728 RMS     0.000029771

 GradGradGradGradGradGradGradGradGradGradGradGradGradGradGradGradGradGrad
 Berny optimization.
 Using GEDIIS/GDIIS optimizer.
 FormGI is forming the generalized inverse of G from B-inverse, IUseBI=4.
 Internal  Forces:  Max     0.000085299 RMS     0.000016031
 Search for a local minimum.
 Step number  10 out of a maximum of  132
 All quantities printed in internal units (Hartrees-Bohrs-Radians)
 Mixed Optimization -- En-DIIS/RFO-DIIS
 Swapping is turned off.
 Update second derivatives using D2CorX and points    3    4    5    6    7
                                                      8    9   10
 DE= -4.94D-07 DEPred=-6.03D-07 R= 8.20D-01
 Trust test= 8.20D-01 RLast= 1.27D-02 DXMaxT set to 6.91D-01
 ITU=  0  1  1  1  1  0  1  1  1  0
     Eigenvalues ---    0.00190   0.00314   0.00389   0.00440   0.00469
     Eigenvalues ---    0.00541   0.00904   0.03442   0.03575   0.04072
     Eigenvalues ---    0.04360   0.04479   0.04720   0.04907   0.05085
     Eigenvalues ---    0.05564   0.05667   0.05807   0.05921   0.06100
     Eigenvalues ---    0.06156   0.06903   0.08582   0.08835   0.09171
     Eigenvalues ---    0.12354   0.12608   0.12928   0.14893   0.15485
     Eigenvalues ---    0.15840   0.15927   0.15998   0.16001   0.16008
     Eigenvalues ---    0.16052   0.16089   0.16308   0.16495   0.17560
     Eigenvalues ---    0.21844   0.23017   0.25176   0.28045   0.29905
     Eigenvalues ---    0.31249   0.32955   0.33092   0.34477   0.34748
     Eigenvalues ---    0.34814   0.34910   0.34995   0.35019   0.35087
     Eigenvalues ---    0.35106   0.35136   0.35158   0.35203   0.35235
     Eigenvalues ---    0.35370   0.35624   0.36944   0.43454   0.47068
     Eigenvalues ---    0.47690
 En-DIIS/RFO-DIIS/Sim-DIIS IScMMF=       -3 using points:    10    9    8    7    6    5    4
 RFO step:  Lambda=-1.66226665D-07.
 DidBck=F Rises=F RFO-DIIS coefs:    1.40127   -0.30830   -0.10430   -0.02776    0.07615
                  RFO-DIIS coefs:   -0.01672   -0.02035
 Iteration  1 RMS(Cart)=  0.00045229 RMS(Int)=  0.00000028
 Iteration  2 RMS(Cart)=  0.00000023 RMS(Int)=  0.00000016
 Variable       Old X    -DE/DX   Delta X   Delta X   Delta X     New X
                                 (Linear)    (Quad)   (Total)
    R1        2.05788   0.00001  -0.00002   0.00005   0.00004   2.05792
    R2        2.07794  -0.00002   0.00000  -0.00005  -0.00005   2.07789
    R3        2.88125   0.00004   0.00001   0.00007   0.00008   2.88133
    R4        2.75528  -0.00003  -0.00007   0.00004  -0.00003   2.75525
    R5        2.05867  -0.00001   0.00001  -0.00003  -0.00002   2.05866
    R6        2.06543  -0.00000   0.00000  -0.00002  -0.00001   2.06542
    R7        2.88296   0.00002   0.00015  -0.00006   0.00009   2.88304
    R8        2.05928   0.00000   0.00005  -0.00003   0.00001   2.05930
    R9        2.06437  -0.00004  -0.00009  -0.00002  -0.00012   2.06425
   R10        2.85993   0.00009  -0.00005   0.00025   0.00019   2.86013
   R11        2.79942   0.00005   0.00005   0.00011   0.00015   2.79957
   R12        2.80122   0.00000   0.00004   0.00001   0.00005   2.80127
   R13        2.87748  -0.00008  -0.00030  -0.00011  -0.00041   2.87706
   R14        2.05011   0.00000  -0.00002   0.00001  -0.00000   2.05010
   R15        2.06082  -0.00001   0.00002  -0.00003  -0.00001   2.06081
   R16        2.05093  -0.00000   0.00004  -0.00003   0.00001   2.05094
   R17        2.06216  -0.00001   0.00002  -0.00004  -0.00002   2.06214
   R18        2.04970   0.00001   0.00000   0.00001   0.00001   2.04971
   R19        2.05355   0.00001   0.00005  -0.00000   0.00004   2.05359
   R20        2.07529   0.00001  -0.00002   0.00003   0.00001   2.07531
   R21        2.07077   0.00001  -0.00000   0.00001   0.00001   2.07077
   R22        1.91124   0.00002   0.00010  -0.00003   0.00007   1.91131
   R23        1.90829   0.00002   0.00011  -0.00003   0.00008   1.90837
    A1        1.86862   0.00000   0.00016  -0.00009   0.00007   1.86869
    A2        1.89803  -0.00001  -0.00025   0.00011  -0.00014   1.89789
    A3        1.89342   0.00000  -0.00007   0.00010   0.00003   1.89345
    A4        1.90025   0.00000   0.00019  -0.00013   0.00005   1.90031
    A5        1.97938  -0.00002   0.00006  -0.00012  -0.00006   1.97932
    A6        1.92199   0.00002  -0.00010   0.00014   0.00004   1.92203
    A7        1.88959  -0.00000  -0.00010  -0.00002  -0.00012   1.88947
    A8        1.89791  -0.00001   0.00024  -0.00012   0.00011   1.89803
    A9        1.98670  -0.00000  -0.00001  -0.00010  -0.00010   1.98660
   A10        1.85274  -0.00000   0.00003   0.00002   0.00004   1.85279
   A11        1.94431   0.00000  -0.00012   0.00003  -0.00009   1.94422
   A12        1.88743   0.00001  -0.00003   0.00020   0.00017   1.88760
   A13        1.92203  -0.00002  -0.00007  -0.00005  -0.00011   1.92191
   A14        1.93133   0.00000   0.00014  -0.00003   0.00011   1.93144
   A15        2.01377   0.00003  -0.00028   0.00024  -0.00004   2.01374
   A16        1.87722   0.00001   0.00008  -0.00003   0.00006   1.87728
   A17        1.83715  -0.00001   0.00021  -0.00024  -0.00004   1.83712
   A18        1.87555  -0.00002  -0.00006   0.00008   0.00002   1.87557
   A19        1.91439   0.00001  -0.00017   0.00017  -0.00001   1.91438
   A20        1.86672  -0.00001  -0.00005  -0.00007  -0.00012   1.86660
   A21        2.04517   0.00000   0.00031  -0.00021   0.00010   2.04527
   A22        1.88195  -0.00001  -0.00005  -0.00003  -0.00008   1.88187
   A23        1.88118   0.00000  -0.00010   0.00019   0.00008   1.88127
   A24        1.86824  -0.00000   0.00005  -0.00005   0.00001   1.86825
   A25        1.87350   0.00001   0.00011  -0.00001   0.00010   1.87360
   A26        1.92142  -0.00000   0.00008  -0.00005   0.00003   1.92145
   A27        1.90648   0.00000   0.00002  -0.00004  -0.00002   1.90646
   A28        1.94560  -0.00001   0.00000  -0.00002  -0.00001   1.94558
   A29        1.89614  -0.00001  -0.00016   0.00005  -0.00012   1.89603
   A30        1.91971   0.00000  -0.00004   0.00006   0.00002   1.91973
   A31        1.92466  -0.00001   0.00006  -0.00009  -0.00003   1.92464
   A32        1.88000   0.00001   0.00008  -0.00004   0.00004   1.88004
   A33        1.89062  -0.00000   0.00005  -0.00008  -0.00003   1.89059
   A34        1.94665   0.00000   0.00004   0.00004   0.00008   1.94673
   A35        1.92133   0.00000  -0.00008   0.00004  -0.00004   1.92129
   A36        1.89918  -0.00000  -0.00014   0.00012  -0.00002   1.89916
   A37        1.82210   0.00002   0.00016   0.00007   0.00023   1.82233
   A38        1.83429   0.00003   0.00013   0.00015   0.00028   1.83458
   A39        1.87198  -0.00002   0.00005  -0.00008  -0.00003   1.87195
   A40        1.93817   0.00000  -0.00015  -0.00000  -0.00015   1.93802
   A41        1.93646   0.00001  -0.00008   0.00001  -0.00007   1.93639
   A42        1.87026  -0.00002  -0.00043   0.00012  -0.00031   1.86995
    D1       -1.07633  -0.00000   0.00031  -0.00001   0.00030  -1.07603
    D2       -3.08210   0.00000   0.00020   0.00005   0.00025  -3.08184
    D3        1.09591  -0.00001   0.00007  -0.00006   0.00002   1.09593
    D4       -3.10668  -0.00000   0.00015   0.00012   0.00027  -3.10642
    D5        1.17073   0.00001   0.00005   0.00017   0.00022   1.17095
    D6       -0.93444  -0.00000  -0.00008   0.00007  -0.00001  -0.93446
    D7        0.99621   0.00000   0.00001   0.00027   0.00028   0.99648
    D8       -1.00957   0.00001  -0.00009   0.00032   0.00023  -1.00933
    D9       -3.11474   0.00000  -0.00022   0.00022  -0.00000  -3.11474
   D10       -2.96384   0.00000  -0.00111   0.00005  -0.00105  -2.96490
   D11       -0.88574  -0.00001  -0.00180   0.00021  -0.00159  -0.88733
   D12       -0.89024   0.00000  -0.00092  -0.00007  -0.00099  -0.89123
   D13        1.18786  -0.00001  -0.00161   0.00009  -0.00152   1.18634
   D14        1.24399   0.00001  -0.00071  -0.00022  -0.00093   1.24306
   D15       -2.96110  -0.00000  -0.00140  -0.00006  -0.00146  -2.96256
   D16        0.35893   0.00000  -0.00007  -0.00017  -0.00025   0.35868
   D17        2.43208  -0.00000   0.00007  -0.00025  -0.00018   2.43190
   D18       -1.71723   0.00000  -0.00010   0.00001  -0.00009  -1.71732
   D19        2.50147  -0.00001  -0.00030  -0.00025  -0.00055   2.50092
   D20       -1.70857  -0.00001  -0.00015  -0.00033  -0.00048  -1.70905
   D21        0.42531  -0.00001  -0.00033  -0.00007  -0.00040   0.42492
   D22       -1.75212   0.00000  -0.00035  -0.00010  -0.00045  -1.75257
   D23        0.32103  -0.00000  -0.00021  -0.00017  -0.00038   0.32065
   D24        2.45491   0.00000  -0.00038   0.00009  -0.00029   2.45462
   D25       -1.21137  -0.00001   0.00016  -0.00013   0.00003  -1.21134
   D26        3.03535  -0.00000   0.00034  -0.00014   0.00020   3.03555
   D27        0.93983  -0.00000   0.00010   0.00011   0.00021   0.94005
   D28        2.94928  -0.00001   0.00026  -0.00004   0.00022   2.94950
   D29        0.91282   0.00000   0.00044  -0.00005   0.00039   0.91320
   D30       -1.18270   0.00001   0.00021   0.00020   0.00041  -1.18230
   D31        0.95207  -0.00000   0.00010   0.00007   0.00016   0.95223
   D32       -1.08439   0.00001   0.00028   0.00006   0.00033  -1.08406
   D33        3.10327   0.00001   0.00004   0.00031   0.00035   3.10362
   D34       -3.09577   0.00001   0.00082   0.00016   0.00098  -3.09479
   D35       -0.97509   0.00001   0.00093   0.00011   0.00104  -0.97405
   D36        1.13455   0.00001   0.00094   0.00013   0.00107   1.13562
   D37       -1.06892   0.00000   0.00064   0.00015   0.00079  -1.06813
   D38        1.05176   0.00000   0.00075   0.00010   0.00085   1.05261
   D39       -3.12179   0.00000   0.00076   0.00012   0.00088  -3.12091
   D40        0.94246  -0.00000   0.00062   0.00018   0.00080   0.94326
   D41        3.06314  -0.00000   0.00073   0.00012   0.00086   3.06400
   D42       -1.11040   0.00000   0.00075   0.00014   0.00089  -1.10952
   D43        0.96026  -0.00000  -0.00016   0.00028   0.00012   0.96038
   D44        3.08824   0.00000  -0.00003   0.00026   0.00023   3.08847
   D45       -1.14339   0.00000  -0.00013   0.00033   0.00021  -1.14318
   D46       -1.09755  -0.00000   0.00010   0.00014   0.00024  -1.09732
   D47        1.03043  -0.00000   0.00023   0.00011   0.00035   1.03077
   D48        3.08199  -0.00000   0.00013   0.00019   0.00032   3.08231
   D49       -3.11745  -0.00000   0.00021  -0.00004   0.00018  -3.11727
   D50       -0.98947   0.00000   0.00035  -0.00006   0.00028  -0.98918
   D51        1.06209   0.00000   0.00025   0.00001   0.00026   1.06235
   D52        0.88594  -0.00001   0.00029  -0.00015   0.00014   0.88607
   D53       -1.08167  -0.00001   0.00012  -0.00015  -0.00003  -1.08170
   D54        3.05400   0.00001   0.00020   0.00008   0.00028   3.05428
   D55        1.08640   0.00001   0.00003   0.00008   0.00011   1.08650
   D56       -1.20878  -0.00000   0.00011   0.00011   0.00022  -1.20855
   D57        3.10680  -0.00000  -0.00006   0.00011   0.00005   3.10685
         Item               Value     Threshold  Converged?
 Maximum Force            0.000085     0.000450     YES
 RMS     Force            0.000016     0.000300     YES
 Maximum Displacement     0.001946     0.001800     NO 
 RMS     Displacement     0.000452     0.001200     YES
 Predicted change in Energy=-7.993702D-08
 GradGradGradGradGradGradGradGradGradGradGradGradGradGradGradGradGradGrad

                          Input orientation:                          
 ---------------------------------------------------------------------
 Center     Atomic      Atomic             Coordinates (Angstroms)
 Number     Number       Type             X           Y           Z
 ---------------------------------------------------------------------
      1          6           0        1.286874    0.490960   -0.384913
      2          1           0        0.551722    1.276763   -0.552223
      3          1           0        1.631529    0.155608   -1.373757
      4          6           0        0.604938   -0.675493    0.321606
      5          1           0        0.236031   -0.322986    1.284117
      6          1           0        1.355216   -1.438420    0.544350
      7          6           0       -0.506592   -1.326392   -0.495958
      8          1           0       -0.380858   -1.092206   -1.552775
      9          1           0       -0.474686   -2.413435   -0.393210
     10          7           0       -1.911188   -0.878827   -0.153151
     11          6           0       -2.284038   -1.387932    1.187201
     12          1           0       -3.309617   -1.087330    1.373651
     13          1           0       -2.173618   -2.472364    1.220066
     14          1           0       -1.646251   -0.927184    1.934758
     15          6           0       -2.818213   -1.504645   -1.144654
     16          1           0       -2.679316   -2.586966   -1.153886
     17          1           0       -3.834647   -1.235858   -0.877998
     18          1           0       -2.591698   -1.091012   -2.123705
     19          6           0       -2.189411    0.617836   -0.176167
     20          1           0       -1.811036    0.951214   -1.151742
     21          1           0       -1.531280    1.042602    0.590142
     22          7           0        2.355305    1.027504    0.449579
     23          1           0        3.137342    0.387657    0.494149
     24          1           0        2.703904    1.897886    0.074418
 ---------------------------------------------------------------------
                    Distance matrix (angstroms):
                    1          2          3          4          5
     1  C    0.000000
     2  H    1.089004   0.000000
     3  H    1.099573   1.760083   0.000000
     4  C    1.524736   2.139559   2.149157   0.000000
     5  H    2.133645   2.455810   3.039862   1.089395   0.000000
     6  H    2.142593   3.036494   2.509265   1.092972   1.744713
     7  C    2.555703   2.810625   2.745618   1.525640   2.174161
     8  H    2.579078   2.735475   2.374614   2.158413   3.003366
     9  H    3.396862   3.833584   3.463755   2.167254   2.772819
    10  N    3.486779   3.297234   3.887259   2.568585   2.642962
    11  C    4.330495   4.262362   4.926732   3.098871   2.737562
    12  H    5.168296   4.920149   5.788616   4.074328   3.628203
    13  H    4.830347   4.962302   5.302198   3.428753   3.229604
    14  H    3.999404   3.984162   4.781481   2.780910   2.081196
    15  C    4.627244   4.409498   4.754907   3.815151   4.077211
    16  H    5.078937   5.072475   5.114043   4.076410   4.423653
    17  H    5.427247   5.065533   5.662246   4.632814   4.698776
    18  H    4.535345   4.237571   4.466781   4.046070   4.494348
    19  C    3.484857   2.844189   4.030814   3.119113   2.983344
    20  H    3.224424   2.459275   3.540273   3.264025   3.427459
    21  H    3.032661   2.387200   3.827142   2.754522   2.338764
    22  N    1.458013   2.078136   2.146767   2.445478   2.647943
    23  H    2.051257   2.927599   2.410476   2.751932   3.089769
    24  H    2.049000   2.326018   2.506538   3.330021   3.533559
                    6          7          8          9         10
     6  H    0.000000
     7  C    2.135677   0.000000
     8  H    2.744404   1.089732   0.000000
     9  H    2.275569   1.092354   1.760410   0.000000
    10  N    3.386598   1.513513   2.084800   2.115701   0.000000
    11  C    3.695940   2.448698   3.349181   2.612109   1.481468
    12  H    4.750966   3.377801   4.140245   3.594050   2.080914
    13  H    3.738757   2.652728   3.578753   2.343610   2.119895
    14  H    3.347148   2.714143   3.713670   3.000158   2.105207
    15  C    4.502736   2.407524   2.505468   2.623488   1.482370
    16  H    4.525550   2.596660   2.770618   2.338618   2.123494
    17  H    5.385051   3.351134   3.522018   3.593194   2.086281
    18  H    4.776750   2.655679   2.283369   3.037294   2.095519
    19  C    4.160734   2.591171   2.844320   3.489412   1.522477
    20  H    4.314189   2.705387   2.526223   3.698928   2.087166
    21  H    3.806498   2.800309   3.236196   3.745339   2.094923
    22  N    2.662695   3.824307   3.998648   4.534226   4.711725
    23  H    2.552068   4.146870   4.331008   4.656208   5.245059
    24  H    3.629150   4.585693   4.593927   5.376765   5.390825
                   11         12         13         14         15
    11  C    0.000000
    12  H    1.084868   0.000000
    13  H    1.090535   1.797888   0.000000
    14  H    1.085312   1.762746   1.782269   0.000000
    15  C    2.395102   2.599517   2.635124   3.345106   0.000000
    16  H    2.659814   3.005766   2.429919   3.655382   1.091236
    17  H    2.586999   2.316817   2.947852   3.577143   1.084660
    18  H    3.338399   3.570283   3.641940   4.170352   1.086711
    19  C    2.427103   2.562107   3.391025   2.671726   2.416254
    20  H    3.341554   3.574775   4.180649   3.616907   2.654374
    21  H    2.613545   2.883224   3.628277   2.387734   3.339788
    22  N    5.282227   6.117008   5.775282   4.694573   5.976508
    23  H    5.746686   6.671761   6.075605   5.165939   6.460273
    24  H    6.075726   6.838272   6.648445   5.510512   6.599783
                   16         17         18         19         20
    16  H    0.000000
    17  H    1.798998   0.000000
    18  H    1.784966   1.765697   0.000000
    19  C    3.386251   2.575956   2.622003   0.000000
    20  H    3.643162   2.992193   2.392662   1.098205   0.000000
    21  H    4.187288   3.557009   3.611338   1.095807   1.766571
    22  N    6.401789   6.723152   5.965127   4.605847   4.464129
    23  H    6.737797   7.288842   6.470049   5.373696   5.245284
    24  H    7.113486   7.313009   6.465962   5.064174   4.773295
                   21         22         23         24
    21  H    0.000000
    22  N    3.889155   0.000000
    23  H    4.715315   1.011421   0.000000
    24  H    4.351352   1.009867   1.626294   0.000000
 Stoichiometry    C6H16N2
 Framework group  C1[X(C6H16N2)]
 Deg. of freedom    66
 Full point group                 C1      NOp   1
 Largest Abelian subgroup         C1      NOp   1
 Largest concise Abelian subgroup C1      NOp   1
                         Standard orientation:                         
 ---------------------------------------------------------------------
 Center     Atomic      Atomic             Coordinates (Angstroms)
 Number     Number       Type             X           Y           Z
 ---------------------------------------------------------------------
      1          6           0       -2.128684   -0.437144   -0.251788
      2          1           0       -1.738552   -1.259813    0.345658
      3          1           0       -2.246469   -0.811690   -1.278872
      4          6           0       -1.106965    0.694628   -0.253487
      5          1           0       -0.971451    1.033661    0.772902
      6          1           0       -1.523794    1.543386   -0.801621
      7          6           0        0.225105    0.321334   -0.896775
      8          1           0        0.096904   -0.540764   -1.550891
      9          1           0        0.602633    1.144870   -1.507101
     10          7           0        1.324004   -0.070217    0.067503
     11          6           0        1.764111    1.119710    0.832439
     12          1           0        2.581117    0.807644    1.474354
     13          1           0        2.073374    1.911140    0.148875
     14          1           0        0.946235    1.466504    1.455910
     15          6           0        2.470705   -0.534083   -0.749398
     16          1           0        2.755982    0.233329   -1.470848
     17          1           0        3.285570   -0.766816   -0.072406
     18          1           0        2.175549   -1.442380   -1.267876
     19          6           0        1.011517   -1.175871    1.066412
     20          1           0        0.606749   -1.991974    0.453067
     21          1           0        0.187244   -0.786792    1.674675
     22          7           0       -3.378671    0.016376    0.346255
     23          1           0       -3.858718    0.664899   -0.263620
     24          1           0       -4.004441   -0.759757    0.507065
 ---------------------------------------------------------------------
 Rotational constants (GHZ):           3.9622302           0.9793485           0.9668360
 Standard basis: 6-311+G(2d,2p) (5D, 7F)
 There are   376 symmetry adapted cartesian basis functions of A   symmetry.
 There are   360 symmetry adapted basis functions of A   symmetry.
   360 basis functions,   512 primitive gaussians,   376 cartesian basis functions
    33 alpha electrons       33 beta electrons
       nuclear repulsion energy       420.7834733285 Hartrees.
 NAtoms=   24 NActive=   24 NUniq=   24 SFac= 1.00D+00 NAtFMM=   60 NAOKFM=F Big=F
 Integral buffers will be    131072 words long.
 Raffenetti 2 integral format.
 Two-electron integral symmetry is turned on.
 Nuclear repulsion after empirical dispersion term =      420.7657668364 Hartrees.
 One-electron integrals computed using PRISM.
 NBasis=   360 RedAO= T EigKep=  1.42D-05  NBF=   360
 NBsUse=   360 1.00D-06 EigRej= -1.00D+00 NBFU=   360
 Initial guess from the checkpoint file:  "diaminopropyl_ylide.chk"
 B after Tr=     0.000000   -0.000000    0.000000
         Rot=    1.000000    0.000226   -0.000019   -0.000007 Ang=   0.03 deg.
 Requested convergence on RMS density matrix=1.00D-08 within  32 cycles.
 Requested convergence on MAX density matrix=1.00D-06.
 Requested convergence on             energy=1.00D-06.
 No special actions if energy rises.
 SCF Done:  E(RwB97XD) =  -347.663729231     A.U. after    8 cycles
            NFock=  8  Conv=0.92D-08     -V/T= 2.0045
 QCSCF skips out because SCF is already converged.
 Calling FoFJK, ICntrl=      2127 FMM=F ISym2X=0 I1Cent= 0 IOpClX= 0 NMat=1 NMatS=1 NMatT=0.
 ***** Axes restored to original set *****
 -------------------------------------------------------------------
 Center     Atomic                   Forces (Hartrees/Bohr)
 Number     Number              X              Y              Z
 -------------------------------------------------------------------
      1        6           0.000028694    0.000013253    0.000008994
      2        1          -0.000002993   -0.000001603   -0.000005686
      3        1          -0.000001335   -0.000000624    0.000002083
      4        6          -0.000023177   -0.000026609   -0.000001360
      5        1          -0.000000165    0.000002663   -0.000000027
      6        1           0.000002408    0.000008312    0.000002361
      7        6           0.000059577   -0.000010830   -0.000007452
      8        1          -0.000005715    0.000002338    0.000002295
      9        1          -0.000004046    0.000007694    0.000001620
     10        7          -0.000046174    0.000054496    0.000009422
     11        6           0.000001532   -0.000004868    0.000005575
     12        1          -0.000003605    0.000000432   -0.000000848
     13        1          -0.000001943    0.000005551   -0.000004135
     14        1          -0.000002779    0.000005785   -0.000002693
     15        6          -0.000003883   -0.000010090   -0.000003164
     16        1           0.000000349    0.000003663    0.000002833
     17        1          -0.000000565    0.000002733    0.000002365
     18        1           0.000001816    0.000000287    0.000000690
     19        6           0.000000502   -0.000046609    0.000005731
     20        1           0.000005297   -0.000000197   -0.000001956
     21        1           0.000004295    0.000003644   -0.000001919
     22        7          -0.000007299   -0.000009425   -0.000017291
     23        1          -0.000001068    0.000002338   -0.000000513
     24        1           0.000000278   -0.000002333    0.000003074
 -------------------------------------------------------------------
 Cartesian Forces:  Max     0.000059577 RMS     0.000014226

 GradGradGradGradGradGradGradGradGradGradGradGradGradGradGradGradGradGrad
 Berny optimization.
 Using GEDIIS/GDIIS optimizer.
 FormGI is forming the generalized inverse of G from B-inverse, IUseBI=4.
 Internal  Forces:  Max     0.000045780 RMS     0.000006777
 Search for a local minimum.
 Step number  11 out of a maximum of  132
 All quantities printed in internal units (Hartrees-Bohrs-Radians)
 Mixed Optimization -- En-DIIS/RFO-DIIS
 Swapping is turned off.
 Update second derivatives using D2CorX and points    3    4    5    6    7
                                                      8    9   10   11
 DE= -7.89D-08 DEPred=-7.99D-08 R= 9.87D-01
 Trust test= 9.87D-01 RLast= 4.61D-03 DXMaxT set to 6.91D-01
 ITU=  0  0  1  1  1  1  0  1  1  1  0
     Eigenvalues ---    0.00193   0.00303   0.00345   0.00436   0.00484
     Eigenvalues ---    0.00556   0.00900   0.03547   0.03741   0.04097
     Eigenvalues ---    0.04367   0.04466   0.04663   0.04882   0.05121
     Eigenvalues ---    0.05582   0.05651   0.05818   0.05918   0.06112
     Eigenvalues ---    0.06161   0.06938   0.08506   0.08860   0.09178
     Eigenvalues ---    0.12470   0.12518   0.12930   0.15034   0.15223
     Eigenvalues ---    0.15691   0.15876   0.15990   0.16000   0.16023
     Eigenvalues ---    0.16037   0.16072   0.16413   0.16689   0.17558
     Eigenvalues ---    0.21809   0.23108   0.23644   0.27780   0.28747
     Eigenvalues ---    0.31178   0.32808   0.33099   0.34376   0.34756
     Eigenvalues ---    0.34815   0.34932   0.34986   0.35038   0.35097
     Eigenvalues ---    0.35108   0.35120   0.35175   0.35212   0.35389
     Eigenvalues ---    0.35495   0.35643   0.35899   0.43142   0.47467
     Eigenvalues ---    0.47694
 En-DIIS/RFO-DIIS/Sim-DIIS IScMMF=       -3 using points:    11   10    9    8    7    6    5    4
 RFO step:  Lambda=-3.91780120D-08.
 DIIS inversion failure, remove point   8.
 RFO-DIIS uses    7 points instead of    8
 DidBck=F Rises=F RFO-DIIS coefs:    1.06979    0.12625   -0.19067   -0.02061    0.00088
                  RFO-DIIS coefs:    0.01381    0.00055    0.00000
 Iteration  1 RMS(Cart)=  0.00021437 RMS(Int)=  0.00000005
 Iteration  2 RMS(Cart)=  0.00000004 RMS(Int)=  0.00000004
 Variable       Old X    -DE/DX   Delta X   Delta X   Delta X     New X
                                 (Linear)    (Quad)   (Total)
    R1        2.05792   0.00000  -0.00001   0.00003   0.00001   2.05793
    R2        2.07789  -0.00000  -0.00000  -0.00002  -0.00002   2.07787
    R3        2.88133   0.00001   0.00004   0.00002   0.00006   2.88139
    R4        2.75525  -0.00002  -0.00002  -0.00001  -0.00004   2.75521
    R5        2.05866   0.00000   0.00001  -0.00001   0.00000   2.05866
    R6        2.06542  -0.00000  -0.00000  -0.00001  -0.00001   2.06541
    R7        2.88304  -0.00001   0.00007  -0.00009  -0.00002   2.88302
    R8        2.05930  -0.00000   0.00002  -0.00002   0.00000   2.05930
    R9        2.06425  -0.00001  -0.00004   0.00000  -0.00004   2.06421
   R10        2.86013   0.00005  -0.00003   0.00017   0.00014   2.86027
   R11        2.79957  -0.00000   0.00003  -0.00001   0.00002   2.79959
   R12        2.80127   0.00000   0.00004  -0.00001   0.00003   2.80130
   R13        2.87706  -0.00004  -0.00017  -0.00008  -0.00024   2.87682
   R14        2.05010   0.00000  -0.00001   0.00001   0.00000   2.05011
   R15        2.06081  -0.00000   0.00001  -0.00002  -0.00001   2.06080
   R16        2.05094  -0.00000   0.00002  -0.00002   0.00000   2.05095
   R17        2.06214  -0.00000   0.00001  -0.00002  -0.00001   2.06213
   R18        2.04971   0.00000  -0.00001   0.00001   0.00000   2.04971
   R19        2.05359   0.00000   0.00002  -0.00001   0.00001   2.05360
   R20        2.07531   0.00000   0.00000   0.00000   0.00000   2.07531
   R21        2.07077   0.00000   0.00001  -0.00000   0.00001   2.07078
   R22        1.91131  -0.00000   0.00005  -0.00004   0.00001   1.91132
   R23        1.90837  -0.00000   0.00005  -0.00004   0.00001   1.90838
    A1        1.86869  -0.00000   0.00006  -0.00006  -0.00001   1.86868
    A2        1.89789  -0.00000  -0.00011   0.00005  -0.00005   1.89784
    A3        1.89345   0.00000  -0.00002   0.00006   0.00005   1.89350
    A4        1.90031  -0.00000   0.00008  -0.00007   0.00001   1.90031
    A5        1.97932  -0.00000   0.00002  -0.00005  -0.00002   1.97930
    A6        1.92203   0.00000  -0.00004   0.00006   0.00002   1.92206
    A7        1.88947   0.00000  -0.00004   0.00002  -0.00002   1.88945
    A8        1.89803  -0.00001   0.00010  -0.00012  -0.00001   1.89801
    A9        1.98660  -0.00000   0.00003  -0.00006  -0.00003   1.98657
   A10        1.85279  -0.00000  -0.00001   0.00001   0.00001   1.85279
   A11        1.94422  -0.00000  -0.00005   0.00003  -0.00002   1.94420
   A12        1.88760   0.00001  -0.00003   0.00011   0.00008   1.88768
   A13        1.92191  -0.00000   0.00000   0.00001   0.00001   1.92193
   A14        1.93144  -0.00000   0.00007  -0.00002   0.00005   1.93149
   A15        2.01374   0.00001  -0.00016   0.00011  -0.00005   2.01369
   A16        1.87728   0.00000   0.00006  -0.00001   0.00005   1.87733
   A17        1.83712  -0.00000   0.00009  -0.00012  -0.00003   1.83709
   A18        1.87557  -0.00001  -0.00005   0.00002  -0.00003   1.87554
   A19        1.91438   0.00000  -0.00014   0.00012  -0.00003   1.91436
   A20        1.86660  -0.00000  -0.00005   0.00002  -0.00003   1.86657
   A21        2.04527  -0.00000   0.00017  -0.00015   0.00003   2.04529
   A22        1.88187  -0.00000   0.00001  -0.00003  -0.00003   1.88184
   A23        1.88127  -0.00000  -0.00005   0.00005   0.00000   1.88127
   A24        1.86825   0.00000   0.00006  -0.00001   0.00005   1.86830
   A25        1.87360   0.00000   0.00006  -0.00004   0.00002   1.87362
   A26        1.92145  -0.00001   0.00006  -0.00007  -0.00002   1.92143
   A27        1.90646  -0.00000  -0.00001  -0.00002  -0.00003   1.90643
   A28        1.94558   0.00000  -0.00000  -0.00000  -0.00000   1.94558
   A29        1.89603   0.00000  -0.00009   0.00007  -0.00002   1.89601
   A30        1.91973   0.00001  -0.00002   0.00007   0.00005   1.91977
   A31        1.92464  -0.00000   0.00005  -0.00005  -0.00000   1.92463
   A32        1.88004  -0.00000   0.00003  -0.00005  -0.00001   1.88002
   A33        1.89059  -0.00000   0.00003  -0.00004  -0.00001   1.89058
   A34        1.94673   0.00000   0.00002   0.00001   0.00003   1.94676
   A35        1.92129   0.00000  -0.00005   0.00005  -0.00000   1.92129
   A36        1.89916   0.00000  -0.00008   0.00008  -0.00000   1.89916
   A37        1.82233  -0.00000   0.00015  -0.00011   0.00004   1.82237
   A38        1.83458   0.00000   0.00008  -0.00002   0.00006   1.83464
   A39        1.87195  -0.00000   0.00003  -0.00006  -0.00003   1.87192
   A40        1.93802   0.00000  -0.00003   0.00002  -0.00001   1.93801
   A41        1.93639   0.00000  -0.00004   0.00005   0.00001   1.93640
   A42        1.86995  -0.00000  -0.00020   0.00013  -0.00007   1.86988
    D1       -1.07603  -0.00000   0.00016  -0.00010   0.00005  -1.07597
    D2       -3.08184   0.00000   0.00013  -0.00007   0.00006  -3.08178
    D3        1.09593  -0.00000   0.00008  -0.00009  -0.00001   1.09592
    D4       -3.10642  -0.00000   0.00011  -0.00002   0.00009  -3.10633
    D5        1.17095   0.00000   0.00008   0.00002   0.00010   1.17105
    D6       -0.93446   0.00000   0.00003  -0.00001   0.00003  -0.93443
    D7        0.99648   0.00000   0.00005   0.00004   0.00009   0.99658
    D8       -1.00933   0.00000   0.00002   0.00008   0.00010  -1.00923
    D9       -3.11474   0.00000  -0.00002   0.00005   0.00003  -3.11471
   D10       -2.96490   0.00000   0.00030   0.00002   0.00031  -2.96459
   D11       -0.88733   0.00000  -0.00000   0.00022   0.00022  -0.88711
   D12       -0.89123   0.00000   0.00037  -0.00005   0.00032  -0.89091
   D13        1.18634   0.00000   0.00007   0.00016   0.00023   1.18657
   D14        1.24306   0.00000   0.00046  -0.00013   0.00033   1.24339
   D15       -2.96256   0.00000   0.00016   0.00008   0.00025  -2.96231
   D16        0.35868  -0.00000  -0.00010  -0.00027  -0.00037   0.35831
   D17        2.43190  -0.00000   0.00002  -0.00029  -0.00027   2.43163
   D18       -1.71732  -0.00000  -0.00011  -0.00019  -0.00031  -1.71762
   D19        2.50092  -0.00000  -0.00016  -0.00027  -0.00043   2.50049
   D20       -1.70905  -0.00000  -0.00005  -0.00028  -0.00034  -1.70939
   D21        0.42492  -0.00000  -0.00018  -0.00019  -0.00037   0.42455
   D22       -1.75257  -0.00000  -0.00022  -0.00017  -0.00039  -1.75295
   D23        0.32065   0.00000  -0.00011  -0.00018  -0.00029   0.32036
   D24        2.45462   0.00000  -0.00023  -0.00009  -0.00033   2.45429
   D25       -1.21134  -0.00000   0.00004  -0.00002   0.00002  -1.21132
   D26        3.03555   0.00000   0.00013  -0.00005   0.00008   3.03563
   D27        0.94005  -0.00000  -0.00002   0.00004   0.00002   0.94007
   D28        2.94950  -0.00000   0.00006  -0.00001   0.00006   2.94955
   D29        0.91320   0.00000   0.00016  -0.00004   0.00012   0.91332
   D30       -1.18230  -0.00000   0.00001   0.00005   0.00006  -1.18224
   D31        0.95223  -0.00000  -0.00002   0.00005   0.00003   0.95226
   D32       -1.08406   0.00000   0.00007   0.00001   0.00009  -1.08397
   D33        3.10362   0.00000  -0.00007   0.00010   0.00003   3.10365
   D34       -3.09479   0.00000   0.00044  -0.00001   0.00042  -3.09437
   D35       -0.97405   0.00000   0.00050  -0.00008   0.00042  -0.97363
   D36        1.13562   0.00000   0.00051  -0.00006   0.00045   1.13607
   D37       -1.06813   0.00000   0.00030   0.00006   0.00036  -1.06777
   D38        1.05261  -0.00000   0.00037  -0.00001   0.00036   1.05297
   D39       -3.12091   0.00000   0.00038   0.00001   0.00039  -3.12052
   D40        0.94326   0.00000   0.00035   0.00006   0.00041   0.94366
   D41        3.06400   0.00000   0.00042  -0.00001   0.00041   3.06441
   D42       -1.10952   0.00000   0.00042   0.00001   0.00043  -1.10908
   D43        0.96038   0.00000  -0.00006   0.00013   0.00007   0.96045
   D44        3.08847   0.00000   0.00001   0.00009   0.00010   3.08857
   D45       -1.14318   0.00000  -0.00005   0.00013   0.00008  -1.14309
   D46       -1.09732  -0.00000   0.00013   0.00000   0.00013  -1.09719
   D47        1.03077  -0.00000   0.00020  -0.00005   0.00016   1.03093
   D48        3.08231  -0.00000   0.00014   0.00000   0.00014   3.08245
   D49       -3.11727   0.00000   0.00015  -0.00003   0.00012  -3.11715
   D50       -0.98918   0.00000   0.00023  -0.00008   0.00014  -0.98904
   D51        1.06235   0.00000   0.00016  -0.00003   0.00013   1.06248
   D52        0.88607  -0.00000   0.00025  -0.00011   0.00014   0.88622
   D53       -1.08170   0.00000   0.00013   0.00001   0.00013  -1.08157
   D54        3.05428   0.00000   0.00015  -0.00002   0.00013   3.05441
   D55        1.08650   0.00000   0.00002   0.00010   0.00012   1.08662
   D56       -1.20855  -0.00000   0.00016  -0.00004   0.00012  -1.20843
   D57        3.10685   0.00000   0.00004   0.00008   0.00011   3.10697
         Item               Value     Threshold  Converged?
 Maximum Force            0.000046     0.000450     YES
 RMS     Force            0.000007     0.000300     YES
 Maximum Displacement     0.000972     0.001800     YES
 RMS     Displacement     0.000214     0.001200     YES
 Predicted change in Energy=-1.889542D-08
 Optimization completed.
    -- Stationary point found.
                           ----------------------------
                           !   Optimized Parameters   !
                           ! (Angstroms and Degrees)  !
 --------------------------                            --------------------------
 ! Name  Definition              Value          Derivative Info.                !
 --------------------------------------------------------------------------------
 ! R1    R(1,2)                  1.089          -DE/DX =    0.0                 !
 ! R2    R(1,3)                  1.0996         -DE/DX =    0.0                 !
 ! R3    R(1,4)                  1.5247         -DE/DX =    0.0                 !
 ! R4    R(1,22)                 1.458          -DE/DX =    0.0                 !
 ! R5    R(4,5)                  1.0894         -DE/DX =    0.0                 !
 ! R6    R(4,6)                  1.093          -DE/DX =    0.0                 !
 ! R7    R(4,7)                  1.5256         -DE/DX =    0.0                 !
 ! R8    R(7,8)                  1.0897         -DE/DX =    0.0                 !
 ! R9    R(7,9)                  1.0924         -DE/DX =    0.0                 !
 ! R10   R(7,10)                 1.5135         -DE/DX =    0.0                 !
 ! R11   R(10,11)                1.4815         -DE/DX =    0.0                 !
 ! R12   R(10,15)                1.4824         -DE/DX =    0.0                 !
 ! R13   R(10,19)                1.5225         -DE/DX =    0.0                 !
 ! R14   R(11,12)                1.0849         -DE/DX =    0.0                 !
 ! R15   R(11,13)                1.0905         -DE/DX =    0.0                 !
 ! R16   R(11,14)                1.0853         -DE/DX =    0.0                 !
 ! R17   R(15,16)                1.0912         -DE/DX =    0.0                 !
 ! R18   R(15,17)                1.0847         -DE/DX =    0.0                 !
 ! R19   R(15,18)                1.0867         -DE/DX =    0.0                 !
 ! R20   R(19,20)                1.0982         -DE/DX =    0.0                 !
 ! R21   R(19,21)                1.0958         -DE/DX =    0.0                 !
 ! R22   R(22,23)                1.0114         -DE/DX =    0.0                 !
 ! R23   R(22,24)                1.0099         -DE/DX =    0.0                 !
 ! A1    A(2,1,3)              107.0678         -DE/DX =    0.0                 !
 ! A2    A(2,1,4)              108.741          -DE/DX =    0.0                 !
 ! A3    A(2,1,22)             108.4866         -DE/DX =    0.0                 !
 ! A4    A(3,1,4)              108.8795         -DE/DX =    0.0                 !
 ! A5    A(3,1,22)             113.4066         -DE/DX =    0.0                 !
 ! A6    A(4,1,22)             110.1243         -DE/DX =    0.0                 !
 ! A7    A(1,4,5)              108.2588         -DE/DX =    0.0                 !
 ! A8    A(1,4,6)              108.749          -DE/DX =    0.0                 !
 ! A9    A(1,4,7)              113.8238         -DE/DX =    0.0                 !
 ! A10   A(5,4,6)              106.1568         -DE/DX =    0.0                 !
 ! A11   A(5,4,7)              111.3954         -DE/DX =    0.0                 !
 ! A12   A(6,4,7)              108.1516         -DE/DX =    0.0                 !
 ! A13   A(4,7,8)              110.1176         -DE/DX =    0.0                 !
 ! A14   A(4,7,9)              110.6635         -DE/DX =    0.0                 !
 ! A15   A(4,7,10)             115.3786         -DE/DX =    0.0                 !
 ! A16   A(8,7,9)              107.5602         -DE/DX =    0.0                 !
 ! A17   A(8,7,10)             105.2591         -DE/DX =    0.0                 !
 ! A18   A(9,7,10)             107.4623         -DE/DX =    0.0                 !
 ! A19   A(7,10,11)            109.686          -DE/DX =    0.0                 !
 ! A20   A(7,10,15)            106.948          -DE/DX =    0.0                 !
 ! A21   A(7,10,19)            117.1852         -DE/DX =    0.0                 !
 ! A22   A(11,10,15)           107.823          -DE/DX =    0.0                 !
 ! A23   A(11,10,19)           107.7887         -DE/DX =    0.0                 !
 ! A24   A(15,10,19)           107.0429         -DE/DX =    0.0                 !
 ! A25   A(10,11,12)           107.3492         -DE/DX =    0.0                 !
 ! A26   A(10,11,13)           110.0908         -DE/DX =    0.0                 !
 ! A27   A(10,11,14)           109.2322         -DE/DX =    0.0                 !
 ! A28   A(12,11,13)           111.4738         -DE/DX =    0.0                 !
 ! A29   A(12,11,14)           108.6343         -DE/DX =    0.0                 !
 ! A30   A(13,11,14)           109.9924         -DE/DX =    0.0                 !
 ! A31   A(10,15,16)           110.2735         -DE/DX =    0.0                 !
 ! A32   A(10,15,17)           107.7181         -DE/DX =    0.0                 !
 ! A33   A(10,15,18)           108.3227         -DE/DX =    0.0                 !
 ! A34   A(16,15,17)           111.5394         -DE/DX =    0.0                 !
 ! A35   A(16,15,18)           110.082          -DE/DX =    0.0                 !
 ! A36   A(17,15,18)           108.8138         -DE/DX =    0.0                 !
 ! A37   A(10,19,20)           104.4116         -DE/DX =    0.0                 !
 ! A38   A(10,19,21)           105.1134         -DE/DX =    0.0                 !
 ! A39   A(20,19,21)           107.255          -DE/DX =    0.0                 !
 ! A40   A(1,22,23)            111.0402         -DE/DX =    0.0                 !
 ! A41   A(1,22,24)            110.9468         -DE/DX =    0.0                 !
 ! A42   A(23,22,24)           107.14           -DE/DX =    0.0                 !
 ! D1    D(2,1,4,5)            -61.6518         -DE/DX =    0.0                 !
 ! D2    D(2,1,4,6)           -176.5765         -DE/DX =    0.0                 !
 ! D3    D(2,1,4,7)             62.7922         -DE/DX =    0.0                 !
 ! D4    D(3,1,4,5)           -177.9845         -DE/DX =    0.0                 !
 ! D5    D(3,1,4,6)             67.0908         -DE/DX =    0.0                 !
 ! D6    D(3,1,4,7)            -53.5405         -DE/DX =    0.0                 !
 ! D7    D(22,1,4,5)            57.0943         -DE/DX =    0.0                 !
 ! D8    D(22,1,4,6)           -57.8304         -DE/DX =    0.0                 !
 ! D9    D(22,1,4,7)          -178.4617         -DE/DX =    0.0                 !
 ! D10   D(2,1,22,23)         -169.8762         -DE/DX =    0.0                 !
 ! D11   D(2,1,22,24)          -50.8404         -DE/DX =    0.0                 !
 ! D12   D(3,1,22,23)          -51.0635         -DE/DX =    0.0                 !
 ! D13   D(3,1,22,24)           67.9723         -DE/DX =    0.0                 !
 ! D14   D(4,1,22,23)           71.222          -DE/DX =    0.0                 !
 ! D15   D(4,1,22,24)         -169.7422         -DE/DX =    0.0                 !
 ! D16   D(1,4,7,8)             20.551          -DE/DX =    0.0                 !
 ! D17   D(1,4,7,9)            139.3375         -DE/DX =    0.0                 !
 ! D18   D(1,4,7,10)           -98.395          -DE/DX =    0.0                 !
 ! D19   D(5,4,7,8)            143.292          -DE/DX =    0.0                 !
 ! D20   D(5,4,7,9)            -97.9214         -DE/DX =    0.0                 !
 ! D21   D(5,4,7,10)            24.346          -DE/DX =    0.0                 !
 ! D22   D(6,4,7,8)           -100.4147         -DE/DX =    0.0                 !
 ! D23   D(6,4,7,9)             18.3719         -DE/DX =    0.0                 !
 ! D24   D(6,4,7,10)           140.6393         -DE/DX =    0.0                 !
 ! D25   D(4,7,10,11)          -69.4049         -DE/DX =    0.0                 !
 ! D26   D(4,7,10,15)          173.9242         -DE/DX =    0.0                 !
 ! D27   D(4,7,10,19)           53.8608         -DE/DX =    0.0                 !
 ! D28   D(8,7,10,11)          168.9937         -DE/DX =    0.0                 !
 ! D29   D(8,7,10,15)           52.3228         -DE/DX =    0.0                 !
 ! D30   D(8,7,10,19)          -67.7407         -DE/DX =    0.0                 !
 ! D31   D(9,7,10,11)           54.5588         -DE/DX =    0.0                 !
 ! D32   D(9,7,10,15)          -62.112          -DE/DX =    0.0                 !
 ! D33   D(9,7,10,19)          177.8245         -DE/DX =    0.0                 !
 ! D34   D(7,10,11,12)        -177.3184         -DE/DX =    0.0                 !
 ! D35   D(7,10,11,13)         -55.8088         -DE/DX =    0.0                 !
 ! D36   D(7,10,11,14)          65.0664         -DE/DX =    0.0                 !
 ! D37   D(15,10,11,12)        -61.1995         -DE/DX =    0.0                 !
 ! D38   D(15,10,11,13)         60.3101         -DE/DX =    0.0                 !
 ! D39   D(15,10,11,14)       -178.8147         -DE/DX =    0.0                 !
 ! D40   D(19,10,11,12)         54.0446         -DE/DX =    0.0                 !
 ! D41   D(19,10,11,13)        175.5543         -DE/DX =    0.0                 !
 ! D42   D(19,10,11,14)        -63.5706         -DE/DX =    0.0                 !
 ! D43   D(7,10,15,16)          55.0258         -DE/DX =    0.0                 !
 ! D44   D(7,10,15,17)         176.9564         -DE/DX =    0.0                 !
 ! D45   D(7,10,15,18)         -65.4993         -DE/DX =    0.0                 !
 ! D46   D(11,10,15,16)        -62.8716         -DE/DX =    0.0                 !
 ! D47   D(11,10,15,17)         59.059          -DE/DX =    0.0                 !
 ! D48   D(11,10,15,18)        176.6034         -DE/DX =    0.0                 !
 ! D49   D(19,10,15,16)       -178.6065         -DE/DX =    0.0                 !
 ! D50   D(19,10,15,17)        -56.6759         -DE/DX =    0.0                 !
 ! D51   D(19,10,15,18)         60.8685         -DE/DX =    0.0                 !
 ! D52   D(7,10,19,20)          50.7683         -DE/DX =    0.0                 !
 ! D53   D(7,10,19,21)         -61.977          -DE/DX =    0.0                 !
 ! D54   D(11,10,19,20)        174.9972         -DE/DX =    0.0                 !
 ! D55   D(11,10,19,21)         62.2519         -DE/DX =    0.0                 !
 ! D56   D(15,10,19,20)        -69.2451         -DE/DX =    0.0                 !
 ! D57   D(15,10,19,21)        178.0097         -DE/DX =    0.0                 !
 --------------------------------------------------------------------------------
 GradGradGradGradGradGradGradGradGradGradGradGradGradGradGradGradGradGrad

                          Input orientation:                          
 ---------------------------------------------------------------------
 Center     Atomic      Atomic             Coordinates (Angstroms)
 Number     Number       Type             X           Y           Z
 ---------------------------------------------------------------------
      1          6           0        1.286874    0.490960   -0.384913
      2          1           0        0.551722    1.276763   -0.552223
      3          1           0        1.631529    0.155608   -1.373757
      4          6           0        0.604938   -0.675493    0.321606
      5          1           0        0.236031   -0.322986    1.284117
      6          1           0        1.355216   -1.438420    0.544350
      7          6           0       -0.506592   -1.326392   -0.495958
      8          1           0       -0.380858   -1.092206   -1.552775
      9          1           0       -0.474686   -2.413435   -0.393210
     10          7           0       -1.911188   -0.878827   -0.153151
     11          6           0       -2.284038   -1.387932    1.187201
     12          1           0       -3.309617   -1.087330    1.373651
     13          1           0       -2.173618   -2.472364    1.220066
     14          1           0       -1.646251   -0.927184    1.934758
     15          6           0       -2.818213   -1.504645   -1.144654
     16          1           0       -2.679316   -2.586966   -1.153886
     17          1           0       -3.834647   -1.235858   -0.877998
     18          1           0       -2.591698   -1.091012   -2.123705
     19          6           0       -2.189411    0.617836   -0.176167
     20          1           0       -1.811036    0.951214   -1.151742
     21          1           0       -1.531280    1.042602    0.590142
     22          7           0        2.355305    1.027504    0.449579
     23          1           0        3.137342    0.387657    0.494149
     24          1           0        2.703904    1.897886    0.074418
 ---------------------------------------------------------------------
                    Distance matrix (angstroms):
                    1          2          3          4          5
     1  C    0.000000
     2  H    1.089004   0.000000
     3  H    1.099573   1.760083   0.000000
     4  C    1.524736   2.139559   2.149157   0.000000
     5  H    2.133645   2.455810   3.039862   1.089395   0.000000
     6  H    2.142593   3.036494   2.509265   1.092972   1.744713
     7  C    2.555703   2.810625   2.745618   1.525640   2.174161
     8  H    2.579078   2.735475   2.374614   2.158413   3.003366
     9  H    3.396862   3.833584   3.463755   2.167254   2.772819
    10  N    3.486779   3.297234   3.887259   2.568585   2.642962
    11  C    4.330495   4.262362   4.926732   3.098871   2.737562
    12  H    5.168296   4.920149   5.788616   4.074328   3.628203
    13  H    4.830347   4.962302   5.302198   3.428753   3.229604
    14  H    3.999404   3.984162   4.781481   2.780910   2.081196
    15  C    4.627244   4.409498   4.754907   3.815151   4.077211
    16  H    5.078937   5.072475   5.114043   4.076410   4.423653
    17  H    5.427247   5.065533   5.662246   4.632814   4.698776
    18  H    4.535345   4.237571   4.466781   4.046070   4.494348
    19  C    3.484857   2.844189   4.030814   3.119113   2.983344
    20  H    3.224424   2.459275   3.540273   3.264025   3.427459
    21  H    3.032661   2.387200   3.827142   2.754522   2.338764
    22  N    1.458013   2.078136   2.146767   2.445478   2.647943
    23  H    2.051257   2.927599   2.410476   2.751932   3.089769
    24  H    2.049000   2.326018   2.506538   3.330021   3.533559
                    6          7          8          9         10
     6  H    0.000000
     7  C    2.135677   0.000000
     8  H    2.744404   1.089732   0.000000
     9  H    2.275569   1.092354   1.760410   0.000000
    10  N    3.386598   1.513513   2.084800   2.115701   0.000000
    11  C    3.695940   2.448698   3.349181   2.612109   1.481468
    12  H    4.750966   3.377801   4.140245   3.594050   2.080914
    13  H    3.738757   2.652728   3.578753   2.343610   2.119895
    14  H    3.347148   2.714143   3.713670   3.000158   2.105207
    15  C    4.502736   2.407524   2.505468   2.623488   1.482370
    16  H    4.525550   2.596660   2.770618   2.338618   2.123494
    17  H    5.385051   3.351134   3.522018   3.593194   2.086281
    18  H    4.776750   2.655679   2.283369   3.037294   2.095519
    19  C    4.160734   2.591171   2.844320   3.489412   1.522477
    20  H    4.314189   2.705387   2.526223   3.698928   2.087166
    21  H    3.806498   2.800309   3.236196   3.745339   2.094923
    22  N    2.662695   3.824307   3.998648   4.534226   4.711725
    23  H    2.552068   4.146870   4.331008   4.656208   5.245059
    24  H    3.629150   4.585693   4.593927   5.376765   5.390825
                   11         12         13         14         15
    11  C    0.000000
    12  H    1.084868   0.000000
    13  H    1.090535   1.797888   0.000000
    14  H    1.085312   1.762746   1.782269   0.000000
    15  C    2.395102   2.599517   2.635124   3.345106   0.000000
    16  H    2.659814   3.005766   2.429919   3.655382   1.091236
    17  H    2.586999   2.316817   2.947852   3.577143   1.084660
    18  H    3.338399   3.570283   3.641940   4.170352   1.086711
    19  C    2.427103   2.562107   3.391025   2.671726   2.416254
    20  H    3.341554   3.574775   4.180649   3.616907   2.654374
    21  H    2.613545   2.883224   3.628277   2.387734   3.339788
    22  N    5.282227   6.117008   5.775282   4.694573   5.976508
    23  H    5.746686   6.671761   6.075605   5.165939   6.460273
    24  H    6.075726   6.838272   6.648445   5.510512   6.599783
                   16         17         18         19         20
    16  H    0.000000
    17  H    1.798998   0.000000
    18  H    1.784966   1.765697   0.000000
    19  C    3.386251   2.575956   2.622003   0.000000
    20  H    3.643162   2.992193   2.392662   1.098205   0.000000
    21  H    4.187288   3.557009   3.611338   1.095807   1.766571
    22  N    6.401789   6.723152   5.965127   4.605847   4.464129
    23  H    6.737797   7.288842   6.470049   5.373696   5.245284
    24  H    7.113486   7.313009   6.465962   5.064174   4.773295
                   21         22         23         24
    21  H    0.000000
    22  N    3.889155   0.000000
    23  H    4.715315   1.011421   0.000000
    24  H    4.351352   1.009867   1.626294   0.000000
 Stoichiometry    C6H16N2
 Framework group  C1[X(C6H16N2)]
 Deg. of freedom    66
 Full point group                 C1      NOp   1
 Largest Abelian subgroup         C1      NOp   1
 Largest concise Abelian subgroup C1      NOp   1
                         Standard orientation:                         
 ---------------------------------------------------------------------
 Center     Atomic      Atomic             Coordinates (Angstroms)
 Number     Number       Type             X           Y           Z
 ---------------------------------------------------------------------
      1          6           0       -2.128684   -0.437144   -0.251788
      2          1           0       -1.738552   -1.259813    0.345658
      3          1           0       -2.246469   -0.811690   -1.278872
      4          6           0       -1.106965    0.694628   -0.253487
      5          1           0       -0.971451    1.033661    0.772902
      6          1           0       -1.523794    1.543386   -0.801621
      7          6           0        0.225105    0.321334   -0.896775
      8          1           0        0.096904   -0.540764   -1.550891
      9          1           0        0.602633    1.144870   -1.507101
     10          7           0        1.324004   -0.070217    0.067503
     11          6           0        1.764111    1.119710    0.832439
     12          1           0        2.581117    0.807644    1.474354
     13          1           0        2.073374    1.911140    0.148875
     14          1           0        0.946235    1.466504    1.455910
     15          6           0        2.470705   -0.534083   -0.749398
     16          1           0        2.755982    0.233329   -1.470848
     17          1           0        3.285570   -0.766816   -0.072406
     18          1           0        2.175549   -1.442380   -1.267876
     19          6           0        1.011517   -1.175871    1.066412
     20          1           0        0.606749   -1.991974    0.453067
     21          1           0        0.187244   -0.786792    1.674675
     22          7           0       -3.378671    0.016376    0.346255
     23          1           0       -3.858718    0.664899   -0.263620
     24          1           0       -4.004441   -0.759757    0.507065
 ---------------------------------------------------------------------
 Rotational constants (GHZ):           3.9622302           0.9793485           0.9668360

 **********************************************************************

            Population analysis using the SCF density.

 **********************************************************************

 Orbital symmetries:
       Occupied  (A) (A) (A) (A) (A) (A) (A) (A) (A) (A) (A) (A)
                 (A) (A) (A) (A) (A) (A) (A) (A) (A) (A) (A) (A)
                 (A) (A) (A) (A) (A) (A) (A) (A) (A)
       Virtual   (A) (A) (A) (A) (A) (A) (A) (A) (A) (A) (A) (A)
                 (A) (A) (A) (A) (A) (A) (A) (A) (A) (A) (A) (A)
                 (A) (A) (A) (A) (A) (A) (A) (A) (A) (A) (A) (A)
                 (A) (A) (A) (A) (A) (A) (A) (A) (A) (A) (A) (A)
                 (A) (A) (A) (A) (A) (A) (A) (A) (A) (A) (A) (A)
                 (A) (A) (A) (A) (A) (A) (A) (A) (A) (A) (A) (A)
                 (A) (A) (A) (A) (A) (A) (A) (A) (A) (A) (A) (A)
                 (A) (A) (A) (A) (A) (A) (A) (A) (A) (A) (A) (A)
                 (A) (A) (A) (A) (A) (A) (A) (A) (A) (A) (A) (A)
                 (A) (A) (A) (A) (A) (A) (A) (A) (A) (A) (A) (A)
                 (A) (A) (A) (A) (A) (A) (A) (A) (A) (A) (A) (A)
                 (A) (A) (A) (A) (A) (A) (A) (A) (A) (A) (A) (A)
                 (A) (A) (A) (A) (A) (A) (A) (A) (A) (A) (A) (A)
                 (A) (A) (A) (A) (A) (A) (A) (A) (A) (A) (A) (A)
                 (A) (A) (A) (A) (A) (A) (A) (A) (A) (A) (A) (A)
                 (A) (A) (A) (A) (A) (A) (A) (A) (A) (A) (A) (A)
                 (A) (A) (A) (A) (A) (A) (A) (A) (A) (A) (A) (A)
                 (A) (A) (A) (A) (A) (A) (A) (A) (A) (A) (A) (A)
                 (A) (A) (A) (A) (A) (A) (A) (A) (A) (A) (A) (A)
                 (A) (A) (A) (A) (A) (A) (A) (A) (A) (A) (A) (A)
                 (A) (A) (A) (A) (A) (A) (A) (A) (A) (A) (A) (A)
                 (A) (A) (A) (A) (A) (A) (A) (A) (A) (A) (A) (A)
                 (A) (A) (A) (A) (A) (A) (A) (A) (A) (A) (A) (A)
                 (A) (A) (A) (A) (A) (A) (A) (A) (A) (A) (A) (A)
                 (A) (A) (A) (A) (A) (A) (A) (A) (A) (A) (A) (A)
                 (A) (A) (A) (A) (A) (A) (A) (A) (A) (A) (A) (A)
                 (A) (A) (A) (A) (A) (A) (A) (A) (A) (A) (A) (A)
                 (A) (A) (A)
 The electronic state is 1-A.
 Alpha  occ. eigenvalues --  -14.53138 -14.41304 -10.33073 -10.31881 -10.31877
 Alpha  occ. eigenvalues --  -10.30417 -10.28873 -10.21203  -1.09291  -0.98911
 Alpha  occ. eigenvalues --   -0.88686  -0.83611  -0.79347  -0.77656  -0.70580
 Alpha  occ. eigenvalues --   -0.67249  -0.60903  -0.59024  -0.57472  -0.56699
 Alpha  occ. eigenvalues --   -0.54382  -0.53504  -0.51286  -0.49200  -0.48253
 Alpha  occ. eigenvalues --   -0.47504  -0.45265  -0.44186  -0.43628  -0.42414
 Alpha  occ. eigenvalues --   -0.40235  -0.32855  -0.21731
 Alpha virt. eigenvalues --    0.05146   0.06493   0.06952   0.07661   0.08951
 Alpha virt. eigenvalues --    0.09624   0.09916   0.10776   0.11103   0.12101
 Alpha virt. eigenvalues --    0.12829   0.13831   0.14192   0.14531   0.15506
 Alpha virt. eigenvalues --    0.15852   0.16967   0.17325   0.17717   0.19087
 Alpha virt. eigenvalues --    0.19542   0.20176   0.20756   0.21548   0.22010
 Alpha virt. eigenvalues --    0.22907   0.23187   0.24031   0.24515   0.24669
 Alpha virt. eigenvalues --    0.25244   0.25524   0.25959   0.26855   0.27101
 Alpha virt. eigenvalues --    0.28350   0.29545   0.30003   0.30373   0.31285
 Alpha virt. eigenvalues --    0.31602   0.32915   0.33026   0.33642   0.34409
 Alpha virt. eigenvalues --    0.34541   0.34931   0.35503   0.36905   0.37242
 Alpha virt. eigenvalues --    0.39296   0.39606   0.40962   0.43645   0.45175
 Alpha virt. eigenvalues --    0.45836   0.48006   0.48790   0.49958   0.51390
 Alpha virt. eigenvalues --    0.53172   0.54557   0.55055   0.56743   0.57281
 Alpha virt. eigenvalues --    0.58514   0.59260   0.59295   0.59872   0.60641
 Alpha virt. eigenvalues --    0.62515   0.62815   0.63002   0.63266   0.64506
 Alpha virt. eigenvalues --    0.65026   0.65708   0.66524   0.67570   0.69174
 Alpha virt. eigenvalues --    0.69818   0.70142   0.71370   0.72372   0.72833
 Alpha virt. eigenvalues --    0.73191   0.75131   0.75427   0.76601   0.76959
 Alpha virt. eigenvalues --    0.77575   0.77757   0.78500   0.79747   0.79895
 Alpha virt. eigenvalues --    0.82346   0.84381   0.85121   0.85923   0.86879
 Alpha virt. eigenvalues --    0.89915   0.91947   0.92759   0.96111   0.97153
 Alpha virt. eigenvalues --    0.98009   1.00060   1.02182   1.02446   1.03623
 Alpha virt. eigenvalues --    1.06166   1.06715   1.07229   1.08427   1.09404
 Alpha virt. eigenvalues --    1.10071   1.12426   1.13773   1.15531   1.16195
 Alpha virt. eigenvalues --    1.17151   1.18492   1.19584   1.20556   1.21322
 Alpha virt. eigenvalues --    1.22522   1.24136   1.24731   1.25164   1.27163
 Alpha virt. eigenvalues --    1.27620   1.29316   1.29851   1.31559   1.33826
 Alpha virt. eigenvalues --    1.35066   1.35273   1.36741   1.37364   1.38253
 Alpha virt. eigenvalues --    1.39118   1.40090   1.40953   1.41649   1.42630
 Alpha virt. eigenvalues --    1.43466   1.45025   1.45860   1.46902   1.47713
 Alpha virt. eigenvalues --    1.48600   1.49580   1.50482   1.50875   1.51925
 Alpha virt. eigenvalues --    1.53655   1.54148   1.54556   1.55530   1.58069
 Alpha virt. eigenvalues --    1.58646   1.58865   1.59135   1.62473   1.63724
 Alpha virt. eigenvalues --    1.63982   1.66344   1.67753   1.69059   1.69155
 Alpha virt. eigenvalues --    1.69919   1.70934   1.72553   1.73944   1.75629
 Alpha virt. eigenvalues --    1.76628   1.77900   1.79539   1.81471   1.84779
 Alpha virt. eigenvalues --    1.85702   1.88712   1.90668   1.92867   1.95380
 Alpha virt. eigenvalues --    1.98872   2.02683   2.05047   2.06278   2.11056
 Alpha virt. eigenvalues --    2.11699   2.78331   2.78793   2.83646   2.84228
 Alpha virt. eigenvalues --    2.87451   2.89339   2.91561   2.95406   2.97145
 Alpha virt. eigenvalues --    3.01211   3.02552   3.08710   3.12952   3.14412
 Alpha virt. eigenvalues --    3.19825   3.22588   3.25461   3.26874   3.27520
 Alpha virt. eigenvalues --    3.29023   3.32015   3.34088   3.34800   3.38558
 Alpha virt. eigenvalues --    3.39839   3.42318   3.43433   3.44348   3.46333
 Alpha virt. eigenvalues --    3.49090   3.50041   3.51471   3.53334   3.54138
 Alpha virt. eigenvalues --    3.56109   3.57648   3.58629   3.60188   3.61288
 Alpha virt. eigenvalues --    3.63676   3.64266   3.66606   3.67024   3.67829
 Alpha virt. eigenvalues --    3.70778   3.72482   3.72865   3.74749   3.76616
 Alpha virt. eigenvalues --    3.77353   3.79821   3.80630   3.82826   3.83524
 Alpha virt. eigenvalues --    3.84030   3.85173   3.88718   3.90571   3.91371
 Alpha virt. eigenvalues --    3.92907   3.93302   3.94391   3.96884   4.00080
 Alpha virt. eigenvalues --    4.01096   4.02645   4.04397   4.05465   4.06251
 Alpha virt. eigenvalues --    4.08457   4.09396   4.10769   4.11856   4.12698
 Alpha virt. eigenvalues --    4.14643   4.15822   4.17543   4.17991   4.19386
 Alpha virt. eigenvalues --    4.21987   4.24214   4.24473   4.26070   4.26626
 Alpha virt. eigenvalues --    4.29034   4.30091   4.31676   4.31980   4.35099
 Alpha virt. eigenvalues --    4.37040   4.39441   4.40015   4.40669   4.41787
 Alpha virt. eigenvalues --    4.42534   4.43323   4.46064   4.49664   4.50788
 Alpha virt. eigenvalues --    4.53779   4.56635   4.60289   4.68679   4.87993
 Alpha virt. eigenvalues --    4.96511   5.02550   5.05099   5.06477   5.11370
 Alpha virt. eigenvalues --    5.12701   5.14218   5.14553   5.15038   5.18265
 Alpha virt. eigenvalues --    5.19007   5.21315   5.24683   5.25223   5.27149
 Alpha virt. eigenvalues --    5.31008   5.35421   5.44927   5.52258   5.68179
 Alpha virt. eigenvalues --    5.70337   5.71763   5.86257   6.05645  24.01617
 Alpha virt. eigenvalues --   24.07080  24.11002  24.16802  24.19505  24.21789
 Alpha virt. eigenvalues --   35.59766  35.77137
          Condensed to atoms (all electrons):
               1          2          3          4          5          6
     1  C    5.066530   0.473940   0.445407  -0.018727  -0.041703  -0.010962
     2  H    0.473940   0.515399  -0.034579  -0.035726  -0.006755   0.004419
     3  H    0.445407  -0.034579   0.605954  -0.010704   0.005191  -0.008534
     4  C   -0.018727  -0.035726  -0.010704   5.736016   0.470547   0.438393
     5  H   -0.041703  -0.006755   0.005191   0.470547   0.492763  -0.026595
     6  H   -0.010962   0.004419  -0.008534   0.438393  -0.026595   0.533120
     7  C    0.043308  -0.003190  -0.038974  -0.023817  -0.030679  -0.034194
     8  H   -0.012277  -0.001159   0.005910  -0.005232   0.003128   0.001878
     9  H    0.015800  -0.000246   0.000101  -0.081943   0.000982  -0.010413
    10  N    0.073995   0.001079  -0.001123  -0.174477   0.004162   0.003388
    11  C    0.024374   0.000317  -0.000246  -0.106220  -0.008670   0.001625
    12  H   -0.000918  -0.000014   0.000003   0.003950   0.000016  -0.000038
    13  H   -0.001801   0.000005   0.000006   0.000625   0.000163   0.000228
    14  H    0.001765   0.000084  -0.000044  -0.009239   0.004128   0.000136
    15  C    0.023719  -0.000818  -0.000718  -0.078340   0.000813   0.001155
    16  H   -0.002345   0.000011   0.000005   0.003493   0.000063  -0.000036
    17  H   -0.000386  -0.000004   0.000001   0.005149  -0.000037   0.000010
    18  H    0.001072  -0.000037   0.000017  -0.008310  -0.000008   0.000008
    19  C   -0.032555  -0.006427   0.001475   0.078516  -0.002226  -0.001955
    20  H    0.010613  -0.000603  -0.000238  -0.048052   0.000321  -0.000148
    21  H    0.014905  -0.001676   0.000282   0.023733  -0.004502   0.000405
    22  N    0.229928  -0.035610  -0.055522  -0.030558   0.000196  -0.002077
    23  H    0.005016   0.005349  -0.008319  -0.032839   0.000020   0.003098
    24  H   -0.039183  -0.006572  -0.001089   0.015813   0.000179  -0.000202
               7          8          9         10         11         12
     1  C    0.043308  -0.012277   0.015800   0.073995   0.024374  -0.000918
     2  H   -0.003190  -0.001159  -0.000246   0.001079   0.000317  -0.000014
     3  H   -0.038974   0.005910   0.000101  -0.001123  -0.000246   0.000003
     4  C   -0.023817  -0.005232  -0.081943  -0.174477  -0.106220   0.003950
     5  H   -0.030679   0.003128   0.000982   0.004162  -0.008670   0.000016
     6  H   -0.034194   0.001878  -0.010413   0.003388   0.001625  -0.000038
     7  C    5.381189   0.447927   0.466850  -0.005441  -0.040278   0.009610
     8  H    0.447927   0.528504  -0.028117  -0.064868  -0.011597  -0.000193
     9  H    0.466850  -0.028117   0.511309  -0.006895   0.000260  -0.000204
    10  N   -0.005441  -0.064868  -0.006895   7.031039   0.280075  -0.039147
    11  C   -0.040278  -0.011597   0.000260   0.280075   4.980129   0.427818
    12  H    0.009610  -0.000193  -0.000204  -0.039147   0.427818   0.486691
    13  H    0.000136   0.001205   0.001637  -0.025922   0.412427  -0.023640
    14  H    0.000685  -0.000626  -0.000461  -0.029378   0.432013  -0.016590
    15  C   -0.142030   0.004911   0.000190   0.336798   0.009905  -0.014124
    16  H    0.016433  -0.000390   0.001301  -0.028686  -0.022022  -0.000547
    17  H    0.005449  -0.000068  -0.000097  -0.035921  -0.002049   0.003681
    18  H   -0.012291   0.002511  -0.000726  -0.026763   0.006129  -0.000021
    19  C    0.120840  -0.000461  -0.008098  -0.098634  -0.234939   0.005336
    20  H    0.017635  -0.005621  -0.000069   0.026983   0.024097   0.000516
    21  H   -0.058491  -0.000509  -0.000066   0.017424  -0.006469  -0.002025
    22  N    0.008450  -0.000540  -0.000505  -0.003708   0.002694   0.000013
    23  H    0.003340   0.000074  -0.000033  -0.000476  -0.000123  -0.000000
    24  H    0.003563   0.000002  -0.000004  -0.000381  -0.000072   0.000000
              13         14         15         16         17         18
     1  C   -0.001801   0.001765   0.023719  -0.002345  -0.000386   0.001072
     2  H    0.000005   0.000084  -0.000818   0.000011  -0.000004  -0.000037
     3  H    0.000006  -0.000044  -0.000718   0.000005   0.000001   0.000017
     4  C    0.000625  -0.009239  -0.078340   0.003493   0.005149  -0.008310
     5  H    0.000163   0.004128   0.000813   0.000063  -0.000037  -0.000008
     6  H    0.000228   0.000136   0.001155  -0.000036   0.000010   0.000008
     7  C    0.000136   0.000685  -0.142030   0.016433   0.005449  -0.012291
     8  H    0.001205  -0.000626   0.004911  -0.000390  -0.000068   0.002511
     9  H    0.001637  -0.000461   0.000190   0.001301  -0.000097  -0.000726
    10  N   -0.025922  -0.029378   0.336798  -0.028686  -0.035921  -0.026763
    11  C    0.412427   0.432013   0.009905  -0.022022  -0.002049   0.006129
    12  H   -0.023640  -0.016590  -0.014124  -0.000547   0.003681  -0.000021
    13  H    0.539018  -0.028223  -0.014850   0.005961  -0.000908  -0.000016
    14  H   -0.028223   0.518998   0.010187  -0.000331  -0.000037  -0.000315
    15  C   -0.014850   0.010187   4.977571   0.394278   0.425944   0.442895
    16  H    0.005961  -0.000331   0.394278   0.553702  -0.024688  -0.030476
    17  H   -0.000908  -0.000037   0.425944  -0.024688   0.489436  -0.014417
    18  H   -0.000016  -0.000315   0.442895  -0.030476  -0.014417   0.513689
    19  C    0.014019  -0.023388  -0.278165   0.021893  -0.008467  -0.017230
    20  H   -0.000632   0.000552  -0.009412  -0.000628  -0.000649   0.001449
    21  H   -0.000077   0.003720   0.024608  -0.000531   0.000509   0.000507
    22  N    0.000025  -0.000322  -0.001483   0.000019  -0.000005  -0.000002
    23  H    0.000001   0.000003  -0.000122   0.000001   0.000000  -0.000000
    24  H   -0.000000  -0.000001  -0.000019  -0.000000   0.000000  -0.000000
              19         20         21         22         23         24
     1  C   -0.032555   0.010613   0.014905   0.229928   0.005016  -0.039183
     2  H   -0.006427  -0.000603  -0.001676  -0.035610   0.005349  -0.006572
     3  H    0.001475  -0.000238   0.000282  -0.055522  -0.008319  -0.001089
     4  C    0.078516  -0.048052   0.023733  -0.030558  -0.032839   0.015813
     5  H   -0.002226   0.000321  -0.004502   0.000196   0.000020   0.000179
     6  H   -0.001955  -0.000148   0.000405  -0.002077   0.003098  -0.000202
     7  C    0.120840   0.017635  -0.058491   0.008450   0.003340   0.003563
     8  H   -0.000461  -0.005621  -0.000509  -0.000540   0.000074   0.000002
     9  H   -0.008098  -0.000069  -0.000066  -0.000505  -0.000033  -0.000004
    10  N   -0.098634   0.026983   0.017424  -0.003708  -0.000476  -0.000381
    11  C   -0.234939   0.024097  -0.006469   0.002694  -0.000123  -0.000072
    12  H    0.005336   0.000516  -0.002025   0.000013  -0.000000   0.000000
    13  H    0.014019  -0.000632  -0.000077   0.000025   0.000001  -0.000000
    14  H   -0.023388   0.000552   0.003720  -0.000322   0.000003  -0.000001
    15  C   -0.278165  -0.009412   0.024608  -0.001483  -0.000122  -0.000019
    16  H    0.021893  -0.000628  -0.000531   0.000019   0.000001  -0.000000
    17  H   -0.008467  -0.000649   0.000509  -0.000005   0.000000   0.000000
    18  H   -0.017230   0.001449   0.000507  -0.000002  -0.000000  -0.000000
    19  C    6.386359   0.362480   0.360223  -0.001140  -0.000542  -0.000235
    20  H    0.362480   0.586611  -0.043838   0.000687  -0.000025  -0.000024
    21  H    0.360223  -0.043838   0.592978  -0.001704  -0.000035   0.000054
    22  N   -0.001140   0.000687  -0.001704   6.485782   0.392308   0.414550
    23  H   -0.000542  -0.000025  -0.000035   0.392308   0.510441  -0.038379
    24  H   -0.000235  -0.000024   0.000054   0.414550  -0.038379   0.480804
 Mulliken charges:
               1
     1  C   -0.269517
     2  H    0.132815
     3  H    0.095739
     4  C   -0.112049
     5  H    0.138503
     6  H    0.107290
     7  C   -0.136029
     8  H    0.135609
     9  H    0.139447
    10  N   -0.233124
    11  C   -0.169177
    12  H    0.159829
    13  H    0.120613
    14  H    0.136684
    15  C   -0.112894
    16  H    0.113522
    17  H    0.157555
    18  H    0.142334
    19  C   -0.636678
    20  H    0.077996
    21  H    0.080574
    22  N   -0.401476
    23  H    0.161241
    24  H    0.171197
 Sum of Mulliken charges =  -0.00000
 Mulliken charges with hydrogens summed into heavy atoms:
               1
     1  C   -0.040964
     4  C    0.133743
     7  C    0.139026
    10  N   -0.233124
    11  C    0.247949
    15  C    0.300517
    19  C   -0.478108
    22  N   -0.069038
 Electronic spatial extent (au):  <R**2>=           1374.0613
 Charge=              0.0000 electrons
 Dipole moment (field-independent basis, Debye):
    X=             -0.6791    Y=              2.9996    Z=             -4.5698  Tot=              5.5083
 Quadrupole moment (field-independent basis, Debye-Ang):
   XX=            -48.6225   YY=            -56.0680   ZZ=            -58.9814
   XY=              7.6184   XZ=             -2.3098   YZ=              4.7599
 Traceless Quadrupole moment (field-independent basis, Debye-Ang):
   XX=              5.9348   YY=             -1.5107   ZZ=             -4.4241
   XY=              7.6184   XZ=             -2.3098   YZ=              4.7599
 Octapole moment (field-independent basis, Debye-Ang**2):
  XXX=            -23.6399  YYY=             13.5543  ZZZ=            -16.9618  XYY=            -11.9456
  XXY=              3.4963  XXZ=            -23.0340  XZZ=             -5.0479  YZZ=             10.7756
  YYZ=            -10.3546  XYZ=             16.3500
 Hexadecapole moment (field-independent basis, Debye-Ang**3):
 XXXX=          -1156.2017 YYYY=           -297.5676 ZZZZ=           -290.5967 XXXY=             48.6405
 XXXZ=             10.3555 YYYX=             27.4820 YYYZ=             19.2540 ZZZX=            -20.1993
 ZZZY=             24.7423 XXYY=           -263.9347 XXZZ=           -291.5880 YYZZ=            -99.9136
 XXYZ=              1.7728 YYXZ=            -19.4467 ZZXY=             22.9235
 N-N= 4.207657668364D+02 E-N=-1.647777428709D+03  KE= 3.461080282257D+02
 1\1\GINC-CCLEARMO\FOpt\RwB97XD\6-311+G(2d,2p)\C6H16N2\TROUPPER\01-Oct-
 2026\0\\# opt freq wb97xd/6-311+g(2d,2p) scf=xqc\\opt freq\\0,1\C,1.28
 6874032,0.4909595054,-0.3849133737\H,0.5517220855,1.2767634521,-0.5522
 226745\H,1.6315290931,0.1556083607,-1.3737574903\C,0.6049379708,-0.675
 4934206,0.3216056712\H,0.23603086,-0.3229857988,1.2841166115\H,1.35521
 58678,-1.4384200439,0.5443495978\C,-0.5065919731,-1.3263922677,-0.4959
 576935\H,-0.3808583442,-1.0922055426,-1.5527753788\H,-0.4746856537,-2.
 413435235,-0.3932104681\N,-1.9111882705,-0.8788265986,-0.1531507246\C,
 -2.2840375375,-1.3879317969,1.1872008298\H,-3.3096172251,-1.0873297483
 ,1.3736513281\H,-2.1736184638,-2.4723640315,1.2200657906\H,-1.64625102
 88,-0.927184327,1.9347584289\C,-2.8182132777,-1.504645144,-1.144653804
 2\H,-2.6793156308,-2.5869655657,-1.1538856803\H,-3.8346466464,-1.23585
 82927,-0.8779981652\H,-2.5916982829,-1.0910120919,-2.1237045467\C,-2.1
 894107542,0.6178359721,-0.176167186\H,-1.8110361882,0.951214019,-1.151
 741686\H,-1.5312795741,1.0426021775,0.5901416423\N,2.3553053303,1.0275
 043334,0.4495788053\H,3.1373423923,0.3876569807,0.4941493111\H,2.70390
 43792,1.8978857343,0.0744181254\\Version=EM64M-G16RevA.03\State=1-A\HF
 =-347.6637292\RMSD=9.230e-09\RMSF=1.423e-05\Dipole=1.0798995,-1.822282
 2,-0.457857\Quadrupole=-0.5246582,-0.3885677,0.9132259,7.4893713,-1.92
 70691,-1.7013296\PG=C01 [X(C6H16N2)]\\@


 A SCIENTIST IS SOMEONE WHOSE CURIOSITY SURVIVES
 EDUCATION'S ASSAULTS ON IT.
                          - SIR HERMANN BONDI
 Job cpu time:       0 days  8 hours 19 minutes 29.0 seconds.
 Elapsed time:       0 days  0 hours 22 minutes 58.8 seconds.
 File lengths (MBytes):  RWF=     83 Int=      0 D2E=      0 Chk=     11 Scr=      1
 Normal termination of Gaussian 16 at Thu Oct  1 08:56:12 2026.
 Link1:  Proceeding to internal job step number  2.
 ----------------------------------------------------------------------
 #N Geom=AllCheck Guess=TCheck SCRF=Check GenChk RwB97XD/6-311+G(2d,2p)
  Freq
 ----------------------------------------------------------------------
 1/10=4,29=7,30=1,38=1,40=1/1,3;
 2/12=2,40=1/2;
 3/5=4,6=6,7=212,11=2,14=-4,25=1,30=1,70=2,71=2,74=-58,116=1,140=1/1,2,3;
 4/5=101/1;
 5/5=2,8=3,13=1,38=6,98=1/2,8;
 8/6=4,10=90,11=11/1;
 11/6=1,8=1,9=11,15=111,16=1/1,2,10;
 10/6=1/2;
 6/7=2,8=2,9=2,10=2,28=1/1;
 7/8=1,10=1,25=1/1,2,3,16;
 1/10=4,30=1/3;
 99//99;
 Structure from the checkpoint file:  "diaminopropyl_ylide.chk"
 --------
 opt freq
 --------
 Charge =  0 Multiplicity = 1
 Redundant internal coordinates found in file.  (old form).
 C,0,1.286874032,0.4909595054,-0.3849133737
 H,0,0.5517220855,1.2767634521,-0.5522226745
 H,0,1.6315290931,0.1556083607,-1.3737574903
 C,0,0.6049379708,-0.6754934206,0.3216056712
 H,0,0.23603086,-0.3229857988,1.2841166115
 H,0,1.3552158678,-1.4384200439,0.5443495978
 C,0,-0.5065919731,-1.3263922677,-0.4959576935
 H,0,-0.3808583442,-1.0922055426,-1.5527753788
 H,0,-0.4746856537,-2.413435235,-0.3932104681
 N,0,-1.9111882705,-0.8788265986,-0.1531507246
 C,0,-2.2840375375,-1.3879317969,1.1872008298
 H,0,-3.3096172251,-1.0873297483,1.3736513281
 H,0,-2.1736184638,-2.4723640315,1.2200657906
 H,0,-1.6462510288,-0.927184327,1.9347584289
 C,0,-2.8182132777,-1.504645144,-1.1446538042
 H,0,-2.6793156308,-2.5869655657,-1.1538856803
 H,0,-3.8346466464,-1.2358582927,-0.8779981652
 H,0,-2.5916982829,-1.0910120919,-2.1237045467
 C,0,-2.1894107542,0.6178359721,-0.176167186
 H,0,-1.8110361882,0.951214019,-1.151741686
 H,0,-1.5312795741,1.0426021775,0.5901416423
 N,0,2.3553053303,1.0275043334,0.4495788053
 H,0,3.1373423923,0.3876569807,0.4941493111
 H,0,2.7039043792,1.8978857343,0.0744181254
 Recover connectivity data from disk.

 GradGradGradGradGradGradGradGradGradGradGradGradGradGradGradGradGradGrad
 Berny optimization.
 Initialization pass.
                           ----------------------------
                           !    Initial Parameters    !
                           ! (Angstroms and Degrees)  !
 --------------------------                            --------------------------
 ! Name  Definition              Value          Derivative Info.                !
 --------------------------------------------------------------------------------
 ! R1    R(1,2)                  1.089          calculate D2E/DX2 analytically  !
 ! R2    R(1,3)                  1.0996         calculate D2E/DX2 analytically  !
 ! R3    R(1,4)                  1.5247         calculate D2E/DX2 analytically  !
 ! R4    R(1,22)                 1.458          calculate D2E/DX2 analytically  !
 ! R5    R(4,5)                  1.0894         calculate D2E/DX2 analytically  !
 ! R6    R(4,6)                  1.093          calculate D2E/DX2 analytically  !
 ! R7    R(4,7)                  1.5256         calculate D2E/DX2 analytically  !
 ! R8    R(7,8)                  1.0897         calculate D2E/DX2 analytically  !
 ! R9    R(7,9)                  1.0924         calculate D2E/DX2 analytically  !
 ! R10   R(7,10)                 1.5135         calculate D2E/DX2 analytically  !
 ! R11   R(10,11)                1.4815         calculate D2E/DX2 analytically  !
 ! R12   R(10,15)                1.4824         calculate D2E/DX2 analytically  !
 ! R13   R(10,19)                1.5225         calculate D2E/DX2 analytically  !
 ! R14   R(11,12)                1.0849         calculate D2E/DX2 analytically  !
 ! R15   R(11,13)                1.0905         calculate D2E/DX2 analytically  !
 ! R16   R(11,14)                1.0853         calculate D2E/DX2 analytically  !
 ! R17   R(15,16)                1.0912         calculate D2E/DX2 analytically  !
 ! R18   R(15,17)                1.0847         calculate D2E/DX2 analytically  !
 ! R19   R(15,18)                1.0867         calculate D2E/DX2 analytically  !
 ! R20   R(19,20)                1.0982         calculate D2E/DX2 analytically  !
 ! R21   R(19,21)                1.0958         calculate D2E/DX2 analytically  !
 ! R22   R(22,23)                1.0114         calculate D2E/DX2 analytically  !
 ! R23   R(22,24)                1.0099         calculate D2E/DX2 analytically  !
 ! A1    A(2,1,3)              107.0678         calculate D2E/DX2 analytically  !
 ! A2    A(2,1,4)              108.741          calculate D2E/DX2 analytically  !
 ! A3    A(2,1,22)             108.4866         calculate D2E/DX2 analytically  !
 ! A4    A(3,1,4)              108.8795         calculate D2E/DX2 analytically  !
 ! A5    A(3,1,22)             113.4066         calculate D2E/DX2 analytically  !
 ! A6    A(4,1,22)             110.1243         calculate D2E/DX2 analytically  !
 ! A7    A(1,4,5)              108.2588         calculate D2E/DX2 analytically  !
 ! A8    A(1,4,6)              108.749          calculate D2E/DX2 analytically  !
 ! A9    A(1,4,7)              113.8238         calculate D2E/DX2 analytically  !
 ! A10   A(5,4,6)              106.1568         calculate D2E/DX2 analytically  !
 ! A11   A(5,4,7)              111.3954         calculate D2E/DX2 analytically  !
 ! A12   A(6,4,7)              108.1516         calculate D2E/DX2 analytically  !
 ! A13   A(4,7,8)              110.1176         calculate D2E/DX2 analytically  !
 ! A14   A(4,7,9)              110.6635         calculate D2E/DX2 analytically  !
 ! A15   A(4,7,10)             115.3786         calculate D2E/DX2 analytically  !
 ! A16   A(8,7,9)              107.5602         calculate D2E/DX2 analytically  !
 ! A17   A(8,7,10)             105.2591         calculate D2E/DX2 analytically  !
 ! A18   A(9,7,10)             107.4623         calculate D2E/DX2 analytically  !
 ! A19   A(7,10,11)            109.686          calculate D2E/DX2 analytically  !
 ! A20   A(7,10,15)            106.948          calculate D2E/DX2 analytically  !
 ! A21   A(7,10,19)            117.1852         calculate D2E/DX2 analytically  !
 ! A22   A(11,10,15)           107.823          calculate D2E/DX2 analytically  !
 ! A23   A(11,10,19)           107.7887         calculate D2E/DX2 analytically  !
 ! A24   A(15,10,19)           107.0429         calculate D2E/DX2 analytically  !
 ! A25   A(10,11,12)           107.3492         calculate D2E/DX2 analytically  !
 ! A26   A(10,11,13)           110.0908         calculate D2E/DX2 analytically  !
 ! A27   A(10,11,14)           109.2322         calculate D2E/DX2 analytically  !
 ! A28   A(12,11,13)           111.4738         calculate D2E/DX2 analytically  !
 ! A29   A(12,11,14)           108.6343         calculate D2E/DX2 analytically  !
 ! A30   A(13,11,14)           109.9924         calculate D2E/DX2 analytically  !
 ! A31   A(10,15,16)           110.2735         calculate D2E/DX2 analytically  !
 ! A32   A(10,15,17)           107.7181         calculate D2E/DX2 analytically  !
 ! A33   A(10,15,18)           108.3227         calculate D2E/DX2 analytically  !
 ! A34   A(16,15,17)           111.5394         calculate D2E/DX2 analytically  !
 ! A35   A(16,15,18)           110.082          calculate D2E/DX2 analytically  !
 ! A36   A(17,15,18)           108.8138         calculate D2E/DX2 analytically  !
 ! A37   A(10,19,20)           104.4116         calculate D2E/DX2 analytically  !
 ! A38   A(10,19,21)           105.1134         calculate D2E/DX2 analytically  !
 ! A39   A(20,19,21)           107.255          calculate D2E/DX2 analytically  !
 ! A40   A(1,22,23)            111.0402         calculate D2E/DX2 analytically  !
 ! A41   A(1,22,24)            110.9468         calculate D2E/DX2 analytically  !
 ! A42   A(23,22,24)           107.14           calculate D2E/DX2 analytically  !
 ! D1    D(2,1,4,5)            -61.6518         calculate D2E/DX2 analytically  !
 ! D2    D(2,1,4,6)           -176.5765         calculate D2E/DX2 analytically  !
 ! D3    D(2,1,4,7)             62.7922         calculate D2E/DX2 analytically  !
 ! D4    D(3,1,4,5)           -177.9845         calculate D2E/DX2 analytically  !
 ! D5    D(3,1,4,6)             67.0908         calculate D2E/DX2 analytically  !
 ! D6    D(3,1,4,7)            -53.5405         calculate D2E/DX2 analytically  !
 ! D7    D(22,1,4,5)            57.0943         calculate D2E/DX2 analytically  !
 ! D8    D(22,1,4,6)           -57.8304         calculate D2E/DX2 analytically  !
 ! D9    D(22,1,4,7)          -178.4617         calculate D2E/DX2 analytically  !
 ! D10   D(2,1,22,23)         -169.8762         calculate D2E/DX2 analytically  !
 ! D11   D(2,1,22,24)          -50.8404         calculate D2E/DX2 analytically  !
 ! D12   D(3,1,22,23)          -51.0635         calculate D2E/DX2 analytically  !
 ! D13   D(3,1,22,24)           67.9723         calculate D2E/DX2 analytically  !
 ! D14   D(4,1,22,23)           71.222          calculate D2E/DX2 analytically  !
 ! D15   D(4,1,22,24)         -169.7422         calculate D2E/DX2 analytically  !
 ! D16   D(1,4,7,8)             20.551          calculate D2E/DX2 analytically  !
 ! D17   D(1,4,7,9)            139.3375         calculate D2E/DX2 analytically  !
 ! D18   D(1,4,7,10)           -98.395          calculate D2E/DX2 analytically  !
 ! D19   D(5,4,7,8)            143.292          calculate D2E/DX2 analytically  !
 ! D20   D(5,4,7,9)            -97.9214         calculate D2E/DX2 analytically  !
 ! D21   D(5,4,7,10)            24.346          calculate D2E/DX2 analytically  !
 ! D22   D(6,4,7,8)           -100.4147         calculate D2E/DX2 analytically  !
 ! D23   D(6,4,7,9)             18.3719         calculate D2E/DX2 analytically  !
 ! D24   D(6,4,7,10)           140.6393         calculate D2E/DX2 analytically  !
 ! D25   D(4,7,10,11)          -69.4049         calculate D2E/DX2 analytically  !
 ! D26   D(4,7,10,15)          173.9242         calculate D2E/DX2 analytically  !
 ! D27   D(4,7,10,19)           53.8608         calculate D2E/DX2 analytically  !
 ! D28   D(8,7,10,11)          168.9937         calculate D2E/DX2 analytically  !
 ! D29   D(8,7,10,15)           52.3228         calculate D2E/DX2 analytically  !
 ! D30   D(8,7,10,19)          -67.7407         calculate D2E/DX2 analytically  !
 ! D31   D(9,7,10,11)           54.5588         calculate D2E/DX2 analytically  !
 ! D32   D(9,7,10,15)          -62.112          calculate D2E/DX2 analytically  !
 ! D33   D(9,7,10,19)          177.8245         calculate D2E/DX2 analytically  !
 ! D34   D(7,10,11,12)        -177.3184         calculate D2E/DX2 analytically  !
 ! D35   D(7,10,11,13)         -55.8088         calculate D2E/DX2 analytically  !
 ! D36   D(7,10,11,14)          65.0664         calculate D2E/DX2 analytically  !
 ! D37   D(15,10,11,12)        -61.1995         calculate D2E/DX2 analytically  !
 ! D38   D(15,10,11,13)         60.3101         calculate D2E/DX2 analytically  !
 ! D39   D(15,10,11,14)       -178.8147         calculate D2E/DX2 analytically  !
 ! D40   D(19,10,11,12)         54.0446         calculate D2E/DX2 analytically  !
 ! D41   D(19,10,11,13)        175.5543         calculate D2E/DX2 analytically  !
 ! D42   D(19,10,11,14)        -63.5706         calculate D2E/DX2 analytically  !
 ! D43   D(7,10,15,16)          55.0258         calculate D2E/DX2 analytically  !
 ! D44   D(7,10,15,17)         176.9564         calculate D2E/DX2 analytically  !
 ! D45   D(7,10,15,18)         -65.4993         calculate D2E/DX2 analytically  !
 ! D46   D(11,10,15,16)        -62.8716         calculate D2E/DX2 analytically  !
 ! D47   D(11,10,15,17)         59.059          calculate D2E/DX2 analytically  !
 ! D48   D(11,10,15,18)        176.6034         calculate D2E/DX2 analytically  !
 ! D49   D(19,10,15,16)       -178.6065         calculate D2E/DX2 analytically  !
 ! D50   D(19,10,15,17)        -56.6759         calculate D2E/DX2 analytically  !
 ! D51   D(19,10,15,18)         60.8685         calculate D2E/DX2 analytically  !
 ! D52   D(7,10,19,20)          50.7683         calculate D2E/DX2 analytically  !
 ! D53   D(7,10,19,21)         -61.977          calculate D2E/DX2 analytically  !
 ! D54   D(11,10,19,20)        174.9972         calculate D2E/DX2 analytically  !
 ! D55   D(11,10,19,21)         62.2519         calculate D2E/DX2 analytically  !
 ! D56   D(15,10,19,20)        -69.2451         calculate D2E/DX2 analytically  !
 ! D57   D(15,10,19,21)        178.0097         calculate D2E/DX2 analytically  !
 --------------------------------------------------------------------------------
 Trust Radius=3.00D-01 FncErr=1.00D-07 GrdErr=1.00D-07 EigMax=2.50D+02 EigMin=1.00D-04
 Number of steps in this run=      2 maximum allowed number of steps=      2.
 GradGradGradGradGradGradGradGradGradGradGradGradGradGradGradGradGradGrad

                          Input orientation:                          
 ---------------------------------------------------------------------
 Center     Atomic      Atomic             Coordinates (Angstroms)
 Number     Number       Type             X           Y           Z
 ---------------------------------------------------------------------
      1          6           0        1.286874    0.490960   -0.384913
      2          1           0        0.551722    1.276763   -0.552223
      3          1           0        1.631529    0.155608   -1.373757
      4          6           0        0.604938   -0.675493    0.321606
      5          1           0        0.236031   -0.322986    1.284117
      6          1           0        1.355216   -1.438420    0.544350
      7          6           0       -0.506592   -1.326392   -0.495958
      8          1           0       -0.380858   -1.092206   -1.552775
      9          1           0       -0.474686   -2.413435   -0.393210
     10          7           0       -1.911188   -0.878827   -0.153151
     11          6           0       -2.284038   -1.387932    1.187201
     12          1           0       -3.309617   -1.087330    1.373651
     13          1           0       -2.173618   -2.472364    1.220066
     14          1           0       -1.646251   -0.927184    1.934758
     15          6           0       -2.818213   -1.504645   -1.144654
     16          1           0       -2.679316   -2.586966   -1.153886
     17          1           0       -3.834647   -1.235858   -0.877998
     18          1           0       -2.591698   -1.091012   -2.123705
     19          6           0       -2.189411    0.617836   -0.176167
     20          1           0       -1.811036    0.951214   -1.151742
     21          1           0       -1.531280    1.042602    0.590142
     22          7           0        2.355305    1.027504    0.449579
     23          1           0        3.137342    0.387657    0.494149
     24          1           0        2.703904    1.897886    0.074418
 ---------------------------------------------------------------------
                    Distance matrix (angstroms):
                    1          2          3          4          5
     1  C    0.000000
     2  H    1.089004   0.000000
     3  H    1.099573   1.760083   0.000000
     4  C    1.524736   2.139559   2.149157   0.000000
     5  H    2.133645   2.455810   3.039862   1.089395   0.000000
     6  H    2.142593   3.036494   2.509265   1.092972   1.744713
     7  C    2.555703   2.810625   2.745618   1.525640   2.174161
     8  H    2.579078   2.735475   2.374614   2.158413   3.003366
     9  H    3.396862   3.833584   3.463755   2.167254   2.772819
    10  N    3.486779   3.297234   3.887259   2.568585   2.642962
    11  C    4.330495   4.262362   4.926732   3.098871   2.737562
    12  H    5.168296   4.920149   5.788616   4.074328   3.628203
    13  H    4.830347   4.962302   5.302198   3.428753   3.229604
    14  H    3.999404   3.984162   4.781481   2.780910   2.081196
    15  C    4.627244   4.409498   4.754907   3.815151   4.077211
    16  H    5.078937   5.072475   5.114043   4.076410   4.423653
    17  H    5.427247   5.065533   5.662246   4.632814   4.698776
    18  H    4.535345   4.237571   4.466781   4.046070   4.494348
    19  C    3.484857   2.844189   4.030814   3.119113   2.983344
    20  H    3.224424   2.459275   3.540273   3.264025   3.427459
    21  H    3.032661   2.387200   3.827142   2.754522   2.338764
    22  N    1.458013   2.078136   2.146767   2.445478   2.647943
    23  H    2.051257   2.927599   2.410476   2.751932   3.089769
    24  H    2.049000   2.326018   2.506538   3.330021   3.533559
                    6          7          8          9         10
     6  H    0.000000
     7  C    2.135677   0.000000
     8  H    2.744404   1.089732   0.000000
     9  H    2.275569   1.092354   1.760410   0.000000
    10  N    3.386598   1.513513   2.084800   2.115701   0.000000
    11  C    3.695940   2.448698   3.349181   2.612109   1.481468
    12  H    4.750966   3.377801   4.140245   3.594050   2.080914
    13  H    3.738757   2.652728   3.578753   2.343610   2.119895
    14  H    3.347148   2.714143   3.713670   3.000158   2.105207
    15  C    4.502736   2.407524   2.505468   2.623488   1.482370
    16  H    4.525550   2.596660   2.770618   2.338618   2.123494
    17  H    5.385051   3.351134   3.522018   3.593194   2.086281
    18  H    4.776750   2.655679   2.283369   3.037294   2.095519
    19  C    4.160734   2.591171   2.844320   3.489412   1.522477
    20  H    4.314189   2.705387   2.526223   3.698928   2.087166
    21  H    3.806498   2.800309   3.236196   3.745339   2.094923
    22  N    2.662695   3.824307   3.998648   4.534226   4.711725
    23  H    2.552068   4.146870   4.331008   4.656208   5.245059
    24  H    3.629150   4.585693   4.593927   5.376765   5.390825
                   11         12         13         14         15
    11  C    0.000000
    12  H    1.084868   0.000000
    13  H    1.090535   1.797888   0.000000
    14  H    1.085312   1.762746   1.782269   0.000000
    15  C    2.395102   2.599517   2.635124   3.345106   0.000000
    16  H    2.659814   3.005766   2.429919   3.655382   1.091236
    17  H    2.586999   2.316817   2.947852   3.577143   1.084660
    18  H    3.338399   3.570283   3.641940   4.170352   1.086711
    19  C    2.427103   2.562107   3.391025   2.671726   2.416254
    20  H    3.341554   3.574775   4.180649   3.616907   2.654374
    21  H    2.613545   2.883224   3.628277   2.387734   3.339788
    22  N    5.282227   6.117008   5.775282   4.694573   5.976508
    23  H    5.746686   6.671761   6.075605   5.165939   6.460273
    24  H    6.075726   6.838272   6.648445   5.510512   6.599783
                   16         17         18         19         20
    16  H    0.000000
    17  H    1.798998   0.000000
    18  H    1.784966   1.765697   0.000000
    19  C    3.386251   2.575956   2.622003   0.000000
    20  H    3.643162   2.992193   2.392662   1.098205   0.000000
    21  H    4.187288   3.557009   3.611338   1.095807   1.766571
    22  N    6.401789   6.723152   5.965127   4.605847   4.464129
    23  H    6.737797   7.288842   6.470049   5.373696   5.245284
    24  H    7.113486   7.313009   6.465962   5.064174   4.773295
                   21         22         23         24
    21  H    0.000000
    22  N    3.889155   0.000000
    23  H    4.715315   1.011421   0.000000
    24  H    4.351352   1.009867   1.626294   0.000000
 Stoichiometry    C6H16N2
 Framework group  C1[X(C6H16N2)]
 Deg. of freedom    66
 Full point group                 C1      NOp   1
 Largest Abelian subgroup         C1      NOp   1
 Largest concise Abelian subgroup C1      NOp   1
                         Standard orientation:                         
 ---------------------------------------------------------------------
 Center     Atomic      Atomic             Coordinates (Angstroms)
 Number     Number       Type             X           Y           Z
 ---------------------------------------------------------------------
      1          6           0       -2.128684   -0.437144   -0.251788
      2          1           0       -1.738552   -1.259813    0.345658
      3          1           0       -2.246469   -0.811690   -1.278872
      4          6           0       -1.106965    0.694628   -0.253487
      5          1           0       -0.971451    1.033661    0.772902
      6          1           0       -1.523794    1.543386   -0.801621
      7          6           0        0.225105    0.321334   -0.896775
      8          1           0        0.096904   -0.540764   -1.550891
      9          1           0        0.602633    1.144870   -1.507101
     10          7           0        1.324004   -0.070217    0.067503
     11          6           0        1.764111    1.119710    0.832439
     12          1           0        2.581117    0.807644    1.474354
     13          1           0        2.073374    1.911140    0.148875
     14          1           0        0.946235    1.466504    1.455910
     15          6           0        2.470705   -0.534083   -0.749398
     16          1           0        2.755982    0.233329   -1.470848
     17          1           0        3.285570   -0.766816   -0.072406
     18          1           0        2.175549   -1.442380   -1.267876
     19          6           0        1.011517   -1.175871    1.066412
     20          1           0        0.606749   -1.991974    0.453067
     21          1           0        0.187244   -0.786792    1.674675
     22          7           0       -3.378671    0.016376    0.346255
     23          1           0       -3.858718    0.664899   -0.263620
     24          1           0       -4.004441   -0.759757    0.507065
 ---------------------------------------------------------------------
 Rotational constants (GHZ):           3.9622302           0.9793485           0.9668360
 Standard basis: 6-311+G(2d,2p) (5D, 7F)
 There are   376 symmetry adapted cartesian basis functions of A   symmetry.
 There are   360 symmetry adapted basis functions of A   symmetry.
   360 basis functions,   512 primitive gaussians,   376 cartesian basis functions
    33 alpha electrons       33 beta electrons
       nuclear repulsion energy       420.7834733285 Hartrees.
 NAtoms=   24 NActive=   24 NUniq=   24 SFac= 1.00D+00 NAtFMM=   60 NAOKFM=F Big=F
 Integral buffers will be    131072 words long.
 Raffenetti 2 integral format.
 Two-electron integral symmetry is turned on.
 Nuclear repulsion after empirical dispersion term =      420.7657668364 Hartrees.
 One-electron integrals computed using PRISM.
 NBasis=   360 RedAO= T EigKep=  1.42D-05  NBF=   360
 NBsUse=   360 1.00D-06 EigRej= -1.00D+00 NBFU=   360
 Initial guess from the checkpoint file:  "diaminopropyl_ylide.chk"
 B after Tr=    -0.000000   -0.000000   -0.000000
         Rot=    1.000000    0.000000   -0.000000   -0.000000 Ang=   0.00 deg.
 Requested convergence on RMS density matrix=1.00D-08 within  32 cycles.
 Requested convergence on MAX density matrix=1.00D-06.
 Requested convergence on             energy=1.00D-06.
 No special actions if energy rises.
 SCF Done:  E(RwB97XD) =  -347.663729231     A.U. after    1 cycles
            NFock=  1  Conv=0.29D-08     -V/T= 2.0045
 QCSCF skips out because SCF is already converged.
 DoSCS=F DFT=T ScalE2(SS,OS)=  1.000000  1.000000
 Range of M.O.s used for correlation:     1   360
 NBasis=   360 NAE=    33 NBE=    33 NFC=     0 NFV=     0
 NROrb=    360 NOA=    33 NOB=    33 NVA=   327 NVB=   327

 **** Warning!!: The largest alpha MO coefficient is  0.70614898D+02

 Symmetrizing basis deriv contribution to polar:
 IMax=3 JMax=2 DiffMx= 0.00D+00
 G2DrvN: will do    25 centers at a time, making    1 passes.
 Calling FoFCou, ICntrl=  3107 FMM=F I1Cent=   0 AccDes= 0.00D+00.
 End of G2Drv F.D. properties file   721 does not exist.
 End of G2Drv F.D. properties file   722 does not exist.
 End of G2Drv F.D. properties file   788 does not exist.
          IDoAtm=111111111111111111111111
          Differentiating once with respect to electric field.
                with respect to dipole field.
          Differentiating once with respect to nuclear coordinates.
 Keep R1 ints in memory in canonical form, NReq=4249268980.
          There are    75 degrees of freedom in the 1st order CPHF.  IDoFFX=6 NUNeed=     3.
     72 vectors produced by pass  0 Test12= 1.44D-14 1.33D-09 XBig12= 3.86D+01 1.37D+00.
 AX will form    72 AO Fock derivatives at one time.
     72 vectors produced by pass  1 Test12= 1.44D-14 1.33D-09 XBig12= 3.40D+00 4.09D-01.
     72 vectors produced by pass  2 Test12= 1.44D-14 1.33D-09 XBig12= 8.71D-02 5.26D-02.
     72 vectors produced by pass  3 Test12= 1.44D-14 1.33D-09 XBig12= 1.20D-03 6.07D-03.
     72 vectors produced by pass  4 Test12= 1.44D-14 1.33D-09 XBig12= 8.45D-06 3.05D-04.
     72 vectors produced by pass  5 Test12= 1.44D-14 1.33D-09 XBig12= 4.87D-08 1.98D-05.
     67 vectors produced by pass  6 Test12= 1.44D-14 1.33D-09 XBig12= 2.58D-10 1.34D-06.
     10 vectors produced by pass  7 Test12= 1.44D-14 1.33D-09 XBig12= 1.17D-12 7.75D-08.
      3 vectors produced by pass  8 Test12= 1.44D-14 1.33D-09 XBig12= 5.48D-15 5.21D-09.
 InvSVY:  IOpt=1 It=  1 EMax= 7.11D-15
 Solved reduced A of dimension   512 with    75 vectors.
 Isotropic polarizability for W=    0.000000       98.59 Bohr**3.
 End of Minotr F.D. properties file   721 does not exist.
 End of Minotr F.D. properties file   722 does not exist.
 End of Minotr F.D. properties file   788 does not exist.

 **********************************************************************

            Population analysis using the SCF density.

 **********************************************************************

 Orbital symmetries:
       Occupied  (A) (A) (A) (A) (A) (A) (A) (A) (A) (A) (A) (A)
                 (A) (A) (A) (A) (A) (A) (A) (A) (A) (A) (A) (A)
                 (A) (A) (A) (A) (A) (A) (A) (A) (A)
       Virtual   (A) (A) (A) (A) (A) (A) (A) (A) (A) (A) (A) (A)
                 (A) (A) (A) (A) (A) (A) (A) (A) (A) (A) (A) (A)
                 (A) (A) (A) (A) (A) (A) (A) (A) (A) (A) (A) (A)
                 (A) (A) (A) (A) (A) (A) (A) (A) (A) (A) (A) (A)
                 (A) (A) (A) (A) (A) (A) (A) (A) (A) (A) (A) (A)
                 (A) (A) (A) (A) (A) (A) (A) (A) (A) (A) (A) (A)
                 (A) (A) (A) (A) (A) (A) (A) (A) (A) (A) (A) (A)
                 (A) (A) (A) (A) (A) (A) (A) (A) (A) (A) (A) (A)
                 (A) (A) (A) (A) (A) (A) (A) (A) (A) (A) (A) (A)
                 (A) (A) (A) (A) (A) (A) (A) (A) (A) (A) (A) (A)
                 (A) (A) (A) (A) (A) (A) (A) (A) (A) (A) (A) (A)
                 (A) (A) (A) (A) (A) (A) (A) (A) (A) (A) (A) (A)
                 (A) (A) (A) (A) (A) (A) (A) (A) (A) (A) (A) (A)
                 (A) (A) (A) (A) (A) (A) (A) (A) (A) (A) (A) (A)
                 (A) (A) (A) (A) (A) (A) (A) (A) (A) (A) (A) (A)
                 (A) (A) (A) (A) (A) (A) (A) (A) (A) (A) (A) (A)
                 (A) (A) (A) (A) (A) (A) (A) (A) (A) (A) (A) (A)
                 (A) (A) (A) (A) (A) (A) (A) (A) (A) (A) (A) (A)
                 (A) (A) (A) (A) (A) (A) (A) (A) (A) (A) (A) (A)
                 (A) (A) (A) (A) (A) (A) (A) (A) (A) (A) (A) (A)
                 (A) (A) (A) (A) (A) (A) (A) (A) (A) (A) (A) (A)
                 (A) (A) (A) (A) (A) (A) (A) (A) (A) (A) (A) (A)
                 (A) (A) (A) (A) (A) (A) (A) (A) (A) (A) (A) (A)
                 (A) (A) (A) (A) (A) (A) (A) (A) (A) (A) (A) (A)
                 (A) (A) (A) (A) (A) (A) (A) (A) (A) (A) (A) (A)
                 (A) (A) (A) (A) (A) (A) (A) (A) (A) (A) (A) (A)
                 (A) (A) (A) (A) (A) (A) (A) (A) (A) (A) (A) (A)
                 (A) (A) (A)
 The electronic state is 1-A.
 Alpha  occ. eigenvalues --  -14.53138 -14.41304 -10.33073 -10.31881 -10.31877
 Alpha  occ. eigenvalues --  -10.30417 -10.28873 -10.21203  -1.09291  -0.98911
 Alpha  occ. eigenvalues --   -0.88686  -0.83611  -0.79347  -0.77656  -0.70580
 Alpha  occ. eigenvalues --   -0.67249  -0.60903  -0.59024  -0.57472  -0.56699
 Alpha  occ. eigenvalues --   -0.54382  -0.53504  -0.51286  -0.49200  -0.48253
 Alpha  occ. eigenvalues --   -0.47504  -0.45265  -0.44186  -0.43628  -0.42414
 Alpha  occ. eigenvalues --   -0.40235  -0.32855  -0.21731
 Alpha virt. eigenvalues --    0.05146   0.06493   0.06952   0.07661   0.08951
 Alpha virt. eigenvalues --    0.09624   0.09916   0.10776   0.11103   0.12101
 Alpha virt. eigenvalues --    0.12829   0.13831   0.14192   0.14531   0.15506
 Alpha virt. eigenvalues --    0.15852   0.16967   0.17325   0.17717   0.19087
 Alpha virt. eigenvalues --    0.19542   0.20176   0.20756   0.21548   0.22010
 Alpha virt. eigenvalues --    0.22907   0.23187   0.24031   0.24515   0.24669
 Alpha virt. eigenvalues --    0.25244   0.25524   0.25959   0.26855   0.27101
 Alpha virt. eigenvalues --    0.28350   0.29545   0.30003   0.30373   0.31285
 Alpha virt. eigenvalues --    0.31602   0.32915   0.33026   0.33642   0.34409
 Alpha virt. eigenvalues --    0.34541   0.34931   0.35503   0.36905   0.37242
 Alpha virt. eigenvalues --    0.39296   0.39606   0.40962   0.43645   0.45175
 Alpha virt. eigenvalues --    0.45836   0.48006   0.48790   0.49958   0.51390
 Alpha virt. eigenvalues --    0.53172   0.54557   0.55055   0.56743   0.57281
 Alpha virt. eigenvalues --    0.58514   0.59260   0.59295   0.59872   0.60641
 Alpha virt. eigenvalues --    0.62515   0.62815   0.63002   0.63266   0.64506
 Alpha virt. eigenvalues --    0.65026   0.65708   0.66524   0.67570   0.69174
 Alpha virt. eigenvalues --    0.69818   0.70142   0.71370   0.72372   0.72833
 Alpha virt. eigenvalues --    0.73191   0.75131   0.75427   0.76601   0.76959
 Alpha virt. eigenvalues --    0.77575   0.77757   0.78500   0.79747   0.79895
 Alpha virt. eigenvalues --    0.82346   0.84381   0.85121   0.85923   0.86879
 Alpha virt. eigenvalues --    0.89915   0.91947   0.92759   0.96111   0.97153
 Alpha virt. eigenvalues --    0.98009   1.00060   1.02182   1.02446   1.03623
 Alpha virt. eigenvalues --    1.06166   1.06715   1.07229   1.08427   1.09404
 Alpha virt. eigenvalues --    1.10071   1.12426   1.13773   1.15531   1.16195
 Alpha virt. eigenvalues --    1.17151   1.18492   1.19584   1.20556   1.21322
 Alpha virt. eigenvalues --    1.22522   1.24136   1.24731   1.25164   1.27163
 Alpha virt. eigenvalues --    1.27620   1.29316   1.29851   1.31559   1.33826
 Alpha virt. eigenvalues --    1.35066   1.35273   1.36741   1.37364   1.38253
 Alpha virt. eigenvalues --    1.39118   1.40090   1.40953   1.41649   1.42630
 Alpha virt. eigenvalues --    1.43466   1.45025   1.45860   1.46902   1.47713
 Alpha virt. eigenvalues --    1.48600   1.49580   1.50482   1.50875   1.51925
 Alpha virt. eigenvalues --    1.53655   1.54148   1.54556   1.55530   1.58069
 Alpha virt. eigenvalues --    1.58646   1.58865   1.59135   1.62473   1.63724
 Alpha virt. eigenvalues --    1.63982   1.66344   1.67753   1.69059   1.69155
 Alpha virt. eigenvalues --    1.69919   1.70934   1.72553   1.73944   1.75629
 Alpha virt. eigenvalues --    1.76628   1.77900   1.79539   1.81471   1.84779
 Alpha virt. eigenvalues --    1.85702   1.88712   1.90668   1.92867   1.95380
 Alpha virt. eigenvalues --    1.98872   2.02683   2.05047   2.06278   2.11056
 Alpha virt. eigenvalues --    2.11699   2.78331   2.78793   2.83646   2.84228
 Alpha virt. eigenvalues --    2.87451   2.89339   2.91561   2.95406   2.97145
 Alpha virt. eigenvalues --    3.01211   3.02552   3.08710   3.12952   3.14412
 Alpha virt. eigenvalues --    3.19825   3.22588   3.25461   3.26874   3.27520
 Alpha virt. eigenvalues --    3.29023   3.32015   3.34088   3.34800   3.38558
 Alpha virt. eigenvalues --    3.39839   3.42318   3.43433   3.44348   3.46333
 Alpha virt. eigenvalues --    3.49090   3.50041   3.51471   3.53334   3.54138
 Alpha virt. eigenvalues --    3.56109   3.57648   3.58629   3.60188   3.61288
 Alpha virt. eigenvalues --    3.63676   3.64266   3.66606   3.67024   3.67829
 Alpha virt. eigenvalues --    3.70778   3.72482   3.72865   3.74749   3.76616
 Alpha virt. eigenvalues --    3.77353   3.79821   3.80630   3.82826   3.83524
 Alpha virt. eigenvalues --    3.84030   3.85173   3.88718   3.90571   3.91371
 Alpha virt. eigenvalues --    3.92907   3.93302   3.94391   3.96884   4.00080
 Alpha virt. eigenvalues --    4.01096   4.02645   4.04397   4.05465   4.06251
 Alpha virt. eigenvalues --    4.08457   4.09396   4.10769   4.11856   4.12698
 Alpha virt. eigenvalues --    4.14643   4.15822   4.17543   4.17991   4.19386
 Alpha virt. eigenvalues --    4.21987   4.24214   4.24473   4.26070   4.26626
 Alpha virt. eigenvalues --    4.29034   4.30091   4.31676   4.31980   4.35099
 Alpha virt. eigenvalues --    4.37040   4.39441   4.40015   4.40669   4.41787
 Alpha virt. eigenvalues --    4.42534   4.43323   4.46064   4.49664   4.50788
 Alpha virt. eigenvalues --    4.53779   4.56635   4.60289   4.68679   4.87993
 Alpha virt. eigenvalues --    4.96511   5.02550   5.05099   5.06477   5.11370
 Alpha virt. eigenvalues --    5.12701   5.14218   5.14553   5.15038   5.18265
 Alpha virt. eigenvalues --    5.19007   5.21315   5.24683   5.25223   5.27149
 Alpha virt. eigenvalues --    5.31008   5.35421   5.44927   5.52258   5.68179
 Alpha virt. eigenvalues --    5.70337   5.71763   5.86257   6.05645  24.01617
 Alpha virt. eigenvalues --   24.07080  24.11002  24.16802  24.19505  24.21789
 Alpha virt. eigenvalues --   35.59766  35.77137
          Condensed to atoms (all electrons):
               1          2          3          4          5          6
     1  C    5.066530   0.473940   0.445407  -0.018727  -0.041703  -0.010962
     2  H    0.473940   0.515399  -0.034579  -0.035726  -0.006755   0.004419
     3  H    0.445407  -0.034579   0.605954  -0.010704   0.005191  -0.008534
     4  C   -0.018727  -0.035726  -0.010704   5.736015   0.470547   0.438393
     5  H   -0.041703  -0.006755   0.005191   0.470547   0.492763  -0.026595
     6  H   -0.010962   0.004419  -0.008534   0.438393  -0.026595   0.533120
     7  C    0.043308  -0.003190  -0.038974  -0.023817  -0.030679  -0.034194
     8  H   -0.012277  -0.001159   0.005910  -0.005232   0.003128   0.001878
     9  H    0.015800  -0.000246   0.000101  -0.081943   0.000982  -0.010413
    10  N    0.073995   0.001079  -0.001123  -0.174477   0.004162   0.003388
    11  C    0.024374   0.000317  -0.000246  -0.106220  -0.008670   0.001625
    12  H   -0.000918  -0.000014   0.000003   0.003950   0.000016  -0.000038
    13  H   -0.001801   0.000005   0.000006   0.000625   0.000163   0.000228
    14  H    0.001765   0.000084  -0.000044  -0.009239   0.004128   0.000136
    15  C    0.023719  -0.000818  -0.000718  -0.078340   0.000813   0.001155
    16  H   -0.002345   0.000011   0.000005   0.003493   0.000063  -0.000036
    17  H   -0.000386  -0.000004   0.000001   0.005149  -0.000037   0.000010
    18  H    0.001072  -0.000037   0.000017  -0.008310  -0.000008   0.000008
    19  C   -0.032555  -0.006427   0.001475   0.078516  -0.002226  -0.001955
    20  H    0.010613  -0.000603  -0.000238  -0.048052   0.000321  -0.000148
    21  H    0.014905  -0.001676   0.000282   0.023733  -0.004502   0.000405
    22  N    0.229928  -0.035610  -0.055522  -0.030558   0.000196  -0.002077
    23  H    0.005016   0.005349  -0.008319  -0.032839   0.000020   0.003098
    24  H   -0.039183  -0.006572  -0.001089   0.015813   0.000179  -0.000202
               7          8          9         10         11         12
     1  C    0.043308  -0.012277   0.015800   0.073995   0.024374  -0.000918
     2  H   -0.003190  -0.001159  -0.000246   0.001079   0.000317  -0.000014
     3  H   -0.038974   0.005910   0.000101  -0.001123  -0.000246   0.000003
     4  C   -0.023817  -0.005232  -0.081943  -0.174477  -0.106220   0.003950
     5  H   -0.030679   0.003128   0.000982   0.004162  -0.008670   0.000016
     6  H   -0.034194   0.001878  -0.010413   0.003388   0.001625  -0.000038
     7  C    5.381189   0.447927   0.466850  -0.005441  -0.040278   0.009610
     8  H    0.447927   0.528504  -0.028117  -0.064868  -0.011597  -0.000193
     9  H    0.466850  -0.028117   0.511309  -0.006895   0.000260  -0.000204
    10  N   -0.005441  -0.064868  -0.006895   7.031040   0.280075  -0.039147
    11  C   -0.040278  -0.011597   0.000260   0.280075   4.980128   0.427818
    12  H    0.009610  -0.000193  -0.000204  -0.039147   0.427818   0.486691
    13  H    0.000136   0.001205   0.001637  -0.025922   0.412427  -0.023640
    14  H    0.000685  -0.000626  -0.000461  -0.029378   0.432013  -0.016590
    15  C   -0.142030   0.004911   0.000190   0.336798   0.009905  -0.014124
    16  H    0.016433  -0.000390   0.001301  -0.028686  -0.022022  -0.000547
    17  H    0.005449  -0.000068  -0.000097  -0.035921  -0.002049   0.003681
    18  H   -0.012291   0.002511  -0.000726  -0.026763   0.006129  -0.000021
    19  C    0.120840  -0.000461  -0.008098  -0.098635  -0.234939   0.005336
    20  H    0.017635  -0.005621  -0.000069   0.026983   0.024097   0.000516
    21  H   -0.058491  -0.000509  -0.000066   0.017425  -0.006469  -0.002025
    22  N    0.008450  -0.000540  -0.000505  -0.003708   0.002694   0.000013
    23  H    0.003340   0.000074  -0.000033  -0.000476  -0.000123  -0.000000
    24  H    0.003563   0.000002  -0.000004  -0.000381  -0.000072   0.000000
              13         14         15         16         17         18
     1  C   -0.001801   0.001765   0.023719  -0.002345  -0.000386   0.001072
     2  H    0.000005   0.000084  -0.000818   0.000011  -0.000004  -0.000037
     3  H    0.000006  -0.000044  -0.000718   0.000005   0.000001   0.000017
     4  C    0.000625  -0.009239  -0.078340   0.003493   0.005149  -0.008310
     5  H    0.000163   0.004128   0.000813   0.000063  -0.000037  -0.000008
     6  H    0.000228   0.000136   0.001155  -0.000036   0.000010   0.000008
     7  C    0.000136   0.000685  -0.142030   0.016433   0.005449  -0.012291
     8  H    0.001205  -0.000626   0.004911  -0.000390  -0.000068   0.002511
     9  H    0.001637  -0.000461   0.000190   0.001301  -0.000097  -0.000726
    10  N   -0.025922  -0.029378   0.336798  -0.028686  -0.035921  -0.026763
    11  C    0.412427   0.432013   0.009905  -0.022022  -0.002049   0.006129
    12  H   -0.023640  -0.016590  -0.014124  -0.000547   0.003681  -0.000021
    13  H    0.539018  -0.028223  -0.014850   0.005961  -0.000908  -0.000016
    14  H   -0.028223   0.518998   0.010187  -0.000331  -0.000037  -0.000315
    15  C   -0.014850   0.010187   4.977571   0.394278   0.425944   0.442895
    16  H    0.005961  -0.000331   0.394278   0.553702  -0.024688  -0.030476
    17  H   -0.000908  -0.000037   0.425944  -0.024688   0.489436  -0.014417
    18  H   -0.000016  -0.000315   0.442895  -0.030476  -0.014417   0.513689
    19  C    0.014019  -0.023388  -0.278165   0.021893  -0.008467  -0.017230
    20  H   -0.000632   0.000552  -0.009412  -0.000628  -0.000649   0.001449
    21  H   -0.000077   0.003720   0.024608  -0.000531   0.000509   0.000507
    22  N    0.000025  -0.000322  -0.001483   0.000019  -0.000005  -0.000002
    23  H    0.000001   0.000003  -0.000122   0.000001   0.000000  -0.000000
    24  H   -0.000000  -0.000001  -0.000019  -0.000000   0.000000  -0.000000
              19         20         21         22         23         24
     1  C   -0.032555   0.010613   0.014905   0.229928   0.005016  -0.039183
     2  H   -0.006427  -0.000603  -0.001676  -0.035610   0.005349  -0.006572
     3  H    0.001475  -0.000238   0.000282  -0.055522  -0.008319  -0.001089
     4  C    0.078516  -0.048052   0.023733  -0.030558  -0.032839   0.015813
     5  H   -0.002226   0.000321  -0.004502   0.000196   0.000020   0.000179
     6  H   -0.001955  -0.000148   0.000405  -0.002077   0.003098  -0.000202
     7  C    0.120840   0.017635  -0.058491   0.008450   0.003340   0.003563
     8  H   -0.000461  -0.005621  -0.000509  -0.000540   0.000074   0.000002
     9  H   -0.008098  -0.000069  -0.000066  -0.000505  -0.000033  -0.000004
    10  N   -0.098635   0.026983   0.017425  -0.003708  -0.000476  -0.000381
    11  C   -0.234939   0.024097  -0.006469   0.002694  -0.000123  -0.000072
    12  H    0.005336   0.000516  -0.002025   0.000013  -0.000000   0.000000
    13  H    0.014019  -0.000632  -0.000077   0.000025   0.000001  -0.000000
    14  H   -0.023388   0.000552   0.003720  -0.000322   0.000003  -0.000001
    15  C   -0.278165  -0.009412   0.024608  -0.001483  -0.000122  -0.000019
    16  H    0.021893  -0.000628  -0.000531   0.000019   0.000001  -0.000000
    17  H   -0.008467  -0.000649   0.000509  -0.000005   0.000000   0.000000
    18  H   -0.017230   0.001449   0.000507  -0.000002  -0.000000  -0.000000
    19  C    6.386359   0.362480   0.360223  -0.001140  -0.000542  -0.000235
    20  H    0.362480   0.586611  -0.043838   0.000687  -0.000025  -0.000024
    21  H    0.360223  -0.043838   0.592978  -0.001704  -0.000035   0.000054
    22  N   -0.001140   0.000687  -0.001704   6.485782   0.392308   0.414550
    23  H   -0.000542  -0.000025  -0.000035   0.392308   0.510441  -0.038379
    24  H   -0.000235  -0.000024   0.000054   0.414550  -0.038379   0.480804
 Mulliken charges:
               1
     1  C   -0.269517
     2  H    0.132815
     3  H    0.095739
     4  C   -0.112049
     5  H    0.138503
     6  H    0.107290
     7  C   -0.136029
     8  H    0.135609
     9  H    0.139447
    10  N   -0.233124
    11  C   -0.169177
    12  H    0.159829
    13  H    0.120613
    14  H    0.136684
    15  C   -0.112894
    16  H    0.113522
    17  H    0.157555
    18  H    0.142334
    19  C   -0.636678
    20  H    0.077996
    21  H    0.080574
    22  N   -0.401476
    23  H    0.161241
    24  H    0.171197
 Sum of Mulliken charges =  -0.00000
 Mulliken charges with hydrogens summed into heavy atoms:
               1
     1  C   -0.040964
     4  C    0.133743
     7  C    0.139026
    10  N   -0.233124
    11  C    0.247949
    15  C    0.300517
    19  C   -0.478109
    22  N   -0.069038
 APT charges:
               1
     1  C    0.334913
     2  H    0.011556
     3  H   -0.096384
     4  C    0.037928
     5  H    0.017526
     6  H   -0.035527
     7  C    0.164028
     8  H    0.004106
     9  H   -0.068225
    10  N   -0.332250
    11  C    0.189359
    12  H    0.045871
    13  H   -0.007824
    14  H    0.023492
    15  C    0.208785
    16  H   -0.013044
    17  H    0.042589
    18  H    0.018568
    19  C   -0.229712
    20  H   -0.046253
    21  H   -0.044634
    22  N   -0.483681
    23  H    0.126666
    24  H    0.132147
 Sum of APT charges =  -0.00000
 APT charges with hydrogens summed into heavy atoms:
               1
     1  C    0.250086
     4  C    0.019926
     7  C    0.099909
    10  N   -0.332250
    11  C    0.250899
    15  C    0.256897
    19  C   -0.320598
    22  N   -0.224868
 Electronic spatial extent (au):  <R**2>=           1374.0613
 Charge=              0.0000 electrons
 Dipole moment (field-independent basis, Debye):
    X=             -0.6791    Y=              2.9996    Z=             -4.5698  Tot=              5.5083
 Quadrupole moment (field-independent basis, Debye-Ang):
   XX=            -48.6225   YY=            -56.0680   ZZ=            -58.9814
   XY=              7.6184   XZ=             -2.3098   YZ=              4.7599
 Traceless Quadrupole moment (field-independent basis, Debye-Ang):
   XX=              5.9348   YY=             -1.5107   ZZ=             -4.4241
   XY=              7.6184   XZ=             -2.3098   YZ=              4.7599
 Octapole moment (field-independent basis, Debye-Ang**2):
  XXX=            -23.6399  YYY=             13.5543  ZZZ=            -16.9618  XYY=            -11.9456
  XXY=              3.4963  XXZ=            -23.0340  XZZ=             -5.0479  YZZ=             10.7756
  YYZ=            -10.3546  XYZ=             16.3500
 Hexadecapole moment (field-independent basis, Debye-Ang**3):
 XXXX=          -1156.2017 YYYY=           -297.5676 ZZZZ=           -290.5967 XXXY=             48.6405
 XXXZ=             10.3555 YYYX=             27.4820 YYYZ=             19.2540 ZZZX=            -20.1993
 ZZZY=             24.7423 XXYY=           -263.9347 XXZZ=           -291.5880 YYZZ=            -99.9136
 XXYZ=              1.7728 YYXZ=            -19.4467 ZZXY=             22.9235
 N-N= 4.207657668364D+02 E-N=-1.647777428688D+03  KE= 3.461080283717D+02
  Exact polarizability: 111.639  -3.068  91.640   3.278  -3.835  92.488
 Approx polarizability: 103.210  -1.358 101.288   1.258  -2.274 101.885
 Calling FoFJK, ICntrl=    100127 FMM=F ISym2X=0 I1Cent= 0 IOpClX= 0 NMat=1 NMatS=1 NMatT=0.
 Full mass-weighted force constant matrix:
 Low frequencies ---  -14.9896   -7.0161   -2.2034    0.0005    0.0006    0.0006
 Low frequencies ---   71.0684   91.5431   98.0851
 Diagonal vibrational polarizability:
       20.5429555      25.2469158      27.5619080
 Harmonic frequencies (cm**-1), IR intensities (KM/Mole), Raman scattering
 activities (A**4/AMU), depolarization ratios for plane and unpolarized
 incident light, reduced masses (AMU), force constants (mDyne/A),
 and normal coordinates:
                      1                      2                      3
                      A                      A                      A
 Frequencies --     70.9262                91.5392                98.0840
 Red. masses --      1.8307                 3.1960                 2.4617
 Frc consts  --      0.0054                 0.0158                 0.0140
 IR Inten    --      3.0166                 0.2842                 3.7537
  Atom  AN      X      Y      Z        X      Y      Z        X      Y      Z
     1   6     0.06  -0.05   0.18     0.03   0.03  -0.09     0.09  -0.03   0.03
     2   1     0.05   0.14   0.44     0.17  -0.02  -0.26     0.16   0.04   0.07
     3   1     0.14  -0.36   0.28    -0.18   0.14  -0.11     0.16  -0.08   0.04
     4   6    -0.01   0.01  -0.09     0.01   0.05  -0.19    -0.02   0.07   0.00
     5   1    -0.04   0.29  -0.18    -0.02   0.14  -0.21    -0.04   0.13  -0.01
     6   1    -0.08  -0.15  -0.30     0.02  -0.00  -0.27    -0.09   0.01  -0.04
     7   6     0.02   0.02  -0.03     0.04   0.00  -0.10     0.01   0.17   0.01
     8   1     0.04   0.04  -0.07     0.06  -0.01  -0.09     0.03   0.27  -0.12
     9   1     0.04   0.04   0.01     0.10  -0.02  -0.09     0.04   0.26   0.15
    10   7    -0.01  -0.01  -0.01    -0.04  -0.01  -0.00    -0.02   0.03   0.00
    11   6    -0.05  -0.04   0.06    -0.11  -0.01   0.04     0.12  -0.02  -0.01
    12   1    -0.04  -0.05   0.04    -0.13  -0.01   0.07    -0.00  -0.15   0.08
    13   1    -0.07   0.01   0.11    -0.09   0.01   0.07     0.34  -0.11  -0.02
    14   1    -0.06  -0.10   0.08    -0.14  -0.04   0.01     0.12   0.16  -0.11
    15   6     0.02   0.05  -0.00     0.03  -0.00   0.10    -0.09  -0.12  -0.01
    16   1     0.04   0.09   0.05     0.11   0.01   0.14    -0.06  -0.19  -0.08
    17   1     0.00   0.02   0.01    -0.04  -0.03   0.17    -0.08  -0.14  -0.03
    18   1     0.05   0.07  -0.06     0.07   0.01   0.04    -0.19  -0.13   0.06
    19   6    -0.02  -0.06  -0.07    -0.12  -0.01  -0.03    -0.13   0.07   0.02
    20   1    -0.03  -0.02  -0.11    -0.06  -0.02  -0.07    -0.26   0.12   0.04
    21   1    -0.01  -0.07  -0.05    -0.18  -0.02  -0.11    -0.04   0.18   0.06
    22   7    -0.00   0.07  -0.04     0.16  -0.05   0.24     0.03  -0.14  -0.03
    23   1    -0.01  -0.16  -0.28     0.01   0.02   0.43    -0.06  -0.26  -0.09
    24   1     0.03   0.09   0.19     0.20  -0.08   0.28     0.13  -0.21   0.03
                      4                      5                      6
                      A                      A                      A
 Frequencies --    216.2684               233.1289               274.2812
 Red. masses --      1.2041                 1.1305                 1.6141
 Frc consts  --      0.0332                 0.0362                 0.0715
 IR Inten    --      9.9714                23.6840                 3.9485
  Atom  AN      X      Y      Z        X      Y      Z        X      Y      Z
     1   6    -0.02  -0.06   0.01    -0.04   0.04  -0.04    -0.03  -0.06   0.02
     2   1    -0.06  -0.07   0.03    -0.04   0.02  -0.07    -0.10  -0.10   0.01
     3   1    -0.05  -0.06   0.02    -0.07   0.07  -0.04    -0.04  -0.04   0.01
     4   6    -0.01  -0.07   0.00     0.01   0.01   0.01     0.02  -0.10   0.07
     5   1    -0.02  -0.08   0.00     0.01  -0.06   0.03     0.07  -0.23   0.11
     6   1    -0.03  -0.07   0.02     0.04   0.06   0.05    -0.01  -0.02   0.21
     7   6     0.01   0.01  -0.01     0.01  -0.02   0.00     0.01   0.02  -0.03
     8   1     0.06   0.05  -0.07     0.00  -0.03   0.02     0.04   0.04  -0.06
     9   1    -0.02   0.08   0.05     0.01  -0.04  -0.02    -0.05   0.07   0.00
    10   7     0.01   0.01  -0.01     0.02  -0.01   0.00     0.01   0.03  -0.04
    11   6    -0.00   0.00   0.01     0.01  -0.00   0.00     0.03   0.03  -0.04
    12   1    -0.28  -0.12   0.30    -0.14  -0.06   0.16     0.01   0.02  -0.03
    13   1     0.39  -0.14   0.02     0.21  -0.08   0.01     0.06   0.01  -0.06
    14   1    -0.13   0.26  -0.30    -0.06   0.13  -0.16     0.03   0.07  -0.06
    15   6     0.03   0.03   0.01     0.03   0.02   0.01     0.07  -0.01   0.06
    16   1    -0.11  -0.05  -0.13    -0.05  -0.02  -0.07     0.40   0.14   0.35
    17   1     0.10   0.25   0.00     0.08   0.15   0.00    -0.15  -0.40   0.19
    18   1     0.12  -0.10   0.18     0.10  -0.06   0.10    -0.03   0.21  -0.28
    19   6    -0.02  -0.01  -0.04     0.02  -0.02  -0.02    -0.11   0.05  -0.06
    20   1    -0.18   0.07  -0.06    -0.05   0.01  -0.02    -0.03   0.04  -0.11
    21   1     0.08   0.05   0.05     0.07  -0.01   0.04    -0.19   0.04  -0.17
    22   7     0.01   0.04   0.03    -0.04   0.02  -0.00    -0.01   0.04   0.01
    23   1     0.19   0.26   0.12    -0.37  -0.43  -0.22    -0.04  -0.06  -0.08
    24   1    -0.15   0.13  -0.20     0.22  -0.07   0.57     0.00   0.07   0.18
                      7                      8                      9
                      A                      A                      A
 Frequencies --    297.2895               307.4328               340.3539
 Red. masses --      1.8589                 1.7196                 2.1757
 Frc consts  --      0.0968                 0.0958                 0.1485
 IR Inten    --      2.7478                 2.8962                 8.6105
  Atom  AN      X      Y      Z        X      Y      Z        X      Y      Z
     1   6    -0.09  -0.01  -0.03     0.07   0.09   0.06     0.08  -0.05  -0.05
     2   1    -0.06   0.01  -0.04     0.13   0.13   0.08     0.05  -0.07  -0.06
     3   1    -0.15  -0.03  -0.02     0.17   0.07   0.05     0.05  -0.04  -0.06
     4   6    -0.09   0.01  -0.12     0.03   0.12   0.06     0.04  -0.06   0.01
     5   1    -0.18   0.19  -0.17     0.08   0.12   0.05     0.03  -0.17   0.04
     6   1    -0.05  -0.09  -0.31     0.07   0.13   0.04     0.01  -0.02   0.10
     7   6     0.00  -0.01   0.03    -0.03  -0.07   0.00    -0.01  -0.02   0.00
     8   1     0.05  -0.01   0.03    -0.16  -0.16   0.15    -0.01  -0.02   0.00
     9   1     0.02  -0.01   0.04    -0.01  -0.20  -0.16     0.01  -0.03   0.01
    10   7     0.03   0.01   0.03    -0.02  -0.03  -0.02    -0.05  -0.01   0.02
    11   6     0.12  -0.03   0.04    -0.07   0.01  -0.06    -0.09  -0.01   0.04
    12   1    -0.01  -0.16   0.15    -0.28  -0.03   0.20    -0.18  -0.05   0.14
    13   1     0.34  -0.10   0.05     0.23  -0.13  -0.09     0.03  -0.04   0.06
    14   1     0.09   0.12  -0.08    -0.17   0.23  -0.32    -0.14   0.04  -0.07
    15   6     0.00   0.03  -0.04     0.02   0.02   0.02    -0.13   0.05  -0.10
    16   1     0.19   0.20   0.21     0.17   0.12   0.19    -0.07   0.19   0.07
    17   1    -0.10  -0.32  -0.04    -0.09  -0.17   0.08    -0.13  -0.22  -0.19
    18   1    -0.12   0.24  -0.34     0.01   0.14  -0.18    -0.26   0.22  -0.32
    19   6     0.10   0.01   0.07     0.01  -0.05  -0.02     0.02   0.01   0.10
    20   1     0.12  -0.02   0.09    -0.02  -0.03  -0.03    -0.24   0.06   0.20
    21   1     0.07  -0.00   0.04     0.02  -0.06   0.01     0.22   0.14   0.29
    22   7    -0.07  -0.02   0.04    -0.02  -0.08  -0.02     0.15   0.08  -0.04
    23   1    -0.05   0.07   0.11     0.04   0.02   0.04     0.10  -0.05  -0.13
    24   1    -0.10  -0.01  -0.06     0.00  -0.15  -0.28     0.15   0.14   0.24
                     10                     11                     12
                      A                      A                      A
 Frequencies --    351.8534               402.8955               447.9322
 Red. masses --      1.3575                 1.6816                 2.5383
 Frc consts  --      0.0990                 0.1608                 0.3001
 IR Inten    --     12.3100                14.0464                21.0530
  Atom  AN      X      Y      Z        X      Y      Z        X      Y      Z
     1   6     0.01  -0.02  -0.01    -0.03   0.01  -0.00    -0.02   0.03   0.04
     2   1     0.00  -0.02  -0.01    -0.03   0.01   0.00    -0.02   0.03   0.05
     3   1     0.01  -0.02  -0.01    -0.04   0.01   0.00    -0.00   0.01   0.05
     4   6    -0.01  -0.00   0.01    -0.02   0.01  -0.00     0.04  -0.00   0.02
     5   1    -0.05  -0.00   0.01    -0.04   0.00   0.00     0.15  -0.10   0.03
     6   1    -0.05  -0.01   0.02    -0.04   0.01   0.01     0.03   0.07   0.14
     7   6     0.00   0.07   0.01     0.02   0.10  -0.02     0.01   0.00  -0.11
     8   1     0.03   0.17  -0.11     0.04   0.25  -0.21    -0.02  -0.01  -0.09
     9   1     0.02   0.16   0.15     0.05   0.23   0.18    -0.03   0.00  -0.14
    10   7    -0.02  -0.01   0.01     0.01  -0.03  -0.03     0.04   0.02  -0.11
    11   6    -0.05   0.04  -0.04    -0.10   0.01  -0.05    -0.09  -0.09   0.14
    12   1    -0.15   0.06   0.10    -0.04   0.15  -0.05    -0.26  -0.26   0.27
    13   1     0.06  -0.03  -0.07    -0.22   0.04  -0.06     0.04   0.07   0.38
    14   1    -0.12   0.13  -0.17    -0.14  -0.08  -0.05    -0.22  -0.25   0.05
    15   6    -0.05  -0.06   0.02     0.06  -0.08   0.04     0.05  -0.08  -0.07
    16   1    -0.02  -0.09  -0.00     0.22  -0.08   0.10     0.11  -0.15  -0.11
    17   1    -0.05  -0.08   0.02    -0.05  -0.20   0.14     0.02  -0.10  -0.04
    18   1    -0.10  -0.05   0.03     0.03  -0.04  -0.01    -0.01  -0.09  -0.02
    19   6     0.09  -0.04   0.03     0.12  -0.06  -0.00     0.05   0.21   0.05
    20   1     0.63  -0.26  -0.04    -0.33   0.10   0.09     0.29  -0.04   0.23
    21   1    -0.27  -0.33  -0.27     0.47   0.10   0.37    -0.08   0.22  -0.14
    22   7     0.03   0.03  -0.01    -0.04  -0.00   0.01    -0.06  -0.02   0.01
    23   1     0.03  -0.00  -0.04    -0.04   0.02   0.03    -0.05  -0.01   0.02
    24   1     0.02   0.06   0.08    -0.04  -0.01  -0.02    -0.04  -0.06  -0.09
                     13                     14                     15
                      A                      A                      A
 Frequencies --    464.6985               508.4684               566.0023
 Red. masses --      2.3188                 2.5001                 2.6396
 Frc consts  --      0.2950                 0.3808                 0.4982
 IR Inten    --     11.6527                21.2001                 3.4607
  Atom  AN      X      Y      Z        X      Y      Z        X      Y      Z
     1   6     0.01   0.01   0.01     0.03  -0.03  -0.02     0.03  -0.05  -0.06
     2   1     0.00   0.01   0.00     0.08   0.01   0.01     0.05  -0.08  -0.10
     3   1     0.01   0.02   0.01     0.04  -0.06  -0.01     0.05   0.03  -0.09
     4   6    -0.00   0.01   0.01    -0.07   0.03  -0.00    -0.16   0.06   0.08
     5   1     0.04  -0.02   0.02     0.06  -0.14   0.04    -0.46   0.28   0.04
     6   1    -0.03   0.03   0.06    -0.16   0.10   0.18    -0.17  -0.11  -0.20
     7   6    -0.02   0.06  -0.04    -0.15   0.01  -0.11    -0.11  -0.00   0.18
     8   1    -0.02   0.22  -0.26    -0.18  -0.09   0.02    -0.25  -0.04   0.26
     9   1     0.05   0.19   0.18    -0.16  -0.08  -0.23    -0.16  -0.08   0.03
    10   7    -0.06  -0.13  -0.03    -0.12   0.06  -0.05     0.06  -0.02  -0.06
    11   6     0.01  -0.14  -0.11     0.09  -0.07   0.02    -0.03  -0.05  -0.02
    12   1     0.04  -0.14  -0.16     0.10  -0.32  -0.12    -0.06  -0.00   0.04
    13   1     0.00  -0.18  -0.17     0.18  -0.05   0.08    -0.06   0.01   0.04
    14   1     0.08  -0.06  -0.07     0.23   0.01   0.17    -0.12  -0.16  -0.07
    15   6     0.08   0.13   0.00    -0.04   0.01   0.15     0.13  -0.05  -0.04
    16   1    -0.07   0.28   0.11     0.10  -0.06   0.13     0.18  -0.07  -0.04
    17   1     0.11   0.33   0.04    -0.18   0.08   0.34     0.08  -0.00   0.05
    18   1     0.37   0.10  -0.11     0.08  -0.05   0.20     0.19  -0.08  -0.01
    19   6    -0.06   0.02   0.17     0.13   0.01  -0.05    -0.02   0.07  -0.03
    20   1     0.10  -0.18   0.34     0.12  -0.03   0.03    -0.02   0.04   0.01
    21   1    -0.15   0.10  -0.01     0.25  -0.12   0.19    -0.06   0.17  -0.15
    22   7    -0.00   0.00  -0.00     0.07   0.02  -0.02     0.12   0.03  -0.04
    23   1    -0.00  -0.00  -0.01     0.09   0.01  -0.05     0.13   0.03  -0.04
    24   1     0.00  -0.01  -0.01     0.03   0.07   0.07     0.05   0.14   0.19
                     16                     17                     18
                      A                      A                      A
 Frequencies --    710.4699               757.5843               823.3987
 Red. masses --      2.7930                 1.8582                 1.5893
 Frc consts  --      0.8306                 0.6284                 0.6349
 IR Inten    --      1.9958                 8.4067                52.3584
  Atom  AN      X      Y      Z        X      Y      Z        X      Y      Z
     1   6     0.01   0.03   0.02    -0.02  -0.00  -0.04    -0.04   0.01  -0.04
     2   1    -0.12  -0.16  -0.15     0.16   0.28   0.24    -0.01   0.22   0.25
     3   1     0.00   0.27  -0.07     0.00  -0.39   0.11     0.11  -0.33   0.07
     4   6     0.10  -0.07   0.04    -0.06   0.05  -0.07     0.03   0.01  -0.01
     5   1    -0.05   0.34  -0.08    -0.01  -0.40   0.08    -0.06  -0.12   0.04
     6   1     0.16  -0.28  -0.34     0.03   0.31   0.28     0.18   0.11   0.03
     7   6     0.08  -0.05   0.12    -0.00   0.01   0.01     0.08  -0.01   0.09
     8   1     0.10   0.06  -0.03     0.04  -0.03   0.05     0.06   0.01   0.07
     9   1     0.07   0.05   0.26     0.09  -0.03   0.02     0.06  -0.02   0.06
    10   7    -0.07  -0.04   0.01     0.03  -0.10   0.12    -0.01   0.07  -0.08
    11   6    -0.04  -0.11  -0.07    -0.00  -0.03   0.01    -0.02  -0.05  -0.06
    12   1    -0.04  -0.17  -0.10     0.04   0.16   0.05    -0.06  -0.17  -0.08
    13   1    -0.02  -0.15  -0.11    -0.08  -0.13  -0.15     0.02   0.03   0.06
    14   1     0.01  -0.06  -0.04    -0.04   0.03  -0.08    -0.01  -0.11  -0.01
    15   6    -0.11   0.04   0.09     0.01  -0.01   0.01    -0.04   0.03   0.02
    16   1    -0.12   0.07   0.12    -0.14   0.09   0.06     0.08  -0.05  -0.02
    17   1    -0.15   0.06   0.14     0.11  -0.02  -0.11    -0.13   0.04   0.12
    18   1    -0.06   0.04   0.06    -0.00   0.04  -0.07    -0.03  -0.01   0.09
    19   6     0.06   0.19  -0.18    -0.01   0.12  -0.13     0.03  -0.03   0.05
    20   1     0.17   0.03  -0.01     0.17  -0.05   0.02    -0.10   0.10  -0.07
    21   1     0.20   0.08   0.05     0.13   0.02   0.10    -0.10   0.04  -0.14
    22   7    -0.02   0.00   0.01     0.01  -0.01  -0.00    -0.00  -0.05  -0.06
    23   1    -0.05  -0.06  -0.04    -0.01   0.09   0.12    -0.11   0.32   0.45
    24   1     0.03  -0.06  -0.07    -0.02   0.03   0.07    -0.04   0.10   0.38
                     19                     20                     21
                      A                      A                      A
 Frequencies --    848.9551               882.4653               951.9030
 Red. masses --      1.4627                 2.0436                 2.0321
 Frc consts  --      0.6211                 0.9377                 1.0849
 IR Inten    --     80.9487                 9.9719                29.3445
  Atom  AN      X      Y      Z        X      Y      Z        X      Y      Z
     1   6    -0.02  -0.02   0.03     0.02   0.14   0.00     0.01   0.08   0.03
     2   1    -0.17  -0.15  -0.06     0.03   0.24   0.13    -0.05   0.03   0.00
     3   1     0.15   0.18  -0.06     0.13  -0.03   0.05     0.07   0.12   0.01
     4   6     0.03   0.02   0.06    -0.02  -0.10  -0.02    -0.07  -0.04   0.01
     5   1     0.11   0.29  -0.04     0.06  -0.05  -0.05     0.05   0.01  -0.03
     6   1    -0.09  -0.15  -0.12     0.14  -0.06  -0.09    -0.13  -0.05   0.03
     7   6    -0.02   0.02  -0.10    -0.12  -0.13   0.04    -0.08  -0.03  -0.08
     8   1    -0.08  -0.01  -0.05     0.09   0.18  -0.41     0.08   0.02  -0.17
     9   1     0.01  -0.01  -0.12    -0.21   0.25   0.49    -0.16   0.11   0.05
    10   7     0.00  -0.05   0.05    -0.05  -0.03  -0.02     0.15  -0.00   0.05
    11   6     0.01   0.04   0.04     0.03   0.10   0.06     0.01  -0.09  -0.04
    12   1     0.03   0.10   0.05     0.02  -0.03   0.00    -0.00   0.15   0.09
    13   1    -0.00  -0.02  -0.04     0.08   0.10   0.09    -0.08  -0.05  -0.04
    14   1     0.01   0.09   0.01     0.08   0.13   0.13    -0.13  -0.21  -0.16
    15   6     0.02  -0.01  -0.00     0.05  -0.03  -0.04    -0.08   0.04   0.10
    16   1    -0.07   0.04   0.02     0.09  -0.02  -0.02    -0.18   0.05   0.07
    17   1     0.08  -0.02  -0.09    -0.01  -0.01   0.04     0.08  -0.05  -0.12
    18   1     0.01   0.02  -0.05     0.11  -0.05  -0.05    -0.23   0.10   0.09
    19   6    -0.01   0.01  -0.03    -0.01   0.01  -0.02     0.07  -0.01   0.03
    20   1     0.07  -0.08   0.07     0.02  -0.04   0.03    -0.25   0.34  -0.27
    21   1     0.08  -0.04   0.11     0.01  -0.01   0.03    -0.20   0.20  -0.42
    22   7    -0.00  -0.06  -0.09     0.05  -0.01  -0.04     0.04  -0.01  -0.03
    23   1    -0.03   0.34   0.40    -0.12   0.07   0.20    -0.03   0.02   0.06
    24   1    -0.12   0.20   0.52     0.20  -0.13  -0.02     0.12  -0.06  -0.02
                     22                     23                     24
                      A                      A                      A
 Frequencies --   1006.3295              1025.9276              1069.5642
 Red. masses --      1.6207                 1.8896                 1.7027
 Frc consts  --      0.9670                 1.1718                 1.1477
 IR Inten    --      8.5002                 2.3441                17.2349
  Atom  AN      X      Y      Z        X      Y      Z        X      Y      Z
     1   6    -0.01  -0.09   0.02     0.00   0.00   0.05    -0.01   0.05   0.07
     2   1     0.19  -0.14  -0.18     0.06  -0.10  -0.13     0.18  -0.01  -0.13
     3   1    -0.10   0.10  -0.03    -0.03   0.20  -0.02    -0.06   0.25   0.00
     4   6    -0.01   0.13  -0.01    -0.02   0.02  -0.05    -0.11   0.01  -0.00
     5   1     0.13  -0.01   0.02     0.25  -0.06  -0.06    -0.04  -0.08   0.02
     6   1     0.08   0.23   0.09    -0.06   0.09   0.09    -0.09   0.08   0.08
     7   6     0.01  -0.11   0.01    -0.02  -0.03   0.02     0.07  -0.07  -0.00
     8   1     0.02   0.11  -0.29     0.18  -0.01  -0.03     0.30  -0.03  -0.10
     9   1     0.19   0.03   0.30     0.01   0.05   0.14    -0.04   0.06   0.09
    10   7    -0.01  -0.07  -0.04    -0.06   0.10   0.11     0.07   0.05  -0.04
    11   6     0.02   0.07   0.03    -0.10  -0.09  -0.04     0.03  -0.01  -0.05
    12   1    -0.01  -0.02   0.02    -0.01  -0.26  -0.23    -0.06  -0.03   0.06
    13   1     0.06   0.10   0.08     0.04  -0.23  -0.14    -0.01   0.15   0.12
    14   1     0.03   0.03   0.07     0.17   0.20   0.15    -0.11  -0.25  -0.11
    15   6    -0.04  -0.00   0.01     0.13  -0.00  -0.05    -0.03   0.05   0.03
    16   1    -0.03   0.04   0.07     0.14  -0.14  -0.20     0.02  -0.05  -0.06
    17   1    -0.08   0.06   0.07     0.18  -0.19  -0.17    -0.04  -0.05   0.01
    18   1     0.10  -0.03  -0.04    -0.22   0.03   0.09    -0.16   0.05   0.10
    19   6     0.05   0.01  -0.01     0.01   0.03   0.02    -0.10  -0.02  -0.02
    20   1    -0.17   0.15  -0.08    -0.02   0.23  -0.24     0.27  -0.32   0.20
    21   1    -0.10   0.17  -0.29    -0.08  -0.16   0.03     0.21  -0.11   0.40
    22   7    -0.02  -0.02   0.01     0.00  -0.02  -0.02     0.03  -0.03  -0.03
    23   1     0.25  -0.02  -0.21     0.11   0.03  -0.05     0.17   0.02  -0.09
    24   1    -0.30   0.24   0.18    -0.10   0.10   0.12    -0.08   0.10   0.12
                     25                     26                     27
                      A                      A                      A
 Frequencies --   1087.7880              1091.2395              1107.5274
 Red. masses --      1.9738                 1.8471                 1.2443
 Frc consts  --      1.3760                 1.2960                 0.8992
 IR Inten    --      3.3185                 4.9109                 0.6162
  Atom  AN      X      Y      Z        X      Y      Z        X      Y      Z
     1   6    -0.06   0.01  -0.03    -0.07   0.07   0.12     0.01  -0.01  -0.02
     2   1    -0.18   0.09   0.15    -0.23  -0.11  -0.04     0.03   0.03   0.02
     3   1     0.04  -0.14   0.02    -0.14   0.26   0.05     0.04  -0.05  -0.01
     4   6    -0.11   0.04   0.13    -0.07  -0.04  -0.06    -0.01   0.01   0.03
     5   1    -0.37   0.11   0.15     0.09  -0.16  -0.03    -0.05   0.04   0.02
     6   1    -0.19  -0.08  -0.02    -0.29   0.01   0.18     0.01  -0.01  -0.02
     7   6     0.15  -0.07  -0.10     0.09   0.04   0.03     0.01  -0.02  -0.02
     8   1     0.06   0.00  -0.18     0.15  -0.10   0.20     0.01   0.01  -0.06
     9   1     0.30  -0.07  -0.02     0.21  -0.12  -0.11    -0.00   0.01   0.02
    10   7    -0.04  -0.02  -0.00    -0.06  -0.03  -0.00     0.02  -0.02  -0.02
    11   6    -0.05   0.05  -0.00     0.01  -0.00   0.04    -0.02  -0.03   0.08
    12   1    -0.02  -0.31  -0.20     0.06   0.18   0.06     0.16   0.22  -0.03
    13   1     0.15   0.01   0.04    -0.07  -0.09  -0.10    -0.08  -0.30  -0.27
    14   1     0.15   0.15   0.21    -0.01   0.09  -0.04     0.07   0.30   0.01
    15   6     0.02  -0.01   0.03    -0.03  -0.02  -0.07    -0.00   0.09  -0.02
    16   1    -0.16   0.03   0.00     0.15   0.02   0.05     0.28  -0.23  -0.24
    17   1     0.19  -0.07  -0.20    -0.24   0.16   0.25    -0.18  -0.14   0.12
    18   1    -0.13   0.08  -0.04     0.32  -0.13  -0.08    -0.27  -0.00   0.29
    19   6     0.02   0.01  -0.00     0.04   0.01  -0.00    -0.00  -0.02  -0.02
    20   1    -0.05   0.05  -0.03    -0.11   0.07  -0.00    -0.02  -0.22   0.26
    21   1    -0.02  -0.00  -0.05    -0.07   0.08  -0.18     0.02   0.26  -0.18
    22   7     0.06   0.01   0.00     0.09  -0.03  -0.07    -0.01   0.01   0.01
    23   1    -0.08  -0.06   0.02     0.04   0.01   0.03    -0.01  -0.01  -0.00
    24   1     0.19  -0.14  -0.18     0.19  -0.10  -0.05    -0.01   0.00  -0.01
                     28                     29                     30
                      A                      A                      A
 Frequencies --   1119.4321              1169.2035              1183.6274
 Red. masses --      2.3349                 1.5980                 1.2983
 Frc consts  --      1.7239                 1.2871                 1.0717
 IR Inten    --     22.2070                 2.3404                 2.5069
  Atom  AN      X      Y      Z        X      Y      Z        X      Y      Z
     1   6     0.24   0.01  -0.05     0.05   0.04   0.06    -0.02   0.06   0.01
     2   1     0.25  -0.02  -0.09     0.12  -0.04  -0.10     0.40   0.21  -0.07
     3   1     0.44   0.16  -0.12    -0.08   0.17   0.02    -0.13   0.02   0.04
     4   6    -0.11  -0.05   0.00    -0.01  -0.07  -0.08    -0.01  -0.06   0.05
     5   1    -0.14  -0.15   0.04    -0.02  -0.21  -0.03    -0.32  -0.00   0.07
     6   1    -0.42  -0.14   0.10    -0.06   0.00   0.07     0.31  -0.03  -0.15
     7   6     0.07  -0.03  -0.02     0.00   0.07   0.07     0.04   0.02  -0.04
     8   1     0.24  -0.08   0.02    -0.20   0.00   0.19     0.08  -0.03   0.01
     9   1     0.08  -0.04  -0.02    -0.04  -0.05  -0.11    -0.23   0.07  -0.14
    10   7    -0.03   0.00   0.01     0.02  -0.05  -0.06    -0.03   0.04  -0.03
    11   6     0.01  -0.01   0.01    -0.05   0.07  -0.00    -0.01  -0.03   0.05
    12   1     0.02   0.04   0.01    -0.03  -0.29  -0.19     0.12   0.15  -0.02
    13   1    -0.03  -0.02  -0.02     0.15   0.03   0.05    -0.07  -0.19  -0.17
    14   1    -0.01   0.01  -0.02     0.14   0.14   0.21     0.01   0.17  -0.03
    15   6    -0.01  -0.02  -0.04     0.01  -0.01   0.09    -0.00  -0.05   0.01
    16   1     0.04   0.04   0.05    -0.23   0.03   0.02    -0.13   0.11   0.12
    17   1    -0.09   0.09   0.09     0.24  -0.09  -0.22     0.08   0.08  -0.06
    18   1     0.18  -0.06  -0.07    -0.20   0.12  -0.03     0.13  -0.00  -0.16
    19   6     0.02   0.01   0.01     0.02  -0.03  -0.03     0.02   0.00   0.02
    20   1    -0.04   0.09  -0.07    -0.07  -0.22   0.27    -0.04   0.07  -0.05
    21   1    -0.04  -0.02  -0.04     0.03   0.31  -0.23    -0.04  -0.05  -0.02
    22   7    -0.16   0.06   0.05    -0.02  -0.01  -0.02    -0.00  -0.04  -0.00
    23   1    -0.24   0.15   0.21     0.02   0.06   0.03     0.25  -0.02  -0.18
    24   1    -0.11   0.05   0.14    -0.03   0.03   0.08    -0.20   0.16   0.14
                     31                     32                     33
                      A                      A                      A
 Frequencies --   1232.2671              1262.2938              1288.8733
 Red. masses --      1.4669                 1.5493                 1.5747
 Frc consts  --      1.3124                 1.4545                 1.5412
 IR Inten    --      1.3407                 1.4427                 1.8582
  Atom  AN      X      Y      Z        X      Y      Z        X      Y      Z
     1   6    -0.01  -0.06  -0.02    -0.04   0.02  -0.05     0.05  -0.03   0.05
     2   1    -0.22  -0.10   0.05     0.12   0.16   0.04    -0.08  -0.17  -0.06
     3   1     0.17  -0.04  -0.06     0.16  -0.08  -0.04    -0.27   0.04   0.06
     4   6    -0.02   0.07  -0.01    -0.02  -0.03   0.04     0.03   0.04  -0.04
     5   1     0.37   0.11  -0.08     0.27   0.21  -0.08    -0.29  -0.18   0.08
     6   1    -0.08   0.09   0.07     0.01  -0.04  -0.02     0.00   0.04  -0.01
     7   6     0.01  -0.04   0.05    -0.01   0.04  -0.02    -0.01  -0.03  -0.01
     8   1     0.36  -0.06   0.02     0.29  -0.12   0.13    -0.28   0.11  -0.14
     9   1    -0.28   0.11   0.06    -0.17   0.07  -0.08    -0.08   0.04   0.04
    10   7     0.01   0.08  -0.08     0.10  -0.02   0.08     0.14   0.01  -0.02
    11   6    -0.02  -0.04   0.04    -0.08   0.03  -0.05    -0.08  -0.01   0.04
    12   1     0.09   0.14  -0.02    -0.10  -0.31  -0.17     0.11  -0.09  -0.24
    13   1    -0.07  -0.18  -0.15     0.21   0.02   0.08     0.14  -0.21  -0.11
    14   1     0.03   0.19  -0.01     0.16   0.04   0.26     0.11   0.23   0.14
    15   6    -0.01  -0.07   0.05    -0.06  -0.01  -0.05    -0.07  -0.01  -0.02
    16   1    -0.26   0.15   0.17     0.15   0.04   0.09     0.04   0.07   0.12
    17   1     0.18   0.10  -0.13    -0.22   0.12   0.19    -0.14   0.13   0.12
    18   1     0.10   0.05  -0.23     0.24  -0.14   0.01     0.17  -0.08  -0.03
    19   6    -0.00  -0.02  -0.01    -0.01  -0.02  -0.02    -0.04   0.01   0.03
    20   1     0.02  -0.16   0.16     0.03  -0.10   0.08     0.16   0.11  -0.21
    21   1     0.05   0.09  -0.01     0.05   0.18  -0.08     0.06  -0.14   0.24
    22   7     0.01   0.02   0.01     0.01  -0.01   0.02    -0.01   0.02  -0.03
    23   1    -0.11  -0.02   0.06     0.11  -0.06  -0.12    -0.14   0.07   0.14
    24   1     0.08  -0.06  -0.09    -0.11   0.08   0.02     0.13  -0.10  -0.03
                     34                     35                     36
                      A                      A                      A
 Frequencies --   1323.7828              1351.7782              1365.0949
 Red. masses --      1.3996                 1.0940                 1.4715
 Frc consts  --      1.4451                 1.1778                 1.6156
 IR Inten    --      7.7508                 8.8951                 8.7495
  Atom  AN      X      Y      Z        X      Y      Z        X      Y      Z
     1   6    -0.05   0.04  -0.04    -0.01   0.01   0.02    -0.01   0.04  -0.01
     2   1     0.09   0.18   0.05    -0.43  -0.15   0.08    -0.15   0.03   0.07
     3   1     0.33   0.00  -0.08     0.60   0.17  -0.12     0.21   0.03  -0.04
     4   6    -0.04  -0.06  -0.00    -0.02   0.01  -0.05     0.04  -0.02  -0.01
     5   1     0.43   0.10  -0.13    -0.26  -0.19   0.05    -0.18  -0.12   0.05
     6   1    -0.18  -0.09   0.04     0.36   0.19  -0.06    -0.10  -0.09  -0.01
     7   6     0.02   0.02   0.04     0.01   0.01  -0.01    -0.06  -0.02  -0.02
     8   1    -0.34   0.09   0.01     0.05   0.00  -0.00    -0.29   0.09  -0.12
     9   1     0.29  -0.13   0.02    -0.17   0.03  -0.10     0.55  -0.15   0.20
    10   7     0.05  -0.04  -0.10     0.00  -0.03  -0.00     0.02   0.13   0.06
    11   6    -0.02  -0.00   0.04    -0.00   0.02   0.01    -0.00  -0.04  -0.01
    12   1     0.08   0.10  -0.04     0.02  -0.05  -0.05     0.01   0.02  -0.01
    13   1     0.02  -0.08  -0.04     0.03  -0.01  -0.01    -0.04  -0.02  -0.01
    14   1     0.03   0.15   0.01    -0.02  -0.02   0.00    -0.01   0.01  -0.05
    15   6    -0.01   0.02   0.03     0.00   0.01  -0.00    -0.02  -0.05  -0.01
    16   1    -0.06  -0.01  -0.02     0.00  -0.01  -0.03     0.11   0.06   0.14
    17   1     0.00  -0.02  -0.01    -0.03  -0.04   0.02     0.10   0.21  -0.07
    18   1    -0.07   0.04   0.01    -0.01  -0.01   0.04     0.11  -0.02  -0.12
    19   6    -0.02   0.03   0.04     0.00   0.01   0.01    -0.01  -0.04  -0.03
    20   1     0.10   0.18  -0.25    -0.01   0.04  -0.03     0.06  -0.21   0.18
    21   1     0.00  -0.24   0.23    -0.02  -0.07   0.03     0.09   0.27  -0.10
    22   7     0.01  -0.01   0.03     0.01  -0.01   0.04     0.00  -0.02   0.02
    23   1     0.12  -0.07  -0.13     0.10  -0.07  -0.10     0.13  -0.05  -0.11
    24   1    -0.12   0.09   0.03    -0.10   0.06   0.02    -0.12   0.08   0.04
                     37                     38                     39
                      A                      A                      A
 Frequencies --   1371.5138              1422.3217              1437.1664
 Red. masses --      1.3007                 1.3422                 1.2421
 Frc consts  --      1.4415                 1.5998                 1.5115
 IR Inten    --      0.9078                 0.9509                 1.6611
  Atom  AN      X      Y      Z        X      Y      Z        X      Y      Z
     1   6     0.00  -0.07   0.04     0.04   0.03  -0.01     0.06   0.03  -0.02
     2   1     0.26  -0.06  -0.10    -0.22  -0.04   0.05    -0.25  -0.08   0.03
     3   1     0.07   0.13  -0.03    -0.19  -0.08   0.06    -0.17  -0.11   0.06
     4   6    -0.10  -0.04   0.03     0.03   0.01   0.02    -0.05  -0.01   0.01
     5   1     0.19   0.06  -0.04    -0.14  -0.07   0.07     0.10   0.00  -0.01
     6   1     0.65   0.20  -0.16    -0.01  -0.08  -0.08     0.14   0.04  -0.06
     7   6    -0.03   0.04  -0.02    -0.11   0.04  -0.01     0.02  -0.00  -0.01
     8   1     0.03   0.00   0.01     0.60  -0.21   0.18    -0.13  -0.01   0.03
     9   1     0.40  -0.15  -0.01     0.38  -0.09   0.13     0.01   0.03   0.03
    10   7     0.01   0.02  -0.00     0.01  -0.04  -0.07    -0.00   0.01   0.01
    11   6    -0.01  -0.01  -0.01    -0.03  -0.00   0.01    -0.03  -0.06  -0.04
    12   1     0.01   0.05   0.01     0.10   0.15  -0.09     0.06   0.39   0.06
    13   1     0.02   0.02   0.03     0.18   0.02   0.11     0.23   0.16   0.31
    14   1     0.03   0.04   0.01     0.03   0.07   0.04     0.17   0.14   0.12
    15   6    -0.01  -0.01   0.00    -0.02   0.02   0.04     0.06  -0.02  -0.04
    16   1     0.07  -0.02   0.02     0.06  -0.12  -0.09    -0.36   0.20   0.04
    17   1     0.05   0.05  -0.05     0.09  -0.11  -0.15    -0.22   0.04   0.32
    18   1     0.03   0.00  -0.03     0.11   0.02  -0.05    -0.25   0.02   0.07
    19   6    -0.00  -0.01  -0.00    -0.01   0.01   0.01     0.00  -0.00  -0.01
    20   1     0.03  -0.01  -0.01     0.03   0.06  -0.08    -0.02  -0.04   0.06
    21   1     0.02   0.05  -0.01    -0.00  -0.08   0.08    -0.00   0.01  -0.03
    22   7    -0.00   0.05  -0.02    -0.01  -0.02   0.00    -0.01  -0.02   0.01
    23   1    -0.20   0.07   0.16     0.09  -0.01  -0.05     0.07  -0.00  -0.04
    24   1     0.22  -0.14  -0.08    -0.08   0.05   0.05    -0.06   0.04   0.05
                     40                     41                     42
                      A                      A                      A
 Frequencies --   1442.4859              1466.7736              1477.2072
 Red. masses --      1.3909                 1.1677                 1.0668
 Frc consts  --      1.7051                 1.4801                 1.3716
 IR Inten    --      5.2936                12.6863                 5.3408
  Atom  AN      X      Y      Z        X      Y      Z        X      Y      Z
     1   6    -0.12  -0.06   0.04     0.00   0.00  -0.00    -0.00  -0.00   0.00
     2   1     0.45   0.15  -0.04    -0.03  -0.02  -0.00     0.03  -0.02  -0.04
     3   1     0.36   0.23  -0.13     0.01  -0.01  -0.00     0.03  -0.03   0.00
     4   6     0.09   0.03  -0.02    -0.01  -0.01  -0.01    -0.00  -0.02  -0.01
     5   1    -0.26  -0.13   0.08    -0.00   0.08  -0.04    -0.04   0.18  -0.07
     6   1    -0.22  -0.11   0.01     0.00   0.07   0.09    -0.00   0.11   0.18
     7   6    -0.03  -0.00  -0.00     0.06  -0.01  -0.01     0.02  -0.01  -0.01
     8   1     0.14  -0.07   0.05    -0.20  -0.03   0.07    -0.14  -0.04   0.07
     9   1     0.02   0.03   0.07    -0.22   0.14   0.04    -0.02   0.08   0.11
    10   7    -0.00  -0.01  -0.01    -0.05  -0.01   0.02    -0.00   0.02   0.01
    11   6    -0.03  -0.03  -0.02    -0.02  -0.04  -0.03    -0.03   0.01  -0.00
    12   1     0.11   0.25  -0.06     0.07   0.29   0.02     0.16   0.26  -0.12
    13   1     0.22   0.10   0.23     0.15   0.16   0.27     0.46  -0.17   0.01
    14   1     0.06   0.08   0.03     0.09   0.12   0.03    -0.10  -0.33   0.08
    15   6     0.03  -0.00  -0.01    -0.05   0.02   0.04    -0.02   0.00   0.00
    16   1    -0.22   0.07  -0.03     0.28  -0.26  -0.15     0.20  -0.02   0.06
    17   1    -0.11  -0.06   0.15     0.16  -0.01  -0.22     0.11   0.06  -0.14
    18   1    -0.08   0.02   0.02     0.23   0.05  -0.19     0.03  -0.03   0.03
    19   6    -0.00  -0.00   0.00    -0.01  -0.02   0.01     0.02   0.03  -0.02
    20   1     0.02   0.01  -0.03     0.26   0.06  -0.25    -0.27  -0.08   0.29
    21   1     0.01   0.05  -0.02     0.17   0.35   0.00    -0.17  -0.34  -0.02
    22   7     0.01   0.03  -0.01     0.00   0.00   0.00    -0.00   0.00  -0.00
    23   1    -0.12   0.00   0.07    -0.00  -0.00  -0.00    -0.01   0.00   0.01
    24   1     0.12  -0.08  -0.10    -0.00   0.00   0.00     0.01  -0.01  -0.00
                     43                     44                     45
                      A                      A                      A
 Frequencies --   1478.1934              1487.3949              1502.8443
 Red. masses --      1.0810                 1.0856                 1.0571
 Frc consts  --      1.3916                 1.4151                 1.4067
 IR Inten    --      7.8836                 9.1678                 4.3651
  Atom  AN      X      Y      Z        X      Y      Z        X      Y      Z
     1   6    -0.01  -0.00   0.00     0.00   0.01   0.00    -0.00   0.00  -0.00
     2   1     0.02   0.03   0.02    -0.00  -0.04  -0.05     0.00   0.01   0.01
     3   1     0.00   0.04  -0.01     0.02  -0.05   0.02    -0.01   0.01  -0.00
     4   6    -0.00   0.04   0.01     0.03  -0.05  -0.02     0.01   0.01   0.00
     5   1     0.11  -0.27   0.09    -0.27   0.46  -0.14    -0.01  -0.06   0.03
     6   1    -0.04  -0.16  -0.25    -0.01   0.27   0.48    -0.03  -0.05  -0.05
     7   6     0.01   0.00   0.01    -0.03   0.00   0.02    -0.01   0.00   0.04
     8   1     0.02   0.03  -0.03     0.17   0.09  -0.14     0.18   0.21  -0.28
     9   1    -0.11  -0.00  -0.07     0.04  -0.15  -0.14    -0.04  -0.23  -0.31
    10   7    -0.00  -0.03  -0.01    -0.00  -0.02  -0.02    -0.01  -0.02  -0.00
    11   6     0.00  -0.03  -0.02     0.01  -0.01   0.00    -0.01   0.02  -0.02
    12   1    -0.04   0.09   0.09     0.02  -0.02  -0.02    -0.10   0.16   0.19
    13   1    -0.10   0.19   0.18    -0.10   0.11   0.09     0.18  -0.17  -0.13
    14   1     0.14   0.24   0.02     0.02   0.17  -0.07     0.10  -0.25   0.28
    15   6    -0.04  -0.01  -0.02     0.01  -0.01  -0.02     0.01  -0.03   0.01
    16   1     0.40   0.16   0.33     0.09   0.18   0.22     0.14  -0.13  -0.07
    17   1     0.21   0.18  -0.25     0.06   0.08  -0.06     0.04   0.38   0.10
    18   1    -0.15  -0.13   0.29    -0.17  -0.09   0.22    -0.27   0.20  -0.22
    19   6     0.01   0.02  -0.01    -0.01  -0.00   0.01    -0.00  -0.00   0.01
    20   1    -0.11  -0.01   0.09     0.07   0.03  -0.08     0.07   0.04  -0.09
    21   1    -0.07  -0.17   0.01     0.05   0.07   0.03     0.04   0.07   0.02
    22   7     0.00   0.00  -0.00    -0.00  -0.00   0.00     0.00  -0.00  -0.00
    23   1    -0.01  -0.00  -0.00     0.00   0.01   0.01     0.00  -0.00  -0.00
    24   1     0.00  -0.00  -0.01     0.00  -0.00   0.00    -0.00   0.00   0.00
                     46                     47                     48
                      A                      A                      A
 Frequencies --   1509.0660              1519.1273              1528.9369
 Red. masses --      1.0763                 1.1125                 1.0833
 Frc consts  --      1.4441                 1.5126                 1.4921
 IR Inten    --     22.8321                10.9367                 1.7919
  Atom  AN      X      Y      Z        X      Y      Z        X      Y      Z
     1   6    -0.00  -0.01   0.00    -0.01   0.01   0.01     0.03  -0.07  -0.03
     2   1     0.01  -0.01  -0.00     0.03  -0.05  -0.10    -0.09   0.36   0.60
     3   1     0.03   0.02  -0.01     0.07  -0.07   0.02    -0.26   0.58  -0.20
     4   6     0.01  -0.01  -0.01     0.01  -0.01  -0.01    -0.00  -0.01  -0.01
     5   1    -0.10   0.07  -0.02    -0.13   0.09  -0.02    -0.03   0.08  -0.03
     6   1     0.02   0.07   0.08    -0.02   0.06   0.12     0.03   0.07   0.08
     7   6     0.00   0.00  -0.06    -0.00  -0.01   0.01     0.00  -0.00  -0.00
     8   1    -0.06  -0.30   0.37    -0.02   0.07  -0.08    -0.02   0.00  -0.00
     9   1     0.04   0.28   0.37     0.02  -0.05  -0.04     0.00   0.00   0.01
    10   7     0.01  -0.03  -0.02     0.04   0.01   0.00     0.00   0.00  -0.00
    11   6     0.01   0.01   0.00     0.00  -0.04  -0.05     0.00  -0.00  -0.01
    12   1    -0.11  -0.11   0.11    -0.25   0.05   0.33    -0.06   0.03   0.08
    13   1    -0.17   0.01  -0.09    -0.24   0.11   0.03    -0.02  -0.01  -0.03
    14   1     0.08   0.07   0.06     0.33   0.25   0.25     0.06  -0.00   0.08
    15   6     0.01  -0.03   0.00    -0.02   0.02   0.03    -0.00   0.00   0.00
    16   1     0.14  -0.07   0.00    -0.06  -0.19  -0.21    -0.01   0.01  -0.00
    17   1     0.02   0.44   0.13    -0.05  -0.13  -0.00    -0.00  -0.05  -0.02
    18   1    -0.36   0.19  -0.16     0.25   0.05  -0.20     0.05  -0.02   0.02
    19   6    -0.00   0.00   0.01     0.01   0.03  -0.02     0.00   0.00  -0.00
    20   1    -0.01   0.04  -0.04    -0.22  -0.05   0.23    -0.02  -0.00   0.02
    21   1    -0.01  -0.05   0.04    -0.14  -0.31   0.00    -0.02  -0.03  -0.00
    22   7    -0.00   0.00  -0.00    -0.00   0.00  -0.00     0.00  -0.01  -0.00
    23   1    -0.01   0.00   0.01    -0.00   0.01   0.00    -0.02  -0.02  -0.00
    24   1     0.01  -0.01  -0.00     0.01  -0.01  -0.00    -0.05   0.03   0.01
                     49                     50                     51
                      A                      A                      A
 Frequencies --   1535.9683              1671.7664              2970.6972
 Red. masses --      1.0551                 1.0926                 1.0732
 Frc consts  --      1.4666                 1.7991                 5.5802
 IR Inten    --     27.1227                31.7477                66.2300
  Atom  AN      X      Y      Z        X      Y      Z        X      Y      Z
     1   6    -0.01   0.01   0.01    -0.01  -0.01  -0.02    -0.01  -0.03  -0.07
     2   1     0.01  -0.05  -0.07    -0.03   0.03   0.05    -0.05   0.09  -0.10
     3   1     0.05  -0.06   0.02     0.03   0.01  -0.04     0.13   0.32   0.92
     4   6     0.00  -0.00  -0.00     0.00   0.00   0.00     0.00  -0.00   0.00
     5   1    -0.05  -0.02   0.01     0.01   0.01  -0.00    -0.00  -0.01  -0.04
     6   1    -0.00   0.00   0.00    -0.02  -0.00  -0.00    -0.01   0.03  -0.02
     7   6     0.00  -0.00  -0.02     0.00  -0.00   0.00     0.00   0.00   0.00
     8   1    -0.04  -0.10   0.13     0.00  -0.00  -0.00    -0.01  -0.02  -0.01
     9   1     0.05   0.09   0.14    -0.01   0.00   0.00    -0.00   0.00  -0.00
    10   7    -0.02   0.01  -0.03     0.00  -0.00  -0.00    -0.00   0.00   0.00
    11   6     0.01   0.02  -0.02    -0.00   0.00   0.00     0.00  -0.00   0.00
    12   1    -0.24   0.13   0.36     0.00   0.00  -0.00    -0.00   0.00  -0.00
    13   1     0.04  -0.21  -0.25     0.00   0.00   0.00    -0.00  -0.00   0.00
    14   1     0.19  -0.24   0.38    -0.00  -0.00  -0.00    -0.00   0.00   0.00
    15   6     0.00   0.01  -0.02    -0.00   0.00   0.00    -0.00  -0.00   0.00
    16   1    -0.06   0.21   0.18     0.00  -0.00   0.00     0.00   0.00  -0.00
    17   1     0.03  -0.24  -0.13     0.00   0.00  -0.00     0.00   0.00   0.00
    18   1     0.09  -0.20   0.29    -0.00   0.00  -0.00    -0.00  -0.00  -0.00
    19   6    -0.01  -0.01   0.01    -0.00   0.00  -0.00    -0.00   0.00   0.00
    20   1     0.14   0.04  -0.15     0.00  -0.00   0.00    -0.00  -0.00  -0.00
    21   1     0.09   0.16   0.03     0.00  -0.00   0.00     0.01  -0.00  -0.01
    22   7    -0.00   0.00   0.00    -0.08   0.01   0.01     0.00  -0.00  -0.00
    23   1     0.00   0.00  -0.00     0.61   0.32  -0.16     0.00   0.01  -0.00
    24   1     0.01  -0.01  -0.00     0.52  -0.39   0.24     0.00  -0.01   0.00
                     52                     53                     54
                      A                      A                      A
 Frequencies --   2995.3839              3044.2645              3059.5579
 Red. masses --      1.0540                 1.0652                 1.0575
 Frc consts  --      5.5718                 5.8161                 5.8325
 IR Inten    --     72.3323                 9.6682                21.2813
  Atom  AN      X      Y      Z        X      Y      Z        X      Y      Z
     1   6    -0.00   0.00  -0.00     0.00  -0.00   0.00    -0.00   0.01  -0.00
     2   1     0.01  -0.02   0.01    -0.02   0.05  -0.03     0.03  -0.07   0.05
     3   1    -0.00   0.00  -0.00    -0.00  -0.00  -0.00    -0.00  -0.00  -0.01
     4   6    -0.00   0.00  -0.00    -0.01   0.03  -0.01     0.02  -0.05   0.01
     5   1    -0.00  -0.00  -0.00    -0.02  -0.03  -0.12     0.04   0.06   0.24
     6   1     0.00  -0.00   0.00     0.19  -0.38   0.26    -0.26   0.52  -0.35
     7   6    -0.00   0.00   0.00    -0.02  -0.03   0.05    -0.01  -0.00   0.02
     8   1    -0.00  -0.02  -0.01    -0.04  -0.25  -0.17    -0.02  -0.15  -0.10
     9   1    -0.00  -0.00   0.00     0.26   0.58  -0.41     0.09   0.19  -0.13
    10   7    -0.00   0.00  -0.00    -0.00  -0.00   0.00    -0.00   0.00  -0.00
    11   6    -0.00  -0.00   0.00     0.00   0.00  -0.00     0.00   0.00   0.00
    12   1     0.01  -0.00   0.00    -0.02   0.01  -0.02    -0.02   0.01  -0.01
    13   1     0.01   0.03  -0.03    -0.02  -0.05   0.05    -0.01  -0.03   0.03
    14   1    -0.01   0.00   0.01     0.01  -0.01  -0.01     0.02  -0.01  -0.02
    15   6    -0.00  -0.00   0.00     0.01   0.00  -0.01     0.02   0.01  -0.03
    16   1     0.01   0.03  -0.03    -0.05  -0.13   0.12    -0.13  -0.36   0.33
    17   1     0.01  -0.00   0.01    -0.05   0.02  -0.05    -0.17   0.05  -0.14
    18   1    -0.01  -0.02  -0.01     0.02   0.07   0.04     0.07   0.22   0.12
    19   6    -0.05  -0.04  -0.01     0.00  -0.00  -0.00     0.00  -0.01  -0.01
    20   1     0.27   0.64   0.46     0.00   0.01   0.01     0.02   0.05   0.04
    21   1     0.38  -0.21  -0.34     0.00  -0.00  -0.00    -0.03   0.02   0.02
    22   7    -0.00   0.00  -0.00    -0.00  -0.00  -0.00    -0.00  -0.00   0.00
    23   1    -0.00   0.00   0.00     0.00  -0.00   0.00    -0.00   0.00  -0.00
    24   1     0.00  -0.00   0.00     0.00  -0.00  -0.00    -0.00   0.00   0.00
                     55                     56                     57
                      A                      A                      A
 Frequencies --   3062.7004              3067.4096              3073.4379
 Red. masses --      1.0462                 1.1031                 1.0435
 Frc consts  --      5.7819                 6.1151                 5.8074
 IR Inten    --     30.2790                56.2352                57.0179
  Atom  AN      X      Y      Z        X      Y      Z        X      Y      Z
     1   6    -0.00   0.00  -0.00    -0.00   0.00  -0.00    -0.00   0.00  -0.00
     2   1     0.02  -0.03   0.02     0.00  -0.01   0.01     0.01  -0.03   0.02
     3   1    -0.00  -0.00  -0.01    -0.00  -0.00  -0.01    -0.00  -0.00  -0.01
     4   6     0.01  -0.03   0.00     0.00  -0.00  -0.00     0.01  -0.01   0.00
     5   1     0.02   0.04   0.16     0.01   0.01   0.04     0.01   0.01   0.04
     6   1    -0.13   0.26  -0.17    -0.02   0.03  -0.02    -0.08   0.15  -0.10
     7   6    -0.01  -0.01   0.02    -0.00  -0.00   0.00    -0.01  -0.00   0.02
     8   1    -0.02  -0.15  -0.10     0.00   0.01   0.01    -0.02  -0.14  -0.10
     9   1     0.11   0.25  -0.18     0.01   0.03  -0.02     0.09   0.20  -0.14
    10   7     0.00  -0.00   0.00    -0.00   0.00   0.00     0.00  -0.00   0.00
    11   6     0.01   0.02  -0.00     0.00  -0.00  -0.00    -0.02  -0.04   0.00
    12   1    -0.14   0.06  -0.11     0.01  -0.00   0.01     0.26  -0.10   0.21
    13   1    -0.11  -0.28   0.25     0.00  -0.00  -0.00     0.20   0.52  -0.46
    14   1     0.15  -0.05  -0.11    -0.02   0.00   0.01    -0.26   0.10   0.20
    15   6    -0.02  -0.01   0.03     0.00  -0.00  -0.00    -0.01  -0.00   0.01
    16   1     0.15   0.41  -0.37    -0.01  -0.02   0.02     0.07   0.18  -0.17
    17   1     0.20  -0.06   0.17    -0.02   0.01  -0.02     0.09  -0.03   0.08
    18   1    -0.08  -0.25  -0.13     0.01   0.03   0.02    -0.04  -0.12  -0.07
    19   6     0.00   0.00   0.00    -0.03   0.06   0.06     0.00   0.00  -0.00
    20   1    -0.00  -0.01  -0.01    -0.21  -0.40  -0.30    -0.01  -0.03  -0.02
    21   1    -0.00  -0.00  -0.00     0.62  -0.30  -0.47    -0.03   0.01   0.02
    22   7    -0.00  -0.00   0.00    -0.00  -0.00   0.00    -0.00  -0.00   0.00
    23   1    -0.00   0.00  -0.00    -0.00   0.00  -0.00    -0.00   0.00  -0.00
    24   1    -0.00   0.00   0.00    -0.00   0.00   0.00    -0.00   0.00   0.00
                     58                     59                     60
                      A                      A                      A
 Frequencies --   3111.1330              3115.9486              3124.7756
 Red. masses --      1.0930                 1.0949                 1.0962
 Frc consts  --      6.2331                 6.2633                 6.3062
 IR Inten    --      0.5103                22.7525                14.9020
  Atom  AN      X      Y      Z        X      Y      Z        X      Y      Z
     1   6     0.02  -0.04   0.03     0.02  -0.04   0.03    -0.02   0.03  -0.03
     2   1    -0.21   0.45  -0.33    -0.20   0.44  -0.32     0.18  -0.39   0.29
     3   1    -0.01  -0.03  -0.05    -0.00  -0.02  -0.05     0.02   0.04   0.10
     4   6    -0.01  -0.00  -0.04     0.00  -0.01  -0.01    -0.02  -0.00  -0.07
     5   1     0.07   0.16   0.48     0.03   0.07   0.22     0.10   0.23   0.71
     6   1     0.06  -0.11   0.07    -0.03   0.06  -0.04     0.11  -0.24   0.14
     7   6     0.01   0.05   0.01    -0.02  -0.07  -0.02    -0.00  -0.02  -0.01
     8   1    -0.06  -0.41  -0.31     0.08   0.56   0.42     0.02   0.16   0.12
     9   1    -0.09  -0.20   0.15     0.11   0.23  -0.18     0.02   0.03  -0.03
    10   7     0.00   0.00  -0.00    -0.00  -0.00  -0.00     0.00  -0.00  -0.00
    11   6    -0.00  -0.00   0.01    -0.00  -0.00   0.00    -0.01  -0.00   0.01
    12   1    -0.01   0.00  -0.00     0.02  -0.01   0.02     0.00  -0.00   0.01
    13   1     0.01   0.03  -0.03     0.01   0.02  -0.02     0.02   0.06  -0.05
    14   1     0.04  -0.02  -0.03     0.00  -0.00  -0.00     0.06  -0.03  -0.04
    15   6    -0.00  -0.00  -0.00     0.00   0.01   0.00     0.00   0.00   0.00
    16   1     0.00   0.01  -0.01    -0.01  -0.02   0.02    -0.00  -0.01   0.01
    17   1    -0.01  -0.00  -0.01     0.00   0.00   0.00    -0.00   0.00  -0.00
    18   1     0.01   0.03   0.02    -0.02  -0.05  -0.03    -0.01  -0.02  -0.01
    19   6    -0.00   0.00   0.00     0.00  -0.00  -0.00     0.00  -0.00  -0.00
    20   1     0.00  -0.00   0.00     0.01   0.03   0.02     0.00   0.00   0.00
    21   1     0.01  -0.00  -0.01    -0.01   0.00   0.00    -0.02   0.01   0.02
    22   7    -0.00   0.00  -0.00    -0.00   0.00  -0.00     0.00  -0.00   0.00
    23   1     0.00  -0.01   0.01     0.00  -0.01   0.01    -0.00   0.01  -0.01
    24   1     0.00  -0.00  -0.00    -0.00  -0.00  -0.00     0.00   0.00   0.00
                     61                     62                     63
                      A                      A                      A
 Frequencies --   3156.5228              3170.1910              3192.1113
 Red. masses --      1.0981                 1.0959                 1.1047
 Frc consts  --      6.4461                 6.4889                 6.6320
 IR Inten    --     12.4484                10.1722                 3.1260
  Atom  AN      X      Y      Z        X      Y      Z        X      Y      Z
     1   6     0.00  -0.00   0.00     0.00  -0.00   0.00    -0.00  -0.00  -0.00
     2   1    -0.00   0.00  -0.00    -0.00   0.01  -0.01    -0.00   0.00  -0.00
     3   1     0.00   0.00   0.00    -0.00  -0.00  -0.01     0.00   0.00   0.00
     4   6     0.00  -0.00  -0.00     0.00   0.00   0.01    -0.00  -0.00  -0.00
     5   1     0.00   0.00   0.01    -0.02  -0.03  -0.10     0.00   0.01   0.03
     6   1    -0.00   0.00  -0.00    -0.01   0.02  -0.01     0.00  -0.00   0.00
     7   6    -0.00  -0.01  -0.00    -0.00  -0.00   0.00    -0.00  -0.00  -0.00
     8   1     0.01   0.05   0.04     0.00   0.01   0.01     0.01   0.02   0.02
     9   1     0.01   0.03  -0.02     0.01   0.02  -0.02     0.00   0.00  -0.00
    10   7     0.00  -0.00   0.00     0.00  -0.00   0.00    -0.00  -0.00  -0.00
    11   6     0.00   0.00  -0.01    -0.02  -0.03   0.08     0.04  -0.01   0.00
    12   1     0.04  -0.01   0.03    -0.42   0.15  -0.30    -0.21   0.08  -0.17
    13   1    -0.01  -0.02   0.02     0.15   0.38  -0.33     0.01   0.00  -0.00
    14   1    -0.03   0.01   0.02     0.49  -0.21  -0.35    -0.22   0.09   0.17
    15   6    -0.01  -0.09   0.01    -0.00  -0.01  -0.00    -0.06  -0.01  -0.06
    16   1     0.13   0.37  -0.35     0.01   0.02  -0.02    -0.04  -0.10   0.08
    17   1    -0.25   0.05  -0.20     0.01  -0.00   0.01     0.60  -0.17   0.50
    18   1     0.22   0.64   0.38     0.02   0.05   0.03     0.11   0.36   0.19
    19   6     0.00  -0.00  -0.00    -0.00   0.00   0.00     0.00  -0.00  -0.00
    20   1     0.01   0.01   0.01    -0.01  -0.01  -0.01     0.00   0.01   0.00
    21   1    -0.02   0.01   0.01     0.01  -0.00  -0.00    -0.00   0.00   0.00
    22   7     0.00   0.00  -0.00    -0.00   0.00  -0.00    -0.00   0.00   0.00
    23   1    -0.00  -0.00   0.00    -0.00  -0.00   0.00     0.00  -0.00  -0.00
    24   1     0.00  -0.00   0.00     0.00  -0.00  -0.00    -0.00  -0.00   0.00
                     64                     65                     66
                      A                      A                      A
 Frequencies --   3197.2598              3555.7029              3639.0442
 Red. masses --      1.1048                 1.0503                 1.0925
 Frc consts  --      6.6540                 7.8241                 8.5239
 IR Inten    --      5.8113                 0.4289                 3.5671
  Atom  AN      X      Y      Z        X      Y      Z        X      Y      Z
     1   6     0.00   0.00   0.00    -0.00   0.00   0.00     0.00  -0.00   0.00
     2   1    -0.00  -0.00   0.00    -0.00   0.01  -0.01    -0.01   0.01  -0.01
     3   1    -0.00  -0.00  -0.00    -0.00  -0.00  -0.01     0.00  -0.00  -0.00
     4   6     0.00   0.00   0.00    -0.00  -0.00  -0.00     0.00   0.00  -0.00
     5   1    -0.01  -0.02  -0.05    -0.00  -0.00  -0.00     0.00  -0.00   0.00
     6   1    -0.00   0.01  -0.00     0.00  -0.00   0.00     0.00   0.00  -0.00
     7   6     0.00   0.00   0.00     0.00   0.00   0.00     0.00  -0.00  -0.00
     8   1     0.00  -0.00  -0.00     0.00  -0.00  -0.00     0.00   0.00   0.00
     9   1     0.00   0.00   0.00     0.00  -0.00  -0.00    -0.00   0.00   0.00
    10   7    -0.00   0.00  -0.00    -0.00  -0.00  -0.00    -0.00   0.00   0.00
    11   6    -0.08   0.03  -0.01     0.00   0.00  -0.00     0.00  -0.00   0.00
    12   1     0.52  -0.20   0.41    -0.00  -0.00  -0.00    -0.00   0.00  -0.00
    13   1    -0.02  -0.03   0.03    -0.00  -0.00   0.00     0.00   0.00  -0.00
    14   1     0.45  -0.18  -0.34    -0.00   0.00   0.00    -0.00  -0.00   0.00
    15   6    -0.02  -0.00  -0.03    -0.00   0.00  -0.00    -0.00  -0.00  -0.00
    16   1    -0.02  -0.05   0.04    -0.00  -0.00   0.00     0.00   0.00  -0.00
    17   1     0.27  -0.08   0.22     0.00  -0.00   0.00    -0.00   0.00   0.00
    18   1     0.05   0.15   0.08    -0.00  -0.00   0.00     0.00   0.00   0.00
    19   6    -0.00   0.00   0.00     0.00  -0.00  -0.00    -0.00  -0.00   0.00
    20   1     0.00   0.00   0.00     0.00   0.00   0.00     0.00   0.00   0.00
    21   1     0.01  -0.00  -0.01    -0.00   0.00  -0.00     0.00  -0.00  -0.00
    22   7    -0.00  -0.00   0.00     0.05  -0.01   0.02    -0.02  -0.07   0.04
    23   1     0.00   0.00   0.00    -0.36   0.54  -0.47    -0.28   0.37  -0.35
    24   1    -0.00   0.00  -0.00    -0.35  -0.46   0.13     0.50   0.62  -0.14

 -------------------
 - Thermochemistry -
 -------------------
 Temperature   298.150 Kelvin.  Pressure   1.00000 Atm.
 Atom     1 has atomic number  6 and mass  12.00000
 Atom     2 has atomic number  1 and mass   1.00783
 Atom     3 has atomic number  1 and mass   1.00783
 Atom     4 has atomic number  6 and mass  12.00000
 Atom     5 has atomic number  1 and mass   1.00783
 Atom     6 has atomic number  1 and mass   1.00783
 Atom     7 has atomic number  6 and mass  12.00000
 Atom     8 has atomic number  1 and mass   1.00783
 Atom     9 has atomic number  1 and mass   1.00783
 Atom    10 has atomic number  7 and mass  14.00307
 Atom    11 has atomic number  6 and mass  12.00000
 Atom    12 has atomic number  1 and mass   1.00783
 Atom    13 has atomic number  1 and mass   1.00783
 Atom    14 has atomic number  1 and mass   1.00783
 Atom    15 has atomic number  6 and mass  12.00000
 Atom    16 has atomic number  1 and mass   1.00783
 Atom    17 has atomic number  1 and mass   1.00783
 Atom    18 has atomic number  1 and mass   1.00783
 Atom    19 has atomic number  6 and mass  12.00000
 Atom    20 has atomic number  1 and mass   1.00783
 Atom    21 has atomic number  1 and mass   1.00783
 Atom    22 has atomic number  7 and mass  14.00307
 Atom    23 has atomic number  1 and mass   1.00783
 Atom    24 has atomic number  1 and mass   1.00783
 Molecular mass:   116.13135 amu.
 Principal axes and moments of inertia in atomic units:
                           1         2         3
     Eigenvalues --   455.486211842.797831866.64670
           X            0.99997   0.00722   0.00105
           Y           -0.00725   0.96773   0.25189
           Z            0.00080  -0.25189   0.96776
 This molecule is an asymmetric top.
 Rotational symmetry number  1.
 Warning -- assumption of classical behavior for rotation
           may cause significant error
 Rotational temperatures (Kelvin)      0.19016     0.04700     0.04640
 Rotational constants (GHZ):           3.96223     0.97935     0.96684
 Zero-point vibrational energy     590462.2 (Joules/Mol)
                                  141.12385 (Kcal/Mol)
 Warning -- explicit consideration of  15 degrees of freedom as
           vibrations may cause significant error
 Vibrational temperatures:    102.05   131.70   141.12   311.16   335.42
          (Kelvin)            394.63   427.73   442.33   489.69   506.24
                              579.68   644.47   668.60   731.57   814.35
                             1022.21  1089.99  1184.69  1221.46  1269.67
                             1369.58  1447.88  1476.08  1538.86  1565.08
                             1570.05  1593.48  1610.61  1682.22  1702.98
                             1772.96  1816.16  1854.40  1904.63  1944.91
                             1964.07  1973.30  2046.40  2067.76  2075.42
                             2110.36  2125.37  2126.79  2140.03  2162.26
                             2171.21  2185.69  2199.80  2209.92  2405.30
                             4274.17  4309.69  4380.02  4402.02  4406.54
                             4413.32  4421.99  4476.23  4483.16  4495.86
                             4541.53  4561.20  4592.74  4600.14  5115.86
                             5235.77
 
 Zero-point correction=                           0.224895 (Hartree/Particle)
 Thermal correction to Energy=                    0.235110
 Thermal correction to Enthalpy=                  0.236054
 Thermal correction to Gibbs Free Energy=         0.190163
 Sum of electronic and zero-point Energies=           -347.438834
 Sum of electronic and thermal Energies=              -347.428619
 Sum of electronic and thermal Enthalpies=            -347.427675
 Sum of electronic and thermal Free Energies=         -347.473566
 
                     E (Thermal)             CV                S
                      KCal/Mol        Cal/Mol-Kelvin    Cal/Mol-Kelvin
 Total                  147.534             38.424             96.587
 Electronic               0.000              0.000              0.000
 Translational            0.889              2.981             40.164
 Rotational               0.889              2.981             28.840
 Vibrational            145.756             32.463             27.583
 Vibration     1          0.598              1.968              4.127
 Vibration     2          0.602              1.955              3.627
 Vibration     3          0.604              1.951              3.492
 Vibration     4          0.645              1.816              1.990
 Vibration     5          0.654              1.790              1.855
 Vibration     6          0.677              1.721              1.569
 Vibration     7          0.691              1.679              1.432
 Vibration     8          0.697              1.660              1.376
 Vibration     9          0.720              1.595              1.210
 Vibration    10          0.728              1.571              1.158
 Vibration    11          0.768              1.464              0.952
 Vibration    12          0.807              1.365              0.802
 Vibration    13          0.822              1.328              0.753
 Vibration    14          0.864              1.231              0.637
 Vibration    15          0.922              1.105              0.512
                       Q            Log10(Q)             Ln(Q)
 Total Bot       0.339829D-87        -87.468740       -201.404217
 Total V=0       0.945722D+16         15.975763         36.785555
 Vib (Bot)       0.154180-100       -100.811971       -232.128142
 Vib (Bot)    1  0.290748D+01          0.463517          1.067287
 Vib (Bot)    2  0.224548D+01          0.351309          0.808918
 Vib (Bot)    3  0.209313D+01          0.320797          0.738662
 Vib (Bot)    4  0.916040D+00         -0.038085         -0.087695
 Vib (Bot)    5  0.843683D+00         -0.073821         -0.169978
 Vib (Bot)    6  0.703062D+00         -0.153006         -0.352309
 Vib (Bot)    7  0.640674D+00         -0.193363         -0.445235
 Vib (Bot)    8  0.615983D+00         -0.210431         -0.484536
 Vib (Bot)    9  0.545442D+00         -0.263252         -0.606159
 Vib (Bot)   10  0.523732D+00         -0.280891         -0.646775
 Vib (Bot)   11  0.441448D+00         -0.355120         -0.817694
 Vib (Bot)   12  0.383483D+00         -0.416254         -0.958459
 Vib (Bot)   13  0.364592D+00         -0.438193         -1.008977
 Vib (Bot)   14  0.320794D+00         -0.493774         -1.136957
 Vib (Bot)   15  0.272989D+00         -0.563855         -1.298324
 Vib (V=0)       0.429074D+03          2.632532          6.061629
 Vib (V=0)    1  0.345016D+01          0.537839          1.238421
 Vib (V=0)    2  0.280047D+01          0.447231          1.029788
 Vib (V=0)    3  0.265202D+01          0.423577          0.975323
 Vib (V=0)    4  0.154361D+01          0.188539          0.434126
 Vib (V=0)    5  0.148071D+01          0.170471          0.392525
 Vib (V=0)    6  0.136273D+01          0.134409          0.309487
 Vib (V=0)    7  0.131269D+01          0.118162          0.272078
 Vib (V=0)    8  0.129337D+01          0.111723          0.257251
 Vib (V=0)    9  0.123994D+01          0.093400          0.215061
 Vib (V=0)   10  0.122408D+01          0.087811          0.202192
 Vib (V=0)   11  0.116699D+01          0.067067          0.154428
 Vib (V=0)   12  0.113013D+01          0.053127          0.122330
 Vib (V=0)   13  0.111881D+01          0.048757          0.112267
 Vib (V=0)   14  0.109406D+01          0.039042          0.089897
 Vib (V=0)   15  0.106967D+01          0.029249          0.067349
 Electronic      0.100000D+01          0.000000          0.000000
 Translational   0.491901D+08          7.691878         17.711204
 Rotational      0.448077D+06          5.651353         13.012721
 ***** Axes restored to original set *****
 -------------------------------------------------------------------
 Center     Atomic                   Forces (Hartrees/Bohr)
 Number     Number              X              Y              Z
 -------------------------------------------------------------------
      1        6           0.000028683    0.000013242    0.000008992
      2        1          -0.000002995   -0.000001599   -0.000005687
      3        1          -0.000001332   -0.000000623    0.000002082
      4        6          -0.000023182   -0.000026612   -0.000001355
      5        1          -0.000000163    0.000002662   -0.000000032
      6        1           0.000002407    0.000008314    0.000002360
      7        6           0.000059585   -0.000010833   -0.000007455
      8        1          -0.000005715    0.000002337    0.000002298
      9        1          -0.000004046    0.000007703    0.000001618
     10        7          -0.000046181    0.000054492    0.000009429
     11        6           0.000001527   -0.000004868    0.000005577
     12        1          -0.000003595    0.000000430   -0.000000849
     13        1          -0.000001944    0.000005562   -0.000004137
     14        1          -0.000002783    0.000005782   -0.000002698
     15        6          -0.000003879   -0.000010088   -0.000003158
     16        1           0.000000349    0.000003668    0.000002833
     17        1          -0.000000564    0.000002733    0.000002364
     18        1           0.000001816    0.000000287    0.000000689
     19        6           0.000000504   -0.000046624    0.000005733
     20        1           0.000005297   -0.000000194   -0.000001957
     21        1           0.000004293    0.000003647   -0.000001920
     22        7          -0.000007306   -0.000009431   -0.000017287
     23        1          -0.000001059    0.000002332   -0.000000510
     24        1           0.000000285   -0.000002318    0.000003070
 -------------------------------------------------------------------
 Cartesian Forces:  Max     0.000059585 RMS     0.000014227
 FormGI is forming the generalized inverse of G from B-inverse, IUseBI=4.

 GradGradGradGradGradGradGradGradGradGradGradGradGradGradGradGradGradGrad
 Berny optimization.
 Internal  Forces:  Max     0.000045783 RMS     0.000006777
 Search for a local minimum.
 Step number   1 out of a maximum of    2
 All quantities printed in internal units (Hartrees-Bohrs-Radians)
 Second derivative matrix not updated -- analytic derivatives used.
 ITU=  0
     Eigenvalues ---    0.00115   0.00198   0.00208   0.00290   0.00421
     Eigenvalues ---    0.00564   0.00913   0.02822   0.03406   0.03505
     Eigenvalues ---    0.03801   0.03923   0.04467   0.04624   0.04719
     Eigenvalues ---    0.04781   0.04810   0.04844   0.05079   0.05720
     Eigenvalues ---    0.05836   0.06626   0.07323   0.07798   0.08367
     Eigenvalues ---    0.11058   0.12145   0.12956   0.13012   0.13461
     Eigenvalues ---    0.14526   0.14770   0.15755   0.16346   0.16812
     Eigenvalues ---    0.16974   0.17753   0.18462   0.18761   0.19779
     Eigenvalues ---    0.22165   0.24315   0.25079   0.28114   0.28690
     Eigenvalues ---    0.30016   0.31210   0.32470   0.32691   0.32997
     Eigenvalues ---    0.33170   0.33224   0.33832   0.34106   0.34202
     Eigenvalues ---    0.34335   0.34577   0.35042   0.35206   0.35521
     Eigenvalues ---    0.35811   0.36047   0.37619   0.40826   0.45995
     Eigenvalues ---    0.46653
 Angle between quadratic step and forces=  79.11 degrees.
 Linear search not attempted -- first point.
 Iteration  1 RMS(Cart)=  0.00058138 RMS(Int)=  0.00000018
 Iteration  2 RMS(Cart)=  0.00000025 RMS(Int)=  0.00000000
 Variable       Old X    -DE/DX   Delta X   Delta X   Delta X     New X
                                 (Linear)    (Quad)   (Total)
    R1        2.05792   0.00000   0.00000   0.00003   0.00003   2.05795
    R2        2.07789  -0.00000   0.00000  -0.00000  -0.00000   2.07789
    R3        2.88133   0.00001   0.00000   0.00006   0.00006   2.88139
    R4        2.75525  -0.00002   0.00000  -0.00009  -0.00009   2.75516
    R5        2.05866   0.00000   0.00000  -0.00000  -0.00000   2.05866
    R6        2.06542  -0.00000   0.00000  -0.00002  -0.00002   2.06540
    R7        2.88304  -0.00001   0.00000  -0.00007  -0.00007   2.88298
    R8        2.05930  -0.00000   0.00000  -0.00001  -0.00001   2.05928
    R9        2.06425  -0.00001   0.00000  -0.00003  -0.00003   2.06422
   R10        2.86013   0.00005   0.00000   0.00026   0.00026   2.86039
   R11        2.79957  -0.00000   0.00000   0.00001   0.00001   2.79958
   R12        2.80127   0.00000   0.00000   0.00002   0.00002   2.80129
   R13        2.87706  -0.00004   0.00000  -0.00032  -0.00032   2.87675
   R14        2.05010   0.00000   0.00000   0.00001   0.00001   2.05011
   R15        2.06081  -0.00000   0.00000  -0.00001  -0.00001   2.06080
   R16        2.05094  -0.00000   0.00000  -0.00001  -0.00001   2.05094
   R17        2.06214  -0.00000   0.00000  -0.00002  -0.00002   2.06212
   R18        2.04971   0.00000   0.00000   0.00001   0.00001   2.04972
   R19        2.05359   0.00000   0.00000   0.00000   0.00000   2.05359
   R20        2.07531   0.00000   0.00000   0.00001   0.00001   2.07531
   R21        2.07077   0.00000   0.00000   0.00001   0.00001   2.07078
   R22        1.91131  -0.00000   0.00000  -0.00001  -0.00001   1.91129
   R23        1.90837  -0.00000   0.00000  -0.00001  -0.00001   1.90836
    A1        1.86869  -0.00000   0.00000  -0.00003  -0.00003   1.86865
    A2        1.89789  -0.00000   0.00000  -0.00010  -0.00010   1.89778
    A3        1.89345   0.00000   0.00000   0.00005   0.00005   1.89350
    A4        1.90031  -0.00000   0.00000  -0.00001  -0.00001   1.90030
    A5        1.97932  -0.00000   0.00000   0.00001   0.00001   1.97933
    A6        1.92203   0.00000   0.00000   0.00008   0.00008   1.92211
    A7        1.88947   0.00000   0.00000  -0.00009  -0.00009   1.88938
    A8        1.89803  -0.00001   0.00000   0.00002   0.00002   1.89804
    A9        1.98660  -0.00000   0.00000  -0.00016  -0.00016   1.98644
   A10        1.85279  -0.00000   0.00000   0.00004   0.00004   1.85283
   A11        1.94422  -0.00000   0.00000  -0.00003  -0.00003   1.94419
   A12        1.88760   0.00001   0.00000   0.00024   0.00024   1.88784
   A13        1.92191  -0.00000   0.00000   0.00008   0.00008   1.92200
   A14        1.93144  -0.00000   0.00000   0.00013   0.00013   1.93158
   A15        2.01374   0.00001   0.00000  -0.00013  -0.00013   2.01360
   A16        1.87728   0.00000   0.00000   0.00006   0.00006   1.87734
   A17        1.83712  -0.00000   0.00000  -0.00014  -0.00014   1.83698
   A18        1.87557  -0.00001   0.00000  -0.00001  -0.00001   1.87556
   A19        1.91438   0.00000   0.00000  -0.00002  -0.00002   1.91436
   A20        1.86660  -0.00000   0.00000  -0.00004  -0.00004   1.86655
   A21        2.04527  -0.00000   0.00000  -0.00005  -0.00005   2.04522
   A22        1.88187  -0.00000   0.00000  -0.00002  -0.00002   1.88184
   A23        1.88127  -0.00000   0.00000   0.00006   0.00006   1.88133
   A24        1.86825   0.00000   0.00000   0.00008   0.00008   1.86833
   A25        1.87360   0.00000   0.00000   0.00001   0.00001   1.87361
   A26        1.92145  -0.00001   0.00000  -0.00003  -0.00003   1.92142
   A27        1.90646  -0.00000   0.00000  -0.00003  -0.00003   1.90643
   A28        1.94558   0.00000   0.00000  -0.00002  -0.00002   1.94557
   A29        1.89603   0.00000   0.00000  -0.00000  -0.00000   1.89602
   A30        1.91973   0.00001   0.00000   0.00006   0.00006   1.91979
   A31        1.92464  -0.00000   0.00000  -0.00002  -0.00002   1.92462
   A32        1.88004  -0.00000   0.00000  -0.00003  -0.00003   1.88000
   A33        1.89059  -0.00000   0.00000  -0.00001  -0.00001   1.89058
   A34        1.94673   0.00000   0.00000   0.00003   0.00003   1.94676
   A35        1.92129   0.00000   0.00000   0.00001   0.00001   1.92131
   A36        1.89916   0.00000   0.00000   0.00002   0.00002   1.89917
   A37        1.82233  -0.00000   0.00000   0.00006   0.00006   1.82239
   A38        1.83458   0.00000   0.00000   0.00012   0.00012   1.83470
   A39        1.87195  -0.00000   0.00000  -0.00004  -0.00004   1.87191
   A40        1.93802   0.00000   0.00000   0.00005   0.00005   1.93806
   A41        1.93639   0.00000   0.00000   0.00007   0.00007   1.93646
   A42        1.86995  -0.00000   0.00000   0.00002   0.00002   1.86997
    D1       -1.07603  -0.00000   0.00000  -0.00003  -0.00003  -1.07606
    D2       -3.08184   0.00000   0.00000  -0.00004  -0.00004  -3.08188
    D3        1.09593  -0.00000   0.00000  -0.00025  -0.00025   1.09568
    D4       -3.10642  -0.00000   0.00000   0.00007   0.00007  -3.10634
    D5        1.17095   0.00000   0.00000   0.00007   0.00007   1.17102
    D6       -0.93446   0.00000   0.00000  -0.00014  -0.00014  -0.93460
    D7        0.99648   0.00000   0.00000   0.00002   0.00002   0.99650
    D8       -1.00933   0.00000   0.00000   0.00001   0.00001  -1.00932
    D9       -3.11474   0.00000   0.00000  -0.00020  -0.00020  -3.11495
   D10       -2.96490   0.00000   0.00000   0.00034   0.00034  -2.96456
   D11       -0.88733   0.00000   0.00000   0.00045   0.00045  -0.88689
   D12       -0.89123   0.00000   0.00000   0.00034   0.00034  -0.89089
   D13        1.18634   0.00000   0.00000   0.00044   0.00044   1.18679
   D14        1.24306   0.00000   0.00000   0.00039   0.00039   1.24345
   D15       -2.96256   0.00000   0.00000   0.00050   0.00050  -2.96206
   D16        0.35868  -0.00000   0.00000  -0.00129  -0.00129   0.35740
   D17        2.43190  -0.00000   0.00000  -0.00108  -0.00108   2.43082
   D18       -1.71732  -0.00000   0.00000  -0.00108  -0.00108  -1.71839
   D19        2.50092  -0.00000   0.00000  -0.00155  -0.00155   2.49937
   D20       -1.70905  -0.00000   0.00000  -0.00134  -0.00134  -1.71039
   D21        0.42492  -0.00000   0.00000  -0.00134  -0.00134   0.42358
   D22       -1.75257  -0.00000   0.00000  -0.00137  -0.00137  -1.75394
   D23        0.32065   0.00000   0.00000  -0.00116  -0.00116   0.31949
   D24        2.45462   0.00000   0.00000  -0.00116  -0.00116   2.45346
   D25       -1.21134  -0.00000   0.00000   0.00012   0.00012  -1.21123
   D26        3.03555   0.00000   0.00000   0.00018   0.00018   3.03573
   D27        0.94005  -0.00000   0.00000   0.00015   0.00015   0.94019
   D28        2.94950  -0.00000   0.00000   0.00019   0.00019   2.94969
   D29        0.91320   0.00000   0.00000   0.00026   0.00026   0.91346
   D30       -1.18230  -0.00000   0.00000   0.00022   0.00022  -1.18208
   D31        0.95223  -0.00000   0.00000   0.00019   0.00019   0.95242
   D32       -1.08406   0.00000   0.00000   0.00026   0.00026  -1.08380
   D33        3.10362   0.00000   0.00000   0.00022   0.00022   3.10384
   D34       -3.09479   0.00000   0.00000   0.00044   0.00044  -3.09435
   D35       -0.97405   0.00000   0.00000   0.00041   0.00041  -0.97364
   D36        1.13562   0.00000   0.00000   0.00045   0.00045   1.13607
   D37       -1.06813   0.00000   0.00000   0.00036   0.00036  -1.06777
   D38        1.05261  -0.00000   0.00000   0.00033   0.00033   1.05294
   D39       -3.12091   0.00000   0.00000   0.00037   0.00037  -3.12053
   D40        0.94326   0.00000   0.00000   0.00048   0.00048   0.94373
   D41        3.06400   0.00000   0.00000   0.00045   0.00045   3.06444
   D42       -1.10952   0.00000   0.00000   0.00049   0.00049  -1.10903
   D43        0.96038   0.00000   0.00000   0.00019   0.00019   0.96057
   D44        3.08847   0.00000   0.00000   0.00019   0.00019   3.08866
   D45       -1.14318   0.00000   0.00000   0.00019   0.00019  -1.14299
   D46       -1.09732  -0.00000   0.00000   0.00025   0.00025  -1.09707
   D47        1.03077  -0.00000   0.00000   0.00025   0.00025   1.03103
   D48        3.08231  -0.00000   0.00000   0.00025   0.00025   3.08256
   D49       -3.11727   0.00000   0.00000   0.00015   0.00015  -3.11712
   D50       -0.98918   0.00000   0.00000   0.00015   0.00015  -0.98903
   D51        1.06235   0.00000   0.00000   0.00015   0.00015   1.06250
   D52        0.88607  -0.00000   0.00000   0.00024   0.00024   0.88632
   D53       -1.08170   0.00000   0.00000   0.00021   0.00021  -1.08149
   D54        3.05428   0.00000   0.00000   0.00023   0.00023   3.05451
   D55        1.08650   0.00000   0.00000   0.00020   0.00020   1.08670
   D56       -1.20855  -0.00000   0.00000   0.00027   0.00027  -1.20828
   D57        3.10685   0.00000   0.00000   0.00024   0.00024   3.10710
         Item               Value     Threshold  Converged?
 Maximum Force            0.000046     0.000450     YES
 RMS     Force            0.000007     0.000300     YES
 Maximum Displacement     0.002252     0.001800     NO 
 RMS     Displacement     0.000581     0.001200     YES
 Predicted change in Energy=-3.068560D-08
                           ----------------------------
                           ! Non-Optimized Parameters !
                           ! (Angstroms and Degrees)  !
 --------------------------                            --------------------------
 ! Name  Definition              Value          Derivative Info.                !
 --------------------------------------------------------------------------------
 ! R1    R(1,2)                  1.089          -DE/DX =    0.0                 !
 ! R2    R(1,3)                  1.0996         -DE/DX =    0.0                 !
 ! R3    R(1,4)                  1.5248         -DE/DX =    0.0                 !
 ! R4    R(1,22)                 1.458          -DE/DX =    0.0                 !
 ! R5    R(4,5)                  1.0894         -DE/DX =    0.0                 !
 ! R6    R(4,6)                  1.093          -DE/DX =    0.0                 !
 ! R7    R(4,7)                  1.5256         -DE/DX =    0.0                 !
 ! R8    R(7,8)                  1.0897         -DE/DX =    0.0                 !
 ! R9    R(7,9)                  1.0923         -DE/DX =    0.0                 !
 ! R10   R(7,10)                 1.5137         -DE/DX =    0.0                 !
 ! R11   R(10,11)                1.4815         -DE/DX =    0.0                 !
 ! R12   R(10,15)                1.4824         -DE/DX =    0.0                 !
 ! R13   R(10,19)                1.5223         -DE/DX =    0.0                 !
 ! R14   R(11,12)                1.0849         -DE/DX =    0.0                 !
 ! R15   R(11,13)                1.0905         -DE/DX =    0.0                 !
 ! R16   R(11,14)                1.0853         -DE/DX =    0.0                 !
 ! R17   R(15,16)                1.0912         -DE/DX =    0.0                 !
 ! R18   R(15,17)                1.0847         -DE/DX =    0.0                 !
 ! R19   R(15,18)                1.0867         -DE/DX =    0.0                 !
 ! R20   R(19,20)                1.0982         -DE/DX =    0.0                 !
 ! R21   R(19,21)                1.0958         -DE/DX =    0.0                 !
 ! R22   R(22,23)                1.0114         -DE/DX =    0.0                 !
 ! R23   R(22,24)                1.0099         -DE/DX =    0.0                 !
 ! A1    A(2,1,3)              107.0658         -DE/DX =    0.0                 !
 ! A2    A(2,1,4)              108.735          -DE/DX =    0.0                 !
 ! A3    A(2,1,22)             108.4896         -DE/DX =    0.0                 !
 ! A4    A(3,1,4)              108.8789         -DE/DX =    0.0                 !
 ! A5    A(3,1,22)             113.4071         -DE/DX =    0.0                 !
 ! A6    A(4,1,22)             110.1288         -DE/DX =    0.0                 !
 ! A7    A(1,4,5)              108.2534         -DE/DX =    0.0                 !
 ! A8    A(1,4,6)              108.7499         -DE/DX =    0.0                 !
 ! A9    A(1,4,7)              113.8146         -DE/DX =    0.0                 !
 ! A10   A(5,4,6)              106.1592         -DE/DX =    0.0                 !
 ! A11   A(5,4,7)              111.3939         -DE/DX =    0.0                 !
 ! A12   A(6,4,7)              108.1653         -DE/DX =    0.0                 !
 ! A13   A(4,7,8)              110.1224         -DE/DX =    0.0                 !
 ! A14   A(4,7,9)              110.6711         -DE/DX =    0.0                 !
 ! A15   A(4,7,10)             115.3709         -DE/DX =    0.0                 !
 ! A16   A(8,7,9)              107.5637         -DE/DX =    0.0                 !
 ! A17   A(8,7,10)             105.2511         -DE/DX =    0.0                 !
 ! A18   A(9,7,10)             107.4619         -DE/DX =    0.0                 !
 ! A19   A(7,10,11)            109.6847         -DE/DX =    0.0                 !
 ! A20   A(7,10,15)            106.9455         -DE/DX =    0.0                 !
 ! A21   A(7,10,19)            117.1823         -DE/DX =    0.0                 !
 ! A22   A(11,10,15)           107.8216         -DE/DX =    0.0                 !
 ! A23   A(11,10,19)           107.7923         -DE/DX =    0.0                 !
 ! A24   A(15,10,19)           107.0475         -DE/DX =    0.0                 !
 ! A25   A(10,11,12)           107.3501         -DE/DX =    0.0                 !
 ! A26   A(10,11,13)           110.089          -DE/DX =    0.0                 !
 ! A27   A(10,11,14)           109.2306         -DE/DX =    0.0                 !
 ! A28   A(12,11,13)           111.4728         -DE/DX =    0.0                 !
 ! A29   A(12,11,14)           108.6341         -DE/DX =    0.0                 !
 ! A30   A(13,11,14)           109.9961         -DE/DX =    0.0                 !
 ! A31   A(10,15,16)           110.2726         -DE/DX =    0.0                 !
 ! A32   A(10,15,17)           107.7162         -DE/DX =    0.0                 !
 ! A33   A(10,15,18)           108.3222         -DE/DX =    0.0                 !
 ! A34   A(16,15,17)           111.5409         -DE/DX =    0.0                 !
 ! A35   A(16,15,18)           110.0828         -DE/DX =    0.0                 !
 ! A36   A(17,15,18)           108.8147         -DE/DX =    0.0                 !
 ! A37   A(10,19,20)           104.4154         -DE/DX =    0.0                 !
 ! A38   A(10,19,21)           105.1203         -DE/DX =    0.0                 !
 ! A39   A(20,19,21)           107.2528         -DE/DX =    0.0                 !
 ! A40   A(1,22,23)            111.0429         -DE/DX =    0.0                 !
 ! A41   A(1,22,24)            110.9507         -DE/DX =    0.0                 !
 ! A42   A(23,22,24)           107.1414         -DE/DX =    0.0                 !
 ! D1    D(2,1,4,5)            -61.6536         -DE/DX =    0.0                 !
 ! D2    D(2,1,4,6)           -176.5788         -DE/DX =    0.0                 !
 ! D3    D(2,1,4,7)             62.7779         -DE/DX =    0.0                 !
 ! D4    D(3,1,4,5)           -177.9803         -DE/DX =    0.0                 !
 ! D5    D(3,1,4,6)             67.0945         -DE/DX =    0.0                 !
 ! D6    D(3,1,4,7)            -53.5488         -DE/DX =    0.0                 !
 ! D7    D(22,1,4,5)            57.0952         -DE/DX =    0.0                 !
 ! D8    D(22,1,4,6)           -57.83           -DE/DX =    0.0                 !
 ! D9    D(22,1,4,7)          -178.4733         -DE/DX =    0.0                 !
 ! D10   D(2,1,22,23)         -169.8567         -DE/DX =    0.0                 !
 ! D11   D(2,1,22,24)          -50.8149         -DE/DX =    0.0                 !
 ! D12   D(3,1,22,23)          -51.0441         -DE/DX =    0.0                 !
 ! D13   D(3,1,22,24)           67.9978         -DE/DX =    0.0                 !
 ! D14   D(4,1,22,23)           71.2444         -DE/DX =    0.0                 !
 ! D15   D(4,1,22,24)         -169.7138         -DE/DX =    0.0                 !
 ! D16   D(1,4,7,8)             20.4773         -DE/DX =    0.0                 !
 ! D17   D(1,4,7,9)            139.2759         -DE/DX =    0.0                 !
 ! D18   D(1,4,7,10)           -98.4567         -DE/DX =    0.0                 !
 ! D19   D(5,4,7,8)            143.2031         -DE/DX =    0.0                 !
 ! D20   D(5,4,7,9)            -97.9982         -DE/DX =    0.0                 !
 ! D21   D(5,4,7,10)            24.2691         -DE/DX =    0.0                 !
 ! D22   D(6,4,7,8)           -100.4933         -DE/DX =    0.0                 !
 ! D23   D(6,4,7,9)             18.3053         -DE/DX =    0.0                 !
 ! D24   D(6,4,7,10)           140.5727         -DE/DX =    0.0                 !
 ! D25   D(4,7,10,11)          -69.3982         -DE/DX =    0.0                 !
 ! D26   D(4,7,10,15)          173.9347         -DE/DX =    0.0                 !
 ! D27   D(4,7,10,19)           53.8691         -DE/DX =    0.0                 !
 ! D28   D(8,7,10,11)          169.0047         -DE/DX =    0.0                 !
 ! D29   D(8,7,10,15)           52.3375         -DE/DX =    0.0                 !
 ! D30   D(8,7,10,19)          -67.728          -DE/DX =    0.0                 !
 ! D31   D(9,7,10,11)           54.5699         -DE/DX =    0.0                 !
 ! D32   D(9,7,10,15)          -62.0973         -DE/DX =    0.0                 !
 ! D33   D(9,7,10,19)          177.8371         -DE/DX =    0.0                 !
 ! D34   D(7,10,11,12)        -177.2931         -DE/DX =    0.0                 !
 ! D35   D(7,10,11,13)         -55.7852         -DE/DX =    0.0                 !
 ! D36   D(7,10,11,14)          65.0923         -DE/DX =    0.0                 !
 ! D37   D(15,10,11,12)        -61.1787         -DE/DX =    0.0                 !
 ! D38   D(15,10,11,13)         60.3292         -DE/DX =    0.0                 !
 ! D39   D(15,10,11,14)       -178.7933         -DE/DX =    0.0                 !
 ! D40   D(19,10,11,12)         54.0719         -DE/DX =    0.0                 !
 ! D41   D(19,10,11,13)        175.5798         -DE/DX =    0.0                 !
 ! D42   D(19,10,11,14)        -63.5427         -DE/DX =    0.0                 !
 ! D43   D(7,10,15,16)          55.0366         -DE/DX =    0.0                 !
 ! D44   D(7,10,15,17)         176.9672         -DE/DX =    0.0                 !
 ! D45   D(7,10,15,18)         -65.4886         -DE/DX =    0.0                 !
 ! D46   D(11,10,15,16)        -62.8573         -DE/DX =    0.0                 !
 ! D47   D(11,10,15,17)         59.0734         -DE/DX =    0.0                 !
 ! D48   D(11,10,15,18)        176.6175         -DE/DX =    0.0                 !
 ! D49   D(19,10,15,16)       -178.5979         -DE/DX =    0.0                 !
 ! D50   D(19,10,15,17)        -56.6672         -DE/DX =    0.0                 !
 ! D51   D(19,10,15,18)         60.8769         -DE/DX =    0.0                 !
 ! D52   D(7,10,19,20)          50.7822         -DE/DX =    0.0                 !
 ! D53   D(7,10,19,21)         -61.9649         -DE/DX =    0.0                 !
 ! D54   D(11,10,19,20)        175.0104         -DE/DX =    0.0                 !
 ! D55   D(11,10,19,21)         62.2633         -DE/DX =    0.0                 !
 ! D56   D(15,10,19,20)        -69.2294         -DE/DX =    0.0                 !
 ! D57   D(15,10,19,21)        178.0235         -DE/DX =    0.0                 !
 --------------------------------------------------------------------------------
 GradGradGradGradGradGradGradGradGradGradGradGradGradGradGradGradGradGrad


 ----------------------------------------------------------------------

 Electric dipole moment (input orientation):
 (Debye = 10**-18 statcoulomb cm , SI units = C m)
                  (au)            (Debye)         (10**-30 SI)
   Tot        0.216715D+01      0.550834D+01      0.183738D+02
   x          0.107990D+01      0.274483D+01      0.915577D+01
   y         -0.182228D+01     -0.463178D+01     -0.154500D+02
   z         -0.457857D+00     -0.116376D+01     -0.388187D+01

 Dipole polarizability, Alpha (input orientation).
 (esu units = cm**3 , SI units = C**2 m**2 J**-1)
 Alpha(0;0):
               (au)            (10**-24 esu)      (10**-40 SI)
   iso        0.985890D+02      0.146094D+02      0.162551D+02
   aniso      0.220978D+02      0.327455D+01      0.364343D+01
   xx         0.112448D+03      0.166631D+02      0.185402D+02
   yx         0.234038D+01      0.346808D+00      0.385876D+00
   yy         0.949801D+02      0.140746D+02      0.156601D+02
   zx         0.125763D+01      0.186362D+00      0.207355D+00
   zy         0.788660D+00      0.116867D+00      0.130033D+00
   zz         0.883385D+02      0.130904D+02      0.145650D+02

 ----------------------------------------------------------------------

 Dipole orientation:
     6          1.89180265         -1.83906712          0.58533314
     1          1.14348905         -2.24249360         -1.28878047
     1          1.25921733         -3.37185085          1.83754806
     6          0.77009298          0.64695160          1.51460999
     1          1.35266186          2.14024942          0.22280955
     1          1.60828631          1.11058019          3.34448282
     6         -2.09515939          0.58646492          1.82861972
     1         -2.74833889         -1.35923820          1.99682330
     1         -2.66107379          1.58397926          3.54496299
     7         -3.58995543          1.69730364         -0.34208071
     6         -3.22074929          4.47134443         -0.41933505
     1         -4.38943929          5.20157451         -1.93718005
     1         -3.73280967          5.30443773          1.39469219
     1         -1.25744316          4.87985767         -0.84934806
     6         -6.29536927          1.20701124          0.19409484
     1         -6.80290559          1.95293464          2.04839047
     1         -7.39559014          2.08373589         -1.29660441
     1         -6.60660692         -0.82215916          0.14101037
     6         -3.05124298          0.66527841         -2.97309075
     1         -3.18352568         -1.39450765         -2.75703731
     1         -1.06323603          1.11859227         -3.33425786
     7          4.63349412         -1.63355199          0.40568986
     1          5.43207888         -1.57062175          2.14103004
     1          5.37290343         -3.14223682         -0.49931025

 Electric dipole moment (dipole orientation):
 (Debye = 10**-18 statcoulomb cm , SI units = C m)
                  (au)            (Debye)         (10**-30 SI)
   Tot        0.216715D+01      0.550834D+01      0.183738D+02
   x          0.000000D+00      0.000000D+00      0.000000D+00
   y          0.000000D+00      0.000000D+00      0.000000D+00
   z          0.216715D+01      0.550834D+01      0.183738D+02

 Dipole polarizability, Alpha (dipole orientation).
 (esu units = cm**3 , SI units = C**2 m**2 J**-1)
 Alpha(0;0):
               (au)            (10**-24 esu)      (10**-40 SI)
   iso        0.985890D+02      0.146094D+02      0.162551D+02
   aniso      0.220978D+02      0.327455D+01      0.364343D+01
   xx         0.106927D+03      0.158449D+02      0.176299D+02
   yx        -0.795167D+01     -0.117832D+01     -0.131105D+01
   yy         0.917647D+02      0.135981D+02      0.151300D+02
   zx         0.617118D+01      0.914475D+00      0.101749D+01
   zy        -0.150531D+01     -0.223064D+00     -0.248193D+00
   zz         0.970753D+02      0.143851D+02      0.160056D+02

 ----------------------------------------------------------------------
 1\1\GINC-CCLEARMO\Freq\RwB97XD\6-311+G(2d,2p)\C6H16N2\TROUPPER\01-Oct-
 2026\0\\#N Geom=AllCheck Guess=TCheck SCRF=Check GenChk RwB97XD/6-311+
 G(2d,2p) Freq\\opt freq\\0,1\C,1.286874032,0.4909595054,-0.3849133737\
 H,0.5517220855,1.2767634521,-0.5522226745\H,1.6315290931,0.1556083607,
 -1.3737574903\C,0.6049379708,-0.6754934206,0.3216056712\H,0.23603086,-
 0.3229857988,1.2841166115\H,1.3552158678,-1.4384200439,0.5443495978\C,
 -0.5065919731,-1.3263922677,-0.4959576935\H,-0.3808583442,-1.092205542
 6,-1.5527753788\H,-0.4746856537,-2.413435235,-0.3932104681\N,-1.911188
 2705,-0.8788265986,-0.1531507246\C,-2.2840375375,-1.3879317969,1.18720
 08298\H,-3.3096172251,-1.0873297483,1.3736513281\H,-2.1736184638,-2.47
 23640315,1.2200657906\H,-1.6462510288,-0.927184327,1.9347584289\C,-2.8
 182132777,-1.504645144,-1.1446538042\H,-2.6793156308,-2.5869655657,-1.
 1538856803\H,-3.8346466464,-1.2358582927,-0.8779981652\H,-2.5916982829
 ,-1.0910120919,-2.1237045467\C,-2.1894107542,0.6178359721,-0.176167186
 \H,-1.8110361882,0.951214019,-1.151741686\H,-1.5312795741,1.0426021775
 ,0.5901416423\N,2.3553053303,1.0275043334,0.4495788053\H,3.1373423923,
 0.3876569807,0.4941493111\H,2.7039043792,1.8978857343,0.0744181254\\Ve
 rsion=EM64M-G16RevA.03\State=1-A\HF=-347.6637292\RMSD=2.901e-09\RMSF=1
 .423e-05\ZeroPoint=0.2248952\Thermal=0.2351101\Dipole=1.0798995,-1.822
 2823,-0.457857\DipoleDeriv=0.4364168,0.1905001,0.1019422,0.2036229,0.2
 366351,0.1569699,0.0409156,0.1410512,0.3316886,0.0419944,0.0593459,-0.
 0312561,0.0743322,-0.0280844,0.0264016,-0.0423385,-0.0101099,0.0207586
 ,-0.0432163,-0.0340151,0.0225217,-0.0392003,-0.0216367,-0.1177547,0.00
 41156,-0.0873982,-0.224298,0.0642052,-0.077871,-0.0019027,-0.1098168,0
 .0399626,-0.0429644,0.0090851,-0.007609,0.0096155,0.0628945,-0.004667,
 0.0638937,-0.0234835,0.0456028,-0.0522001,0.0657424,-0.0018997,-0.0559
 202,-0.1059723,0.0765591,-0.0482596,0.0803801,-0.0600287,0.0475015,-0.
 0123496,0.0259529,0.0594198,0.33334,0.0406472,-0.0208678,0.0462898,0.0
 321883,0.0089095,-0.0110091,0.0098636,0.1265546,0.0396385,-0.0023293,0
 .0054793,0.0128888,0.059263,0.064194,0.0050016,0.0037223,-0.0865832,-0
 .0809484,0.0382371,0.0055442,0.045263,-0.1990652,-0.0199546,-0.0007486
 ,0.0073629,0.0753383,-0.3210573,0.1378082,-0.0331159,-0.1554588,-0.299
 6349,0.0102741,-0.0083617,-0.0425463,-0.3760574,0.0689668,0.0248285,-0
 .0660092,-0.0078174,0.2211279,-0.0590355,-0.0361172,-0.1135048,0.27798
 28,-0.0336072,-0.0048466,0.0423243,0.0458195,0.095721,-0.0109069,-0.02
 27894,0.0070178,0.0754998,0.0852294,0.0498221,0.0009405,0.0027822,-0.1
 418378,0.0535198,0.011859,-0.0249002,0.0331367,0.0317221,-0.0347372,-0
 .0822467,-0.0609441,0.0392691,-0.0490442,-0.0499261,-0.0096713,-0.0005
 148,0.1422137,0.0665686,0.1016177,0.0178124,0.26124,0.0655296,0.123209
 6,0.1039853,0.2229004,0.0707325,0.0641054,-0.0176041,-0.0139592,-0.155
 0492,-0.0410157,-0.0320266,0.012844,0.0451838,-0.0232492,-0.0155533,0.
 0000056,0.0458764,0.0941435,-0.0184115,0.0508328,-0.0121204,0.0568712,
 0.0525693,-0.0316874,0.0574673,-0.031092,0.0493574,0.0671,0.0065,0.015
 9368,-0.0462235,-0.427902,-0.0645772,0.0204776,0.1337228,-0.080022,-0.
 0357655,0.0177087,0.0114506,-0.1812115,0.0686988,-0.1135626,0.2163175,
 -0.0427533,-0.0245164,-0.0045772,0.1642916,0.0582858,-0.1829413,-0.059
 12,-0.1472735,-0.2209036,-0.0685196,-0.0235559,0.0113543,-0.2069513,-0
 .0101627,-0.051225,-0.5439775,-0.1817782,-0.0729188,-0.1889056,-0.3431
 526,-0.1219869,-0.12549,-0.1669831,-0.5639124,0.0539222,0.0347318,-0.0
 191029,0.0881862,0.0760365,-0.0153595,0.0218619,-0.0457402,0.2500389,0
 .086506,-0.0702556,-0.0243443,-0.0550257,0.1260364,0.0772223,0.0269842
 ,0.1351729,0.1838982\Polar=112.4483684,2.3403784,94.9800895,1.2576307,
 0.7886602,88.3384893\Quadrupole=-0.5246586,-0.3885674,0.913226,7.48937
 12,-1.9270693,-1.7013298\PG=C01 [X(C6H16N2)]\NImag=0\\0.54530262,-0.07
 139258,0.55480051,-0.00137503,0.00460581,0.54112958,-0.16573556,0.1295
 7338,-0.02578866,0.18680925,0.13382559,-0.19488228,0.02706080,-0.13832
 890,0.20932978,-0.02102438,0.02084834,-0.05636868,0.03120725,-0.028482
 20,0.06184067,-0.08229035,0.02844852,0.07477050,-0.00627330,0.00584123
 ,0.01947653,0.08811122,0.02959250,-0.07428536,-0.06216549,0.00838464,-
 0.00627229,-0.02211787,-0.02215727,0.07977093,0.07612171,-0.05990180,-
 0.23093473,-0.00020763,0.00103748,0.00392373,-0.07678200,0.07161044,0.
 26081739,-0.09476368,-0.02578030,0.02384335,0.01139582,0.01645211,-0.0
 1033909,-0.00575944,-0.01220425,0.00828427,0.52555835,-0.03337814,-0.1
 4323941,0.04766451,-0.01241508,-0.02104357,0.01363839,0.00419415,0.005
 15048,-0.00481695,-0.05575536,0.52556359,0.02679396,0.05248734,-0.1128
 8192,0.00293826,0.00458399,-0.00300255,0.01279486,0.02406924,-0.015623
 32,-0.01584569,0.02203296,0.55831240,-0.00576469,0.00350473,0.01391051
 ,0.00041094,0.00011968,-0.00085493,-0.00079815,-0.00262898,0.00082316,
 -0.07827087,0.03013063,0.08081113,0.08987263,-0.01141877,0.00760410,0.
 02512913,0.00075271,0.00124571,-0.00016178,-0.00289009,-0.00360775,0.0
 0266593,0.03007782,-0.07473868,-0.08134245,-0.02941060,0.08184037,0.00
 693870,-0.00453385,-0.01741922,-0.00028814,-0.00034718,0.00041816,0.00
 115632,0.00277145,-0.00092603,0.08060563,-0.07820686,-0.25233472,-0.09
 096459,0.08411882,0.27692029,0.00981424,-0.01255344,0.00297635,-0.0009
 5523,-0.00311156,0.00118806,0.00083294,0.00075160,-0.00068202,-0.17029
 844,0.12293146,-0.03426806,-0.00823105,0.00784629,-0.00222616,0.187532
 91,0.01845897,-0.02123271,0.00534441,-0.00326721,-0.00311934,0.0027754
 9,-0.00030051,0.00132208,-0.00004434,0.12613423,-0.17309685,0.03489173
 ,0.00727014,-0.00780188,0.00239322,-0.13111631,0.19349027,-0.01259684,
 0.01528473,-0.00403146,0.00221816,0.00257368,-0.00092575,-0.00061524,-
 0.00056671,0.00027563,-0.03364555,0.03493335,-0.05781203,0.02015597,-0
 .02029498,0.00665835,0.03869618,-0.03914407,0.05997812,-0.01398542,-0.
 00877789,-0.00726244,0.00089839,0.00050268,-0.00001111,0.00068927,0.00
 085305,-0.00106997,-0.13380806,-0.03452420,-0.04023300,0.01043444,0.00
 429789,0.00322526,-0.01639632,-0.01281322,-0.01352246,0.42291093,-0.01
 812961,-0.01080644,-0.01767541,0.00071110,0.00064356,-0.00046634,0.000
 36102,0.00104483,-0.00028190,-0.03849727,-0.10507299,-0.02973041,-0.00
 786122,-0.00469002,-0.00408236,0.01667864,0.00803385,0.01126000,0.0438
 4150,0.57759687,0.00801924,-0.00253695,0.00963437,-0.00051034,0.000354
 99,0.00033737,0.00204069,0.00170836,-0.00044012,-0.04116848,-0.0305181
 3,-0.11875253,-0.02348175,-0.01015973,-0.01532379,-0.00229261,-0.00330
 994,-0.00383110,0.01059324,-0.04390918,0.59201314,0.00082111,-0.000390
 79,-0.00237856,0.00005804,-0.00031850,0.00026189,-0.00072314,0.0002095
 5,0.00067369,0.00313498,0.00212557,-0.02269416,-0.00326639,-0.00079674
 ,-0.00153705,-0.00068414,0.00002561,-0.00024110,-0.04789233,-0.0029990
 6,0.01985480,0.06711216,-0.00057107,0.00008933,-0.00142841,0.00028317,
 -0.00005885,-0.00016636,-0.00027929,0.00025798,0.00017558,0.00097108,0
 .00342118,-0.01560868,-0.00183749,-0.00090551,-0.00155170,-0.00046153,
 -0.00014484,-0.00046512,-0.00774649,-0.06484496,0.06321597,0.00806063,
 0.06587315,0.00185959,0.00164787,0.00053916,-0.00016116,-0.00037014,0.
 00002966,-0.00070914,-0.00068918,0.00096194,-0.00015821,0.00124412,-0.
 01642644,-0.00234698,-0.00003920,-0.00088556,-0.00058859,-0.00052551,-
 0.00085563,0.03034682,0.05836051,-0.29812093,-0.03016629,-0.06225473,0
 .32327788,-0.00118059,-0.00053468,-0.00363842,0.00004010,0.00008273,0.
 00001993,-0.00001006,0.00010631,0.00004400,-0.00213346,-0.02205760,0.0
 0219560,-0.00055728,-0.00090837,-0.00058959,0.00019703,-0.00116324,-0.
 00006222,-0.04817048,0.00038808,0.00238470,0.00094797,-0.00415824,-0.0
 0018583,0.06301320,-0.00084140,0.00073969,-0.00241323,0.00034268,0.000
 21458,-0.00007922,-0.00001138,0.00007778,0.00002463,0.00010627,-0.0105
 9286,0.00328110,-0.00037409,-0.00042960,-0.00021377,-0.00040626,0.0016
 3043,-0.00003244,0.00523997,-0.30311654,0.02815387,-0.00034922,-0.0062
 4521,0.00056529,-0.00644271,0.32869542,-0.00033597,-0.00010172,-0.0023
 4503,-0.00007485,-0.00014632,-0.00007842,-0.00018887,0.00001838,0.0003
 0542,-0.00167466,-0.01914919,0.00319955,-0.00020017,-0.00029011,-0.000
 59085,0.00049589,0.00014487,0.00141358,-0.00015426,0.03053869,-0.05597
 273,-0.00188790,0.03114331,-0.00151141,0.00164840,-0.02976352,0.054355
 80,-0.00087940,0.00093150,-0.00055531,0.00026007,-0.00029317,0.0000256
 2,-0.00008948,0.00011930,-0.00004615,-0.02649558,0.00719611,0.00001046
 ,0.00031233,0.00123362,0.00201745,-0.00284041,-0.00258025,-0.00051127,
 -0.12204994,0.01281732,0.01548402,-0.01434198,0.00479723,0.00399021,-0
 .00638930,0.00168577,0.00245501,0.49095450,-0.00125347,0.00073761,-0.0
 0140964,-0.00028138,-0.00064359,0.00022813,0.00039944,-0.00000798,-0.0
 0012229,-0.00920704,0.00671938,0.00982520,0.00150791,-0.00031413,-0.00
 103737,-0.00165726,-0.00084327,-0.00161925,-0.01344792,-0.07832683,-0.
 00119902,-0.00583016,0.00101792,0.00279670,0.03174712,-0.01308870,-0.0
 1001181,0.05075443,0.44144341,0.00011631,0.00059579,-0.00170858,-0.000
 06083,-0.00019281,-0.00012779,-0.00034939,0.00011044,0.00055147,-0.017
 06900,0.01008037,0.00646401,0.00118113,0.00024990,-0.00015122,-0.00350
 430,-0.00238129,-0.00225699,0.00942852,-0.00601813,-0.09596330,0.03436
 678,-0.01264477,-0.01157535,-0.00294354,0.00110750,-0.00022195,0.00746
 781,-0.00237774,0.57296225,-0.00027956,0.00030305,0.00069341,-0.000093
 98,0.00004238,-0.00003855,-0.00003509,-0.00016123,-0.00020915,0.000217
 60,-0.00138966,0.00029349,-0.00193818,-0.00018924,0.00098216,0.0002200
 8,0.00014862,0.00008044,-0.01390451,-0.00950729,0.03536110,-0.00607507
 ,0.00132696,0.00132968,0.00089716,-0.00126658,0.00036215,-0.09622183,-
 0.00795034,0.02210648,0.61943377,0.00004659,-0.00050243,-0.00016007,0.
 00009563,0.00006577,0.00007611,0.00001816,0.00011744,-0.00001542,-0.00
 012604,0.00039346,0.00024693,-0.00054851,-0.00033287,-0.00015892,0.000
 40231,0.00003366,0.00002497,0.00013727,0.00443343,-0.00697602,0.002632
 02,-0.00096653,-0.00129275,0.00145573,-0.00037231,-0.00161059,-0.01227
 910,-0.09517130,0.03610350,-0.01631087,0.59918959,0.00006724,-0.000280
 32,-0.00086733,0.00014511,0.00012527,0.00002036,0.00019829,0.00026462,
 -0.00024675,-0.00012455,0.00156788,0.00093952,-0.00038029,-0.00114307,
 -0.00029952,-0.00066088,-0.00026309,-0.00012463,0.01347105,0.00037303,
 -0.01092074,-0.00017686,0.00026212,0.00131997,-0.00139431,0.00102665,0
 .00043911,0.02198185,0.02536168,-0.17091647,0.04028278,0.05184071,0.50
 346533,0.00002249,0.00019997,0.00009727,-0.00001866,-0.00005144,0.0000
 0356,-0.00002518,-0.00009463,-0.00000786,0.00021617,0.00006287,0.00021
 436,0.00015710,0.00018585,0.00010534,-0.00004670,-0.00002041,-0.000017
 88,0.00090298,-0.00121807,0.00126821,-0.00038678,0.00011511,0.00030887
 ,0.00020441,0.00005710,-0.00018683,-0.01124770,0.00224539,0.00342992,-
 0.30255497,0.07167020,0.04511675,0.32452802,-0.00005222,0.00018384,0.0
 0020449,-0.00004808,-0.00002301,-0.00002252,-0.00006597,-0.00006651,0.
 00000642,0.00006692,-0.00016971,0.00007343,0.00017075,0.00019880,0.000
 08089,-0.00006590,-0.00001072,-0.00000741,0.00043219,-0.00172391,0.001
 08323,-0.00061377,0.00073353,0.00011519,-0.00008317,0.00030601,0.00017
 383,-0.01250046,0.00190161,0.00338581,0.07818942,-0.06882419,-0.014948
 91,-0.07926689,0.06867857,0.00000490,0.00004654,0.00018193,0.00000949,
 0.00003089,-0.00001137,-0.00009924,-0.00006920,0.00013149,-0.00032811,
 -0.00051845,-0.00028386,0.00005250,0.00030435,0.00043661,0.00005999,0.
 00006885,0.00003071,-0.00083979,0.00273018,-0.00575216,0.00201904,-0.0
 0050266,-0.00039537,-0.00021827,0.00000691,0.00006348,0.03505357,-0.00
 670649,-0.01306644,0.03392314,-0.01149534,-0.05393725,-0.04877571,0.01
 237705,0.06626836,-0.00005276,0.00002318,0.00002336,0.00002392,-0.0000
 0497,-0.00001591,0.00001316,0.00001290,0.00000272,-0.00010476,0.000192
 19,-0.00014956,0.00022752,-0.00002947,-0.00002954,-0.00011310,0.000002
 54,0.00004225,0.00035448,-0.00168483,0.00043748,0.00007699,0.00013905,
 -0.00011663,-0.00043658,0.00012873,0.00076137,-0.00191122,-0.01049085,
 0.00142649,-0.05497865,0.03015541,0.00006695,0.00192062,0.02853024,-0.
 00093583,0.05104850,0.00002609,-0.00006994,0.00003674,0.00007482,0.000
 09677,-0.00002267,-0.00001628,0.00000598,0.00001797,-0.00019685,-0.000
 08737,-0.00018314,0.00013037,-0.00005338,0.00014008,-0.00016559,0.0000
 3713,0.00008970,0.00105367,-0.00062470,-0.00096634,-0.00004987,0.00054
 643,-0.00005393,-0.00039042,0.00111600,0.00008796,0.00273634,-0.013508
 82,0.00049038,0.02613290,-0.30977139,0.00393745,-0.00079261,-0.0055067
 3,-0.00064894,-0.02978181,0.33780404,-0.00005262,0.00006382,-0.0000475
 6,-0.00003798,-0.00002484,-0.00002025,0.00000584,-0.00002220,0.0000151
 2,0.00003811,-0.00023515,-0.00017469,0.00008725,0.00004012,0.00002608,
 -0.00000409,0.00003687,0.00010804,-0.00129407,0.00128241,0.00063981,-0
 .00021018,-0.00013249,0.00013054,0.00072977,-0.00030836,-0.00033704,-0
 .00348954,0.03398607,-0.00561401,0.00114815,-0.00543335,-0.05241244,-0
 .00111357,-0.00508788,-0.00003698,-0.00252484,-0.00690580,0.05800707,-
 0.00012700,-0.00001238,0.00010312,0.00004969,0.00003085,-0.00000765,0.
 00001673,-0.00001446,-0.00000767,-0.00165349,-0.00052413,0.00145701,-0
 .00331847,-0.00120912,0.00154595,0.00009326,0.00000145,-0.00019530,0.0
 0018655,0.00063832,-0.00022455,0.00007845,-0.00007702,-0.00018168,-0.0
 0003470,0.00007820,-0.00003447,0.00601301,0.00393928,0.00847184,-0.149
 91609,-0.07314300,-0.11670137,-0.01566190,-0.01424641,-0.02075218,0.00
 287634,0.00281371,0.00443545,0.16041669,-0.00001691,0.00029960,0.00023
 868,-0.00002984,-0.00006040,0.00003614,-0.00006061,-0.00011315,0.00006
 284,-0.00055833,-0.00047600,0.00038462,-0.00138888,0.00048050,0.000773
 72,0.00013448,-0.00004027,-0.00018473,-0.00013178,-0.00008860,-0.00091
 167,0.00007927,-0.00007786,0.00004930,-0.00013453,-0.00011149,-0.00001
 600,0.00895156,0.00363900,0.00966313,-0.07436349,-0.10317074,-0.085331
 83,0.00556075,0.00417615,0.00700992,-0.01910247,-0.01110416,-0.0211620
 7,0.08123160,0.10570183,-0.00000418,0.00034152,0.00035456,-0.00000516,
 -0.00003695,-0.00002401,-0.00015576,-0.00018304,0.00011555,0.00021173,
 -0.00052841,-0.00026466,0.00128572,0.00079734,0.00065938,-0.00007338,0
 .00013236,0.00018177,-0.00196049,-0.00039524,0.00011118,-0.00001771,0.
 00000599,0.00011943,0.00018519,-0.00000788,-0.00009959,-0.01998668,-0.
 01223699,-0.02732006,-0.10739567,-0.07756209,-0.17381046,0.00328555,0.
 00280671,0.00543050,0.00151836,0.00059999,0.00251983,0.12011860,0.0855
 9540,0.19615091,-0.00021395,0.00047313,-0.00063878,-0.00005867,-0.0001
 2797,0.00007972,0.00000257,-0.00001804,0.00004954,-0.00345737,0.002644
 12,0.00203624,0.00028433,0.00005780,-0.00007382,-0.00099764,-0.0004581
 4,-0.00056534,-0.03792395,-0.01396011,-0.02288443,0.00021054,-0.000597
 34,-0.00213138,0.00062981,-0.00120660,-0.00058076,-0.12606830,-0.02300
 379,-0.04009796,0.00562813,0.00392129,-0.00104734,0.00049370,0.0001977
 2,0.00265073,-0.00018732,-0.00039905,0.00076511,-0.00053942,-0.0005226
 1,0.00323714,0.57454024,0.00006950,-0.00055211,0.00028138,0.00003231,0
 .00008894,-0.00011126,-0.00003506,0.00010582,-0.00000932,0.00196183,-0
 .00104943,-0.00056062,-0.00017869,-0.00029493,0.00003163,0.00063547,0.
 00023380,0.00020226,0.00171055,0.00641313,0.00490237,-0.00011663,0.000
 22396,-0.00003958,0.00189124,-0.00078684,0.00080361,-0.03052661,-0.097
 65046,-0.03055520,0.00814438,0.00480756,0.00738623,0.00015910,-0.00034
 993,-0.00034027,0.00089722,0.00049189,0.00273845,-0.00021944,-0.001036
 68,0.00344159,-0.04262226,0.58504411,-0.00011266,-0.00036121,0.0005535
 8,-0.00010161,0.00002485,0.00005140,0.00008764,-0.00005481,-0.00008831
 ,0.00241632,-0.00129848,-0.00088093,-0.00015165,0.00024501,-0.00012789
 ,0.00076749,0.00032192,0.00032828,-0.00204710,0.00435674,0.00513085,0.
 00328537,-0.00006537,0.00040225,0.00081396,-0.00038941,-0.00032762,-0.
 04262391,-0.02325226,-0.13279050,-0.02107590,-0.01394557,-0.03934605,-
 0.00143495,-0.00063500,0.00087327,-0.00049988,-0.00145391,0.00184467,0
 .00127817,0.00182295,-0.00458665,-0.06741197,-0.04482151,0.55900795,0.
 00002919,-0.00004354,0.00008856,0.00000300,-0.00001263,0.00000110,-0.0
 0000665,0.00000098,0.00000828,0.00013789,0.00017337,0.00001761,0.00008
 266,-0.00001707,0.00002907,0.00000324,-0.00001806,-0.00002253,0.000440
 37,-0.00166123,-0.00058696,-0.00007492,0.00002897,0.00021552,-0.001134
 82,-0.00009767,-0.00063841,-0.00016001,-0.02323553,-0.00124702,-0.0000
 3015,-0.00024188,0.00133437,-0.00007099,0.00022134,-0.00017882,0.00026
 115,0.00022402,0.00002468,-0.00012117,-0.00003640,0.00011288,-0.058809
 91,0.04154034,-0.00080422,0.05777270,0.00007559,-0.00011992,0.00014619
 ,0.00007248,0.00011058,-0.00005766,-0.00003847,0.00002862,0.00002659,-
 0.00031704,0.00053603,-0.00019507,0.00015082,0.00000061,0.00014098,-0.
 00011998,-0.00000160,-0.00000664,0.00185150,-0.00052626,0.00049884,-0.
 00006830,-0.00021536,0.00002828,-0.00046887,0.00120294,-0.00011975,0.0
 0345588,-0.01586218,-0.00036059,0.00022828,0.00035807,0.00164197,-0.00
 003010,-0.00016344,0.00001825,-0.00007555,0.00062089,-0.00071228,-0.00
 010926,0.00033817,-0.00008307,0.03355589,-0.30463473,0.00107166,-0.037
 29421,0.33434636,0.00003903,-0.00002948,0.00007696,0.00003340,0.000020
 66,-0.00003909,-0.00001878,0.00003139,-0.00000619,0.00015161,0.0000880
 1,-0.00021326,-0.00000018,-0.00009480,-0.00002010,-0.00000922,0.,0.000
 01064,0.00097241,-0.00057706,0.00011581,-0.00017385,0.00037580,-0.0000
 9883,-0.00047204,0.00011858,0.00030096,0.00295337,-0.02425632,-0.00346
 061,0.00018755,-0.00270026,0.00182737,0.00009884,-0.00001854,-0.000087
 76,-0.00029514,0.00059638,-0.00043877,0.00004358,0.00029117,0.00011807
 ,-0.00161277,0.00736769,-0.05256418,0.00539933,0.00153895,0.05319886,0
 .00001423,0.00017888,-0.00021380,-0.00004738,-0.00006301,0.00003812,0.
 00001529,-0.00001987,-0.00000825,-0.00056296,0.00091152,0.00064632,-0.
 00000275,-0.00001699,-0.00007076,-0.00030744,-0.00022775,-0.00020878,-
 0.00128290,-0.00296937,-0.00365435,0.00031807,-0.00006935,-0.00020204,
 0.00027685,0.00018526,0.00000878,-0.02580576,0.00407993,0.00345358,0.0
 0002594,0.00045117,0.00169018,0.00058325,-0.00001059,-0.00062461,-0.00
 005450,-0.00000313,-0.00013096,0.00048589,-0.00009284,0.00005205,-0.29
 286731,0.06280568,0.06549731,0.00112012,-0.00010392,0.00033528,0.32018
 125,0.00006328,0.00018836,0.00003590,0.00001064,-0.00006228,0.00002345
 ,0.00000524,-0.00002326,-0.00000445,-0.00080532,0.00091946,-0.00016983
 ,0.00003895,0.00010149,0.00005715,-0.00030234,-0.00013540,-0.00011837,
 0.00004578,-0.00218931,-0.00124653,0.00000523,-0.00015452,-0.00007486,
 -0.00026298,0.00026914,-0.00018497,-0.01598217,0.00155703,0.00250386,0
 .00016821,-0.00010755,0.00072121,0.00009023,0.00055286,0.00000717,0.00
 024696,-0.00018617,-0.00010241,-0.00016530,-0.00013133,0.00006737,0.07
 138221,-0.06393332,-0.01831829,0.02790305,-0.00461183,-0.00762882,-0.0
 6912430,0.06438148,-0.00007448,0.00013766,-0.00023236,0.00000488,-0.00
 004508,0.00000760,-0.00002031,-0.00000270,0.00002540,-0.00125141,0.000
 41592,0.00083545,0.00015054,0.00008716,0.00014721,-0.00029957,-0.00010
 594,-0.00007341,-0.00098110,-0.00222359,-0.00333933,-0.00024741,-0.000
 24089,0.00046554,0.00004692,-0.00004737,-0.00016256,-0.02704083,0.0035
 5875,0.00179942,-0.00230491,0.00030435,0.00123171,-0.00018623,-0.00028
 539,-0.00106359,0.00015586,0.00001796,-0.00008894,0.00015622,-0.000006
 56,0.00019755,0.07620014,-0.01790566,-0.06913246,-0.00194608,0.0012292
 9,0.00005005,-0.06919368,0.02153690,0.07491524,-0.00001738,-0.00006898
 ,-0.00002588,0.00000163,0.00000006,-0.00000718,-0.00002571,0.00000924,
 0.00003611,0.00002118,-0.00002067,0.00012086,0.00009449,0.00007432,0.0
 0000578,0.00003751,0.00000412,0.00001910,0.00114907,0.00049586,-0.0022
 2582,-0.00103769,-0.00020458,-0.00024751,-0.00012931,0.00006693,0.0000
 5104,0.00139893,0.00671071,-0.02309094,-0.00269641,-0.00161208,-0.0017
 8000,0.00033894,-0.00022140,-0.00021496,-0.00018539,-0.00002949,0.0000
 4446,0.00069237,0.00022000,-0.00119484,-0.06345721,-0.02608540,0.06097
 007,0.00069351,0.00244678,-0.00460188,-0.00406399,-0.01248623,0.026688
 55,0.06713071,-0.00002368,0.00009359,0.00003203,-0.00002650,-0.0000330
 3,0.00000184,0.00002712,-0.00001337,-0.00002312,0.00021425,-0.00008295
 ,-0.00022986,-0.00008756,0.00001882,-0.00009962,0.00001518,0.00000334,
 0.00001035,0.00052501,-0.00043628,0.00002555,0.00032304,0.00049057,-0.
 00005227,-0.00009039,0.00002205,0.00012299,0.00246775,0.00363994,-0.01
 590539,-0.00163477,-0.00152787,-0.00163116,-0.00011404,-0.00009434,0.0
 0008094,-0.00014742,0.00034348,-0.00025896,-0.00003241,0.00086219,-0.0
 0089869,-0.02459422,-0.09259408,0.10233539,-0.00725366,-0.00962446,0.0
 2791476,0.00173101,0.00317757,-0.00795314,0.02906858,0.09493888,-0.000
 08818,0.00003227,-0.00003272,-0.00000016,-0.00002043,-0.00001154,-0.00
 002906,-0.00001408,0.00003369,-0.00016112,-0.00028456,0.00032412,0.000
 15717,0.00008915,0.00012376,0.00003090,0.00000028,0.00004888,0.0023417
 5,0.00004812,-0.00010070,-0.00072070,0.00005660,0.00088515,-0.00006108
 ,-0.00007507,0.00007033,0.00389575,0.00719662,-0.02636775,-0.00402106,
 -0.00311819,-0.00177738,-0.00010070,0.00006014,0.00032913,0.00003027,0
 .00005616,0.00019522,0.00031215,0.00061790,-0.00134544,0.05202342,0.09
 359335,-0.26695592,-0.00002882,-0.00088031,0.00317899,0.00123009,0.003
 16586,-0.00511441,-0.05449973,-0.10211581,0.29455296,-0.00090605,-0.00
 157617,0.00019781,-0.00065838,0.00197313,-0.00027661,-0.00039393,0.000
 48800,0.00017985,0.00127450,-0.00042176,0.00030034,-0.00018481,-0.0001
 1601,0.00024777,0.00005974,0.00055050,0.00037839,-0.00559032,0.0285486
 7,0.00023397,0.00123843,-0.00005426,-0.00114016,-0.00559470,0.00418422
 ,0.00136181,-0.05495762,-0.02883010,-0.00338716,0.00272146,-0.00659104
 ,-0.00075619,0.00036893,-0.00068327,-0.00003495,-0.00034804,-0.0009168
 5,0.00112506,-0.00006246,0.00053106,0.00015670,0.00310696,-0.01880706,
 -0.00064997,-0.00110458,-0.00249204,-0.00200070,0.00131061,-0.00119327
 ,-0.00029128,-0.00010666,0.00011406,0.00014309,0.23375367,-0.00018435,
 0.00006162,0.00022935,-0.00012288,0.00004078,-0.00000636,-0.00008081,0
 .00002910,-0.00008629,-0.00179839,0.00004995,0.00010914,-0.00051700,0.
 00104160,0.00007358,-0.00056401,-0.00027073,-0.00039218,0.02338605,-0.
 02409869,-0.00359784,-0.00267067,0.00116992,0.00059939,0.00306676,0.00
 087476,-0.00092918,0.01352831,-0.09707509,-0.00186942,-0.00241151,-0.0
 2283596,0.01381639,0.00135256,0.00057231,-0.00246530,0.00123233,0.0004
 9148,-0.00030635,0.00055293,0.00126162,-0.00264169,-0.00715774,-0.0289
 5196,-0.01023672,0.00115552,-0.00089513,-0.00095853,0.00252001,0.00078
 583,0.00161028,0.00149492,0.00112528,0.00242465,0.09703869,0.30261591,
 0.00026768,0.00005291,-0.00016341,0.00005893,-0.00028870,0.00070463,0.
 00029891,-0.00026078,-0.00005591,0.00005914,0.00075497,0.00019125,-0.0
 0003572,0.00049394,-0.00013121,0.00009840,-0.00005031,-0.00013281,-0.0
 0032853,-0.00497745,0.00198807,-0.00030295,-0.00112754,0.00059080,0.00
 132692,-0.00104948,0.00044029,-0.00500111,0.00305527,-0.08472884,-0.00
 134965,0.03377731,-0.00598951,-0.00201918,0.00092545,0.00071203,-0.000
 35047,0.00399407,-0.00484849,0.00019092,0.00104577,0.00071571,-0.00034
 849,-0.02554162,-0.00183118,-0.00141716,-0.00436771,-0.00314377,0.0015
 3993,-0.00040314,-0.00049132,-0.00040305,-0.00156777,0.00096146,0.0433
 6319,0.00086955,0.51041684,-0.00025029,-0.00014285,-0.00026693,-0.0009
 8805,-0.00020094,-0.00020158,0.00012718,-0.00009366,-0.00000486,-0.000
 21243,0.00024555,-0.00023436,0.00004400,0.00002302,0.00006031,-0.00003
 323,0.00000521,0.00011493,0.00121198,-0.00084958,-0.00154203,0.0001749
 0,0.00003507,0.00002147,0.00058628,-0.00036959,-0.00004052,-0.00583922
 ,0.01203186,-0.00607801,-0.00054708,-0.00016466,-0.00010244,0.00078826
 ,0.00017452,-0.00046642,0.00145006,-0.00076691,0.00009072,-0.00011572,
 0.00022929,0.00012244,0.00005651,-0.00031542,0.00137062,-0.00002219,0.
 00045878,-0.00050303,-0.00016073,-0.00003195,0.00049541,0.00033970,-0.
 00075553,-0.00074916,-0.05055518,-0.04681761,0.10764895,0.05223857,-0.
 00011034,-0.00023979,0.00000179,0.00000721,0.00027426,0.00000610,0.000
 00869,0.00002651,0.00001832,0.00023558,-0.00021405,-0.00019910,-0.0000
 9123,-0.00007848,-0.00002921,0.00005169,0.00005380,0.00003476,-0.00180
 903,0.00178409,0.00173718,0.00039328,-0.00019281,-0.00048833,-0.000366
 40,0.00033439,-0.00017291,-0.01285900,-0.02237861,0.03459231,0.0011909
 3,-0.00671685,-0.00170089,-0.00014962,-0.00020780,-0.00019308,-0.00059
 254,-0.00086593,0.00239982,0.00030570,0.00000457,0.00005793,0.00065090
 ,0.00055662,0.00265418,0.00012231,0.00008531,-0.00036665,0.00004355,-0
 .00017535,-0.00019618,-0.00021213,-0.00027258,-0.00063319,-0.02271920,
 -0.06115671,0.04762416,0.03078263,0.08400063,-0.00014920,0.00116625,-0
 .00004661,0.00004221,-0.00070762,-0.00033828,-0.00010504,-0.00004891,0
 .00003461,-0.00001236,0.00014943,-0.00065101,0.00011901,-0.00000023,0.
 00030572,-0.00012071,-0.00010837,0.00020353,0.00051800,-0.00090153,-0.
 00021091,-0.00060873,0.00035789,0.00067298,-0.00011697,-0.00036925,0.0
 0060294,0.00279466,-0.00152331,-0.00419892,-0.00057958,0.00077770,0.00
 091737,-0.00032883,-0.00035228,0.00010686,0.00008089,0.00066178,0.0002
 9559,0.00033334,-0.00021081,0.00037333,-0.00038498,-0.00110143,0.00026
 459,-0.00014001,0.00048876,0.00036327,-0.00016012,-0.00011504,0.000056
 48,0.00038245,0.00005450,0.00044098,0.06896013,0.06898833,-0.24741645,
 -0.08173271,-0.07362947,0.26880220,-0.00082820,0.00031513,0.00024353,-
 0.00098494,-0.00010535,0.00023640,-0.00002843,0.00005181,0.00004677,-0
 .00146616,0.00090846,-0.00017268,-0.00047715,0.00051835,0.00006927,-0.
 00006055,0.00009504,0.00029351,0.00110451,-0.00059162,0.00054293,-0.00
 009563,-0.00002843,0.00011311,0.00034821,-0.00012896,-0.00035358,-0.00
 378626,0.01201287,0.00640988,0.00015347,-0.00006446,-0.00089307,-0.000
 47127,-0.00015244,-0.00031637,0.00006656,0.00038251,0.00039136,0.00059
 242,-0.00053806,0.00055219,-0.00032356,-0.00109360,0.00011627,0.000908
 66,-0.00115980,-0.00053350,0.00090255,0.00032414,-0.00004267,-0.000221
 66,0.00027003,0.00026848,-0.12186427,-0.08309212,-0.14352315,0.0015172
 1,0.00525697,0.01067631,0.12483270,-0.00009263,0.00010127,0.00043357,-
 0.00000384,0.00037516,-0.00011785,-0.00023585,0.00010162,0.00008742,0.
 00078269,-0.00030587,-0.00039130,0.00079028,-0.00051778,0.00045515,-0.
 00006525,0.00016007,0.00014879,-0.00242590,0.00127774,-0.00029685,0.00
 022971,-0.00010996,0.00006398,-0.00025498,0.00012080,0.00018507,-0.023
 26998,-0.02440808,-0.02604961,-0.00057252,0.00070966,-0.00279238,0.000
 13048,-0.00010644,0.00017052,0.00032599,0.00013860,0.00017989,0.000076
 79,-0.00029403,0.00076292,0.00219786,-0.00645128,0.00164481,-0.0015167
 0,-0.00111518,-0.00174738,-0.00001423,-0.00018314,0.00023966,0.0003017
 8,0.00001039,-0.00019489,-0.04953235,-0.07481738,-0.05295849,0.0064674
 6,0.00523423,0.00685879,0.06675563,0.09999517,0.00032827,-0.00023479,0
 .00011331,0.00055437,0.00055538,-0.00074243,-0.00035499,0.00030694,0.0
 0012432,-0.00056327,0.00054082,0.00029591,0.00019029,-0.00021402,0.000
 40638,-0.00014580,0.00040185,0.00029995,-0.00199412,0.00005531,-0.0007
 2994,0.00003493,0.00003765,0.00004462,-0.00001642,0.00015269,0.0001133
 7,0.00107720,-0.00029916,-0.00192471,0.00043955,0.00130156,0.00064341,
 0.00026805,0.00005839,0.00004479,0.00034370,-0.00046436,0.00021032,-0.
 00031213,0.00025791,0.00041568,0.00062052,0.00021870,0.00021752,-0.000
 23949,-0.00001008,0.00083830,-0.00004768,0.00024346,-0.00007354,-0.000
 06159,0.00016372,0.00052776,-0.10746029,-0.06520712,-0.16770399,-0.018
 09089,-0.01141679,-0.02099508,0.12579536,0.07335714,0.18795963,-0.1573
 5589,-0.03942243,-0.09393004,-0.02129301,-0.01319287,-0.01682232,0.003
 72759,-0.00299868,-0.00640909,-0.01785178,-0.01078286,-0.01208014,0.00
 067044,0.00150461,-0.00085784,0.00218913,0.00052975,-0.00009610,0.0006
 6550,-0.00237953,0.00157117,0.00026893,0.00021151,0.00009812,-0.000847
 79,-0.00028100,-0.00047915,-0.00007759,-0.00018960,-0.00008274,0.00000
 113,0.00008235,-0.00027947,-0.00003212,0.00003064,0.00000631,0.0000434
 1,-0.00006741,-0.00001892,0.00004371,0.00003601,-0.00003778,-0.0000222
 0,0.00013771,0.00028266,0.00006400,-0.00004205,-0.00000051,-0.00005806
 ,0.00004393,-0.00001668,0.00003589,0.00000863,0.00002210,-0.00120771,0
 .00004542,0.00018753,0.00015949,-0.00010628,0.00043502,0.00010944,-0.0
 0005524,-0.00033863,0.57385493,-0.02736506,-0.11972449,-0.03019690,0.0
 1669139,0.01243453,0.01533198,-0.01344743,-0.00387300,-0.01048858,-0.0
 2980521,-0.01545932,-0.02026361,0.00098226,0.00126925,-0.00082324,0.00
 035953,0.00203465,-0.00164904,-0.00228291,-0.00426856,0.00343988,0.000
 06095,0.00007156,0.00032767,-0.00131596,-0.00076842,-0.00069152,-0.000
 35533,-0.00146626,-0.00055064,-0.00013340,0.00020824,-0.00021084,-0.00
 011123,-0.00006401,0.00008073,0.00003013,0.00010296,-0.00003775,0.0001
 0381,-0.00007764,-0.00005971,-0.00041630,0.00032571,0.00036433,0.00005
 905,0.00015736,0.00003396,-0.00020774,-0.00004231,-0.00012147,0.000055
 17,-0.00005520,-0.00000309,0.00060232,0.00006599,-0.00001995,0.0000561
 1,0.00014760,-0.00048156,0.00009645,0.00007857,0.00023102,-0.00593206,
 0.68011485,-0.05134132,-0.01919850,-0.12209469,-0.00761278,-0.00403178
 ,-0.00483924,-0.03154975,-0.01555785,-0.01985397,0.00679307,0.00289077
 ,0.01010221,-0.00056316,-0.00037559,0.00201105,0.00049108,-0.00048175,
 0.00012283,0.00129871,0.00241017,-0.00097823,0.00101683,0.00054570,0.0
 0043552,0.00030137,0.00035665,0.00031409,0.00013897,0.00004814,0.00080
 313,-0.00026754,0.00004962,-0.00019743,-0.00004393,-0.00000789,0.00003
 278,0.00002528,-0.00003348,0.00002080,-0.00001490,-0.00001865,-0.00003
 608,0.00012230,0.00003063,-0.00005558,0.00002639,-0.00002542,-0.000010
 50,0.00001363,0.00000456,0.00005019,0.00004910,-0.00001922,0.00004481,
 -0.00058190,0.00002328,-0.00010753,0.00006872,-0.00009050,0.00041216,0
 .00013647,-0.00003549,-0.00004189,0.07906770,-0.11013840,0.23004614,-0
 .02215987,0.02098039,0.00293206,-0.00272648,-0.00354982,-0.00338374,0.
 00219765,-0.00035455,-0.00036373,-0.00018088,0.00095131,-0.00005014,-0
 .00004375,0.00008913,-0.00007635,-0.00030755,-0.00125991,0.00040608,0.
 00025326,-0.00057569,-0.00030796,0.00008618,0.00006259,0.00008997,-0.0
 0003913,-0.00004646,-0.00002762,0.00017424,0.00022298,0.00019064,0.000
 00392,-0.00003630,-0.00003010,0.00002239,0.00001502,-0.00000537,0.0000
 0037,-0.00002878,0.00000570,-0.00001869,0.00002843,0.00001752,0.000082
 91,-0.00005768,-0.00005326,0.00000115,-0.00002726,-0.00000522,0.000031
 08,0.00003054,0.00002539,-0.00000365,0.00001086,0.00000789,-0.00032965
 ,0.00000032,0.00004364,0.00001281,-0.00005640,0.00018960,0.00001847,-0
 .00002761,-0.00009284,-0.28177327,0.18816523,-0.03157055,0.29440240,-0
 .01350845,0.01057691,-0.00278430,-0.00278382,0.00010017,-0.00138175,-0
 .00056638,0.00047916,-0.00009069,-0.00063929,0.00236562,-0.00056758,0.
 00007620,-0.00012061,0.00002268,0.00070219,-0.00076331,0.00010160,0.00
 024532,-0.00037024,-0.00012269,0.00010862,0.00003966,0.00006559,-0.000
 04871,-0.00004008,-0.00001382,0.00007394,0.00021670,0.00017313,-0.0000
 0282,-0.00001398,-0.00000203,0.00001340,0.00000223,0.00000131,-0.00000
 390,-0.00001559,0.00000163,-0.00001388,0.00001107,0.00001375,0.0000387
 1,-0.00002156,-0.00004962,0.00000009,-0.00001173,-0.00000046,0.0000244
 6,0.00000450,0.00001183,-0.00000216,0.00000325,0.00000215,-0.00018680,
 -0.00005144,0.00000671,0.00001008,-0.00002112,0.00009006,-0.00000773,-
 0.00001853,-0.00004150,0.17900051,-0.21758832,0.01986519,-0.19329679,0
 .22740666,-0.02253578,0.01491104,-0.00642981,-0.00278741,-0.00218893,-
 0.00184526,0.00030508,0.00175259,0.00079664,0.00087271,-0.00058047,0.0
 0057409,0.00037033,-0.00015324,-0.00014017,-0.00003032,0.00014551,0.00
 053723,0.00003073,0.00013959,-0.00002433,-0.00013486,-0.00001829,-0.00
 013668,0.00002792,0.00002991,0.00003248,-0.00000221,0.00006299,-0.0001
 3627,0.00004061,-0.00002196,0.00004895,0.00000253,0.00000771,-0.000019
 64,0.00001031,0.00001018,0.00000688,0.00000615,-0.00002643,0.00000295,
 -0.00001649,0.00000884,0.00001317,-0.00000160,-0.00000096,0.00000584,0
 .00000108,-0.00000470,-0.00000391,-0.00000626,0.00000703,-0.00000655,-
 0.00015350,-0.00000739,-0.00002171,0.00001924,-0.00001583,0.00005567,-
 0.00001393,-0.00002515,-0.00002389,0.00714799,-0.01240853,-0.01436608,
 0.02827975,-0.01321924,0.02485223,-0.00921325,-0.02423583,0.01619401,-
 0.00011721,0.00049070,0.00044486,0.00072530,0.00016575,-0.00047175,-0.
 00493713,-0.00139783,-0.00490271,0.00026265,0.00034104,-0.00027516,0.0
 0029172,-0.00000119,-0.00010441,-0.00019750,-0.00159605,0.00108773,0.0
 0005131,0.00005371,-0.00003774,-0.00048282,-0.00025321,-0.00028642,0.0
 0004851,-0.00027447,-0.00013848,-0.00003111,0.00004984,-0.00002768,-0.
 00003101,-0.00001822,0.00001096,0.00000924,0.00003060,-0.00001487,0.00
 002400,-0.00002569,-0.00002442,-0.00010888,0.00007255,0.00008119,0.000
 01774,0.00005085,0.00001243,-0.00005137,-0.00000451,-0.00002730,0.0000
 1112,-0.00001533,-0.00000327,0.00003007,0.00004328,-0.00000466,0.00001
 717,0.00002272,-0.00009239,0.00005387,0.00000841,0.00006589,-0.1013141
 6,-0.12588978,0.03399619,0.01029610,0.03076722,-0.01143208,0.10464564,
 -0.00381942,-0.00982155,0.00678867,0.00027540,0.00117804,0.00022788,0.
 00088184,-0.00025565,0.00015152,-0.00131209,0.00050994,-0.00254401,0.0
 0005152,0.00008438,0.00002473,0.00008058,0.00042783,-0.00018325,-0.000
 16309,-0.00004314,0.00063068,-0.00004977,-0.00001878,0.00001658,-0.000
 05672,-0.00005194,-0.00001729,-0.00010298,-0.00012729,-0.00015054,0.00
 001858,-0.00000291,-0.00002068,0.00000601,0.00000485,0.00000614,-0.000
 00304,-0.00000149,0.00000081,-0.00000583,0.00000766,0.00001091,-0.0000
 3546,0.00001577,0.00004032,-0.00000044,-0.00000311,0.00000093,-0.00000
 840,-0.00000195,-0.00001577,-0.00000535,0.00000481,-0.00000364,0.00008
 955,-0.00003305,0.00001282,-0.00001089,0.00001807,-0.00004368,-0.00002
 483,0.00002440,0.00000529,-0.10618108,-0.33362371,0.12378980,-0.011239
 54,-0.02216944,0.01159572,0.12161544,0.36387826,-0.01086600,-0.0250432
 6,0.00302067,0.00042463,0.00051499,0.00104109,-0.00015707,-0.00089103,
 0.00006293,-0.00093447,0.00013518,-0.00193656,-0.00031531,0.00004837,0
 .00023730,0.00010137,-0.00024275,-0.00015372,-0.00052804,-0.00031615,0
 .00049024,-0.00001502,0.00003039,0.00013078,-0.00002600,-0.00007479,-0
 .00000420,-0.00008895,-0.00006789,-0.00005052,0.00001131,-0.00001223,-
 0.00000713,0.00001641,0.00000709,0.00001250,-0.00000749,-0.00000423,-0
 .00000079,-0.00002059,0.00001930,0.00002056,0.00000966,-0.00002027,-0.
 00000025,-0.00000665,-0.00001022,-0.00000204,0.00000867,0.00000452,-0.
 00000602,-0.00000787,0.00000593,-0.00000483,0.00008462,-0.00003956,0.0
 0004506,0.00000014,0.00000556,-0.00005101,-0.00004290,0.00002170,-0.00
 001979,0.04263080,0.16833528,-0.08181450,0.00377866,-0.00208194,-0.003
 77184,-0.03404992,-0.14032396,0.08276208\\-0.00002868,-0.00001324,-0.0
 0000899,0.00000300,0.00000160,0.00000569,0.00000133,0.00000062,-0.0000
 0208,0.00002318,0.00002661,0.00000135,0.00000016,-0.00000266,0.0000000
 3,-0.00000241,-0.00000831,-0.00000236,-0.00005958,0.00001083,0.0000074
 6,0.00000572,-0.00000234,-0.00000230,0.00000405,-0.00000770,-0.0000016
 2,0.00004618,-0.00005449,-0.00000943,-0.00000153,0.00000487,-0.0000055
 8,0.00000359,-0.00000043,0.00000085,0.00000194,-0.00000556,0.00000414,
 0.00000278,-0.00000578,0.00000270,0.00000388,0.00001009,0.00000316,-0.
 00000035,-0.00000367,-0.00000283,0.00000056,-0.00000273,-0.00000236,-0
 .00000182,-0.00000029,-0.00000069,-0.00000050,0.00004662,-0.00000573,-
 0.00000530,0.00000019,0.00000196,-0.00000429,-0.00000365,0.00000192,0.
 00000731,0.00000943,0.00001729,0.00000106,-0.00000233,0.00000051,-0.00
 000028,0.00000232,-0.00000307\\\@


 ...THE PHYSICISTS HAVE MADE THEIR UNIVERSE, AND IF YOU DO NOT LIKE
 IT, YOU MUST MAKE YOUR OWN.
                               -- E. R. HARRISON IN "COSMOLOGY" (1980)
 Job cpu time:       0 days  5 hours 36 minutes 16.2 seconds.
 Elapsed time:       0 days  0 hours 15 minutes 26.8 seconds.
 File lengths (MBytes):  RWF=    234 Int=      0 D2E=      0 Chk=     12 Scr=      1
 Normal termination of Gaussian 16 at Thu Oct  1 09:11:42 2026.
