 Entering Gaussian System, Link 0=/applications/g16/g16/g16
 Initial command:
 /applications/g16/g16/l1.exe "/scratch/g98/Gau-49854.inp" -scrdir="/scratch/g98/"
 Entering Link 1 = /applications/g16/g16/l1.exe PID=     49855.
  
 Copyright (c) 1988,1990,1992,1993,1995,1998,2003,2009,2016,
            Gaussian, Inc.  All Rights Reserved.
  
 This is part of the Gaussian(R) 16 program.  It is based on
 the Gaussian(R) 09 system (copyright 2009, Gaussian, Inc.),
 the Gaussian(R) 03 system (copyright 2003, Gaussian, Inc.),
 the Gaussian(R) 98 system (copyright 1998, Gaussian, Inc.),
 the Gaussian(R) 94 system (copyright 1995, Gaussian, Inc.),
 the Gaussian 92(TM) system (copyright 1992, Gaussian, Inc.),
 the Gaussian 90(TM) system (copyright 1990, Gaussian, Inc.),
 the Gaussian 88(TM) system (copyright 1988, Gaussian, Inc.),
 the Gaussian 86(TM) system (copyright 1986, Carnegie Mellon
 University), and the Gaussian 82(TM) system (copyright 1983,
 Carnegie Mellon University). Gaussian is a federally registered
 trademark of Gaussian, Inc.
  
 This software contains proprietary and confidential information,
 including trade secrets, belonging to Gaussian, Inc.
  
 This software is provided under written license and may be
 used, copied, transmitted, or stored only in accord with that
 written license.
  
 The following legend is applicable only to US Government
 contracts under FAR:
  
                    RESTRICTED RIGHTS LEGEND
  
 Use, reproduction and disclosure by the US Government is
 subject to restrictions as set forth in subparagraphs (a)
 and (c) of the Commercial Computer Software - Restricted
 Rights clause in FAR 52.227-19.
  
 Gaussian, Inc.
 340 Quinnipiac St., Bldg. 40, Wallingford CT 06492
  
  
 ---------------------------------------------------------------
 Warning -- This program may not be used in any manner that
 competes with the business of Gaussian, Inc. or will provide
 assistance to any competitor of Gaussian, Inc.  The licensee
 of this program is prohibited from giving any competitor of
 Gaussian, Inc. access to this program.  By using this program,
 the user acknowledges that Gaussian, Inc. is engaged in the
 business of creating and licensing software in the field of
 computational chemistry and represents and warrants to the
 licensee that it is not a competitor of Gaussian, Inc. and that
 it will not use this program in any manner prohibited above.
 ---------------------------------------------------------------
  

 Cite this work as:
 Gaussian 16, Revision A.03,
 M. J. Frisch, G. W. Trucks, H. B. Schlegel, G. E. Scuseria, 
 M. A. Robb, J. R. Cheeseman, G. Scalmani, V. Barone, 
 G. A. Petersson, H. Nakatsuji, X. Li, M. Caricato, A. V. Marenich, 
 J. Bloino, B. G. Janesko, R. Gomperts, B. Mennucci, H. P. Hratchian, 
 J. V. Ortiz, A. F. Izmaylov, J. L. Sonnenberg, D. Williams-Young, 
 F. Ding, F. Lipparini, F. Egidi, J. Goings, B. Peng, A. Petrone, 
 T. Henderson, D. Ranasinghe, V. G. Zakrzewski, J. Gao, N. Rega, 
 G. Zheng, W. Liang, M. Hada, M. Ehara, K. Toyota, R. Fukuda, 
 J. Hasegawa, M. Ishida, T. Nakajima, Y. Honda, O. Kitao, H. Nakai, 
 T. Vreven, K. Throssell, J. A. Montgomery, Jr., J. E. Peralta, 
 F. Ogliaro, M. J. Bearpark, J. J. Heyd, E. N. Brothers, K. N. Kudin, 
 V. N. Staroverov, T. A. Keith, R. Kobayashi, J. Normand, 
 K. Raghavachari, A. P. Rendell, J. C. Burant, S. S. Iyengar, 
 J. Tomasi, M. Cossi, J. M. Millam, M. Klene, C. Adamo, R. Cammi, 
 J. W. Ochterski, R. L. Martin, K. Morokuma, O. Farkas, 
 J. B. Foresman, and D. J. Fox, Gaussian, Inc., Wallingford CT, 2016.
 
 ******************************************
 Gaussian 16:  EM64M-G16RevA.03 25-Dec-2016
                 3-Oct-2026 
 ******************************************
 %nprocshared=22
 Will use up to   22 processors via shared memory.
 %mem=48GB
 %chk=dimethyl_aminopropyl.chk
 ----------------------------------------
 # opt freq wb97xd/6-311+g(2d,2p) scf=xqc
 ----------------------------------------
 1/18=20,19=15,26=3,38=1/1,3;
 2/9=110,12=2,17=6,18=5,40=1/2;
 3/5=4,6=6,7=212,11=2,25=1,30=1,71=1,74=-58/1,2,3;
 4//1;
 5/5=2,8=3,13=1,38=5/2,8;
 6/7=2,8=2,9=2,10=2,28=1/1;
 7//1,2,3,16;
 1/18=20,19=15,26=3/3(2);
 2/9=110/2;
 99//99;
 2/9=110/2;
 3/5=4,6=6,7=212,11=2,25=1,30=1,71=1,74=-58/1,2,3;
 4/5=5,16=3,69=1/1;
 5/5=2,8=3,13=1,38=5/2,8;
 7//1,2,3,16;
 1/18=20,19=15,26=3/3(-5);
 2/9=110/2;
 6/7=2,8=2,9=2,10=2,19=2,28=1/1;
 99/9=1/99;
 --------
 opt freq
 --------
 Symbolic Z-matrix:
 Charge =  0 Multiplicity = 1
 C                     0.58963  -0.69584   0.35645 
 H                     0.22473  -0.37452   1.33274 
 H                     1.3349   -1.46503   0.54978 
 C                    -0.53132  -1.31587  -0.47757 
 H                    -0.39052  -1.07919  -1.53227 
 H                    -0.52126  -2.40054  -0.3831 
 N                    -1.93811  -0.89586  -0.14301 
 C                    -2.32848  -1.40536   1.20551 
 H                    -3.35473  -1.09025   1.37573 
 H                    -2.22919  -2.48856   1.20857 
 H                    -1.67494  -0.96965   1.95473 
 C                    -2.8483   -1.50386  -1.16155 
 H                    -2.72084  -2.58394  -1.14089 
 H                    -3.86177  -1.20794  -0.90486 
 H                    -2.5764   -1.11417  -2.13943 
 C                     1.29444   0.47875  -0.34724 
 H                     0.90826   1.4032    0.02849 
 H                     2.34639   0.42848  -0.15807 
 H                     1.11838   0.42068  -1.40106 
 

 GradGradGradGradGradGradGradGradGradGradGradGradGradGradGradGradGradGrad
 Berny optimization.
 Initialization pass.
                           ----------------------------
                           !    Initial Parameters    !
                           ! (Angstroms and Degrees)  !
 --------------------------                            --------------------------
 ! Name  Definition              Value          Derivative Info.                !
 --------------------------------------------------------------------------------
 ! R1    R(1,2)                  1.0907         estimate D2E/DX2                !
 ! R2    R(1,3)                  1.0883         estimate D2E/DX2                !
 ! R3    R(1,4)                  1.5286         estimate D2E/DX2                !
 ! R4    R(1,16)                 1.54           estimate D2E/DX2                !
 ! R5    R(4,5)                  1.0901         estimate D2E/DX2                !
 ! R6    R(4,6)                  1.0888         estimate D2E/DX2                !
 ! R7    R(4,7)                  1.5058         estimate D2E/DX2                !
 ! R8    R(7,8)                  1.4935         estimate D2E/DX2                !
 ! R9    R(7,12)                 1.4952         estimate D2E/DX2                !
 ! R10   R(8,9)                  1.0869         estimate D2E/DX2                !
 ! R11   R(8,10)                 1.0877         estimate D2E/DX2                !
 ! R12   R(8,11)                 1.0855         estimate D2E/DX2                !
 ! R13   R(12,13)                1.0878         estimate D2E/DX2                !
 ! R14   R(12,14)                1.0865         estimate D2E/DX2                !
 ! R15   R(12,15)                1.0872         estimate D2E/DX2                !
 ! R16   R(16,17)                1.07           estimate D2E/DX2                !
 ! R17   R(16,18)                1.07           estimate D2E/DX2                !
 ! R18   R(16,19)                1.07           estimate D2E/DX2                !
 ! A1    A(2,1,3)              106.1595         estimate D2E/DX2                !
 ! A2    A(2,1,4)              111.2575         estimate D2E/DX2                !
 ! A3    A(2,1,16)             109.7212         estimate D2E/DX2                !
 ! A4    A(3,1,4)              108.2048         estimate D2E/DX2                !
 ! A5    A(3,1,16)             107.8677         estimate D2E/DX2                !
 ! A6    A(4,1,16)             113.3089         estimate D2E/DX2                !
 ! A7    A(1,4,5)              110.1894         estimate D2E/DX2                !
 ! A8    A(1,4,6)              110.4856         estimate D2E/DX2                !
 ! A9    A(1,4,7)              116.7919         estimate D2E/DX2                !
 ! A10   A(5,4,6)              107.4003         estimate D2E/DX2                !
 ! A11   A(5,4,7)              105.9669         estimate D2E/DX2                !
 ! A12   A(6,4,7)              105.4988         estimate D2E/DX2                !
 ! A13   A(4,7,8)              110.4663         estimate D2E/DX2                !
 ! A14   A(4,7,12)             107.6953         estimate D2E/DX2                !
 ! A15   A(8,7,12)             108.4969         estimate D2E/DX2                !
 ! A16   A(7,8,9)              106.8154         estimate D2E/DX2                !
 ! A17   A(7,8,10)             108.5667         estimate D2E/DX2                !
 ! A18   A(7,8,11)             109.2028         estimate D2E/DX2                !
 ! A19   A(9,8,10)             111.9899         estimate D2E/DX2                !
 ! A20   A(9,8,11)             110.1197         estimate D2E/DX2                !
 ! A21   A(10,8,11)            110.0486         estimate D2E/DX2                !
 ! A22   A(7,12,13)            108.6327         estimate D2E/DX2                !
 ! A23   A(7,12,14)            107.225          estimate D2E/DX2                !
 ! A24   A(7,12,15)            108.3436         estimate D2E/DX2                !
 ! A25   A(13,12,14)           112.0393         estimate D2E/DX2                !
 ! A26   A(13,12,15)           110.1006         estimate D2E/DX2                !
 ! A27   A(14,12,15)           110.3733         estimate D2E/DX2                !
 ! A28   A(1,16,17)            109.4712         estimate D2E/DX2                !
 ! A29   A(1,16,18)            109.4712         estimate D2E/DX2                !
 ! A30   A(1,16,19)            109.4712         estimate D2E/DX2                !
 ! A31   A(17,16,18)           109.4713         estimate D2E/DX2                !
 ! A32   A(17,16,19)           109.4712         estimate D2E/DX2                !
 ! A33   A(18,16,19)           109.4712         estimate D2E/DX2                !
 ! D1    D(2,1,4,5)            145.4259         estimate D2E/DX2                !
 ! D2    D(2,1,4,6)            -96.051          estimate D2E/DX2                !
 ! D3    D(2,1,4,7)             24.4939         estimate D2E/DX2                !
 ! D4    D(3,1,4,5)            -98.3228         estimate D2E/DX2                !
 ! D5    D(3,1,4,6)             20.2003         estimate D2E/DX2                !
 ! D6    D(3,1,4,7)            140.7452         estimate D2E/DX2                !
 ! D7    D(16,1,4,5)            21.2406         estimate D2E/DX2                !
 ! D8    D(16,1,4,6)           139.7637         estimate D2E/DX2                !
 ! D9    D(16,1,4,7)           -99.6914         estimate D2E/DX2                !
 ! D10   D(2,1,16,17)          -25.3454         estimate D2E/DX2                !
 ! D11   D(2,1,16,18)           94.6547         estimate D2E/DX2                !
 ! D12   D(2,1,16,19)         -145.3453         estimate D2E/DX2                !
 ! D13   D(3,1,16,17)         -140.5717         estimate D2E/DX2                !
 ! D14   D(3,1,16,18)          -20.5717         estimate D2E/DX2                !
 ! D15   D(3,1,16,19)           99.4283         estimate D2E/DX2                !
 ! D16   D(4,1,16,17)           99.6721         estimate D2E/DX2                !
 ! D17   D(4,1,16,18)         -140.3278         estimate D2E/DX2                !
 ! D18   D(4,1,16,19)          -20.3278         estimate D2E/DX2                !
 ! D19   D(1,4,7,8)            -67.4876         estimate D2E/DX2                !
 ! D20   D(1,4,7,12)           174.1843         estimate D2E/DX2                !
 ! D21   D(5,4,7,8)            169.3767         estimate D2E/DX2                !
 ! D22   D(5,4,7,12)            51.0487         estimate D2E/DX2                !
 ! D23   D(6,4,7,8)             55.6656         estimate D2E/DX2                !
 ! D24   D(6,4,7,12)           -62.6624         estimate D2E/DX2                !
 ! D25   D(4,7,8,9)           -178.7032         estimate D2E/DX2                !
 ! D26   D(4,7,8,10)           -57.7622         estimate D2E/DX2                !
 ! D27   D(4,7,8,11)            62.2334         estimate D2E/DX2                !
 ! D28   D(12,7,8,9)           -60.866          estimate D2E/DX2                !
 ! D29   D(12,7,8,10)           60.075          estimate D2E/DX2                !
 ! D30   D(12,7,8,11)         -179.9295         estimate D2E/DX2                !
 ! D31   D(4,7,12,13)           57.9295         estimate D2E/DX2                !
 ! D32   D(4,7,12,14)          179.2032         estimate D2E/DX2                !
 ! D33   D(4,7,12,15)          -61.6669         estimate D2E/DX2                !
 ! D34   D(8,7,12,13)          -61.6577         estimate D2E/DX2                !
 ! D35   D(8,7,12,14)           59.616          estimate D2E/DX2                !
 ! D36   D(8,7,12,15)          178.7458         estimate D2E/DX2                !
 --------------------------------------------------------------------------------
 Trust Radius=3.00D-01 FncErr=1.00D-07 GrdErr=1.00D-06 EigMax=2.50D+02 EigMin=1.00D-04
 Number of steps in this run=     97 maximum allowed number of steps=    114.
 GradGradGradGradGradGradGradGradGradGradGradGradGradGradGradGradGradGrad

                          Input orientation:                          
 ---------------------------------------------------------------------
 Center     Atomic      Atomic             Coordinates (Angstroms)
 Number     Number       Type             X           Y           Z
 ---------------------------------------------------------------------
      1          6           0        0.589625   -0.695836    0.356452
      2          1           0        0.224734   -0.374523    1.332741
      3          1           0        1.334903   -1.465026    0.549777
      4          6           0       -0.531321   -1.315867   -0.477565
      5          1           0       -0.390523   -1.079186   -1.532267
      6          1           0       -0.521264   -2.400543   -0.383104
      7          7           0       -1.938114   -0.895862   -0.143011
      8          6           0       -2.328485   -1.405363    1.205507
      9          1           0       -3.354727   -1.090248    1.375729
     10          1           0       -2.229190   -2.488564    1.208571
     11          1           0       -1.674942   -0.969645    1.954734
     12          6           0       -2.848301   -1.503863   -1.161546
     13          1           0       -2.720835   -2.583940   -1.140892
     14          1           0       -3.861773   -1.207938   -0.904855
     15          1           0       -2.576401   -1.114172   -2.139427
     16          6           0        1.294440    0.478752   -0.347238
     17          1           0        0.908262    1.403197    0.028485
     18          1           0        2.346385    0.428483   -0.158069
     19          1           0        1.118382    0.420685   -1.401055
 ---------------------------------------------------------------------
                    Distance matrix (angstroms):
                    1          2          3          4          5
     1  C    0.000000
     2  H    1.090655   0.000000
     3  H    1.088332   1.742041   0.000000
     4  C    1.528575   2.175995   2.135526   0.000000
     5  H    2.162153   3.013862   2.731460   1.090064   0.000000
     6  H    2.164957   2.757788   2.278336   1.088827   1.756033
     7  N    2.584364   2.669747   3.393603   1.505789   2.087745
     8  C    3.120847   2.756401   3.722090   2.463847   3.370088
     9  H    4.092970   3.650569   4.776535   3.384853   4.152478
    10  H    3.447564   3.241347   3.766218   2.664777   3.588766
    11  H    2.785272   2.085620   3.358343   2.709948   3.717648
    12  C    3.844030   4.115874   4.519882   2.423133   2.521599
    13  H    4.094645   4.435849   4.534241   2.615719   2.801395
    14  H    4.654899   4.732964   5.402544   3.359484   3.529844
    15  H    4.053163   4.522099   4.759539   2.642880   2.268905
    16  C    1.540000   2.166720   2.141155   2.563405   2.582744
    17  H    2.148263   2.308372   2.946264   3.117979   3.207026
    18  H    2.148263   2.714542   2.260425   3.380241   3.413525
    19  H    2.148263   2.984058   2.721862   2.567093   2.131578
                    6          7          8          9         10
     6  H    0.000000
     7  N    2.080666   0.000000
     8  C    2.603865   1.493480   0.000000
     9  H    3.583138   2.085941   1.086944   0.000000
    10  H    2.336277   2.109076   1.087747   1.802793   0.000000
    11  H    2.973874   2.115475   1.085499   1.780863   1.780748
    12  C    2.612491   1.495166   2.425459   2.620174   2.640150
    13  H    2.333664   2.111404   2.654914   2.994380   2.402246
    14  H    3.585181   2.092429   2.616023   2.339233   2.961739
    15  H    2.993827   2.107307   3.366724   3.600373   3.635739
    16  C    3.404175   3.518619   4.368808   5.200493   4.862250
    17  H    4.084285   3.662914   4.444088   5.119122   5.136342
    18  H    4.034531   4.484534   5.203532   6.096045   5.595781
    19  H    3.418185   3.557828   4.691429   5.477423   5.145884
                   11         12         13         14         15
    11  H    0.000000
    12  C    3.372442   0.000000
    13  H    3.644549   1.087768   0.000000
    14  H    3.607806   1.086548   1.803006   0.000000
    15  H    4.194719   1.087216   1.782737   1.784696   0.000000
    16  C    4.026680   4.664351   5.111986   5.453658   4.553324
    17  H    4.001719   4.896830   5.516797   5.517461   4.814547
    18  H    4.752869   5.632557   5.976400   6.463496   5.526245
    19  H    4.582248   4.415408   4.882115   5.263133   4.068464
                   16         17         18         19
    16  C    0.000000
    17  H    1.070000   0.000000
    18  H    1.070000   1.747303   0.000000
    19  H    1.070000   1.747303   1.747303   0.000000
 Stoichiometry    C5H13N
 Framework group  C1[X(C5H13N)]
 Deg. of freedom    51
 Full point group                 C1      NOp   1
 Largest Abelian subgroup         C1      NOp   1
 Largest concise Abelian subgroup C1      NOp   1
                         Standard orientation:                         
 ---------------------------------------------------------------------
 Center     Atomic      Atomic             Coordinates (Angstroms)
 Number     Number       Type             X           Y           Z
 ---------------------------------------------------------------------
      1          6           0        1.522151    0.458680    0.342996
      2          1           0        1.313881    1.404321   -0.158916
      3          1           0        1.932274    0.716878    1.317470
      4          6           0        0.241333   -0.346355    0.562007
      5          1           0        0.446907   -1.412871    0.469691
      6          1           0       -0.149456   -0.175599    1.563840
      7          7           0       -0.906102   -0.063395   -0.371120
      8          6           0       -1.440890    1.311636   -0.139230
      9          1           0       -2.275601    1.443797   -0.822778
     10          1           0       -1.749343    1.392470    0.900730
     11          1           0       -0.663491    2.038056   -0.354343
     12          6           0       -1.988918   -1.050149   -0.072208
     13          1           0       -2.269830   -0.951567    0.974028
     14          1           0       -2.817815   -0.830200   -0.739394
     15          1           0       -1.604016   -2.048847   -0.263234
     16          6           0        2.602915   -0.315308   -0.434494
     17          1           0        2.590719   -0.011471   -1.460376
     18          1           0        3.563839   -0.107278   -0.012299
     19          1           0        2.405106   -1.364947   -0.371011
 ---------------------------------------------------------------------
 Rotational constants (GHZ):           6.3786521           1.8789654           1.6357774
 Standard basis: 6-311+G(2d,2p) (5D, 7F)
 There are   291 symmetry adapted cartesian basis functions of A   symmetry.
 There are   279 symmetry adapted basis functions of A   symmetry.
   279 basis functions,   395 primitive gaussians,   291 cartesian basis functions
    25 alpha electrons       25 beta electrons
       nuclear repulsion energy       258.6497562112 Hartrees.
 NAtoms=   19 NActive=   19 NUniq=   19 SFac= 1.00D+00 NAtFMM=   60 NAOKFM=F Big=F
 Integral buffers will be    131072 words long.
 Raffenetti 2 integral format.
 Two-electron integral symmetry is turned on.
 Nuclear repulsion after empirical dispersion term =      258.6392756158 Hartrees.
 One-electron integrals computed using PRISM.
 NBasis=   279 RedAO= T EigKep=  3.17D-05  NBF=   279
 NBsUse=   279 1.00D-06 EigRej= -1.00D+00 NBFU=   279
 ExpMin= 4.38D-02 ExpMax= 6.29D+03 ExpMxC= 9.49D+02 IAcc=3 IRadAn=         5 AccDes= 0.00D+00
 Harris functional with IExCor= 4639 and IRadAn=       5 diagonalized for initial guess.
 HarFok:  IExCor= 4639 AccDes= 0.00D+00 IRadAn=         5 IDoV= 1 UseB2=F ITyADJ=14
 ICtDFT=  3500011 ScaDFX=  1.000000  1.000000  1.000000  1.000000
 FoFCou: FMM=F IPFlag=           0 FMFlag=      100000 FMFlg1=           0
         NFxFlg=           0 DoJE=T BraDBF=F KetDBF=T FulRan=T
         wScrn=  0.000000 ICntrl=       500 IOpCl=  0 I1Cent=   200000004 NGrid=           0
         NMat0=    1 NMatS0=      1 NMatT0=    0 NMatD0=    1 NMtDS0=    0 NMtDT0=    0
 Petite list used in FoFCou.
 Requested convergence on RMS density matrix=1.00D-08 within  32 cycles.
 Requested convergence on MAX density matrix=1.00D-06.
 Requested convergence on             energy=1.00D-06.
 No special actions if energy rises.
 SCF Done:  E(RwB97XD) =  -253.088496242     A.U. after   12 cycles
            NFock= 12  Conv=0.79D-08     -V/T= 2.0047
 QCSCF skips out because SCF is already converged.

 **********************************************************************

            Population analysis using the SCF density.

 **********************************************************************

 Orbital symmetries:
       Occupied  (A) (A) (A) (A) (A) (A) (A) (A) (A) (A) (A) (A)
                 (A) (A) (A) (A) (A) (A) (A) (A) (A) (A) (A) (A)
                 (A)
       Virtual   (A) (A) (A) (A) (A) (A) (A) (A) (A) (A) (A) (A)
                 (A) (A) (A) (A) (A) (A) (A) (A) (A) (A) (A) (A)
                 (A) (A) (A) (A) (A) (A) (A) (A) (A) (A) (A) (A)
                 (A) (A) (A) (A) (A) (A) (A) (A) (A) (A) (A) (A)
                 (A) (A) (A) (A) (A) (A) (A) (A) (A) (A) (A) (A)
                 (A) (A) (A) (A) (A) (A) (A) (A) (A) (A) (A) (A)
                 (A) (A) (A) (A) (A) (A) (A) (A) (A) (A) (A) (A)
                 (A) (A) (A) (A) (A) (A) (A) (A) (A) (A) (A) (A)
                 (A) (A) (A) (A) (A) (A) (A) (A) (A) (A) (A) (A)
                 (A) (A) (A) (A) (A) (A) (A) (A) (A) (A) (A) (A)
                 (A) (A) (A) (A) (A) (A) (A) (A) (A) (A) (A) (A)
                 (A) (A) (A) (A) (A) (A) (A) (A) (A) (A) (A) (A)
                 (A) (A) (A) (A) (A) (A) (A) (A) (A) (A) (A) (A)
                 (A) (A) (A) (A) (A) (A) (A) (A) (A) (A) (A) (A)
                 (A) (A) (A) (A) (A) (A) (A) (A) (A) (A) (A) (A)
                 (A) (A) (A) (A) (A) (A) (A) (A) (A) (A) (A) (A)
                 (A) (A) (A) (A) (A) (A) (A) (A) (A) (A) (A) (A)
                 (A) (A) (A) (A) (A) (A) (A) (A) (A) (A) (A) (A)
                 (A) (A) (A) (A) (A) (A) (A) (A) (A) (A) (A) (A)
                 (A) (A) (A) (A) (A) (A) (A) (A) (A) (A) (A) (A)
                 (A) (A) (A) (A) (A) (A) (A) (A) (A) (A) (A) (A)
                 (A) (A)
 The electronic state is 1-A.
 Alpha  occ. eigenvalues --  -14.42229 -10.29744 -10.29273 -10.29209 -10.27408
 Alpha  occ. eigenvalues --  -10.25750  -1.00457  -0.87612  -0.79682  -0.78389
 Alpha  occ. eigenvalues --   -0.71038  -0.66085  -0.56439  -0.56325  -0.53181
 Alpha  occ. eigenvalues --   -0.51689  -0.50551  -0.48220  -0.46685  -0.45096
 Alpha  occ. eigenvalues --   -0.44560  -0.41737  -0.41342  -0.40837  -0.29637
 Alpha virt. eigenvalues --    0.06718   0.07907   0.08132   0.08628   0.10046
 Alpha virt. eigenvalues --    0.10537   0.10808   0.11311   0.11563   0.13344
 Alpha virt. eigenvalues --    0.14090   0.14377   0.15089   0.15853   0.16882
 Alpha virt. eigenvalues --    0.17348   0.17552   0.19881   0.20275   0.20910
 Alpha virt. eigenvalues --    0.23211   0.24162   0.24868   0.25961   0.26191
 Alpha virt. eigenvalues --    0.26622   0.27326   0.28611   0.29510   0.30748
 Alpha virt. eigenvalues --    0.30909   0.31788   0.31969   0.32722   0.33570
 Alpha virt. eigenvalues --    0.34422   0.35330   0.35818   0.37705   0.38594
 Alpha virt. eigenvalues --    0.38864   0.43772   0.45976   0.47167   0.49161
 Alpha virt. eigenvalues --    0.50640   0.51011   0.52656   0.53523   0.55240
 Alpha virt. eigenvalues --    0.55859   0.57025   0.57557   0.59333   0.60362
 Alpha virt. eigenvalues --    0.61801   0.62313   0.63550   0.63605   0.64085
 Alpha virt. eigenvalues --    0.64809   0.65539   0.65932   0.67756   0.68142
 Alpha virt. eigenvalues --    0.69005   0.70515   0.72993   0.73547   0.74346
 Alpha virt. eigenvalues --    0.75323   0.76531   0.77710   0.78599   0.80806
 Alpha virt. eigenvalues --    0.85432   0.88847   0.89183   0.91891   0.92430
 Alpha virt. eigenvalues --    0.95194   0.96524   0.98425   0.99206   1.00483
 Alpha virt. eigenvalues --    1.01211   1.02473   1.04489   1.07362   1.10628
 Alpha virt. eigenvalues --    1.10942   1.12030   1.14412   1.16442   1.17223
 Alpha virt. eigenvalues --    1.18137   1.20108   1.21811   1.22695   1.23105
 Alpha virt. eigenvalues --    1.24843   1.26112   1.26591   1.27703   1.29957
 Alpha virt. eigenvalues --    1.30360   1.32167   1.33089   1.34191   1.35046
 Alpha virt. eigenvalues --    1.36084   1.37019   1.39024   1.40359   1.40985
 Alpha virt. eigenvalues --    1.41842   1.45021   1.45516   1.46857   1.48360
 Alpha virt. eigenvalues --    1.49545   1.49863   1.50743   1.51600   1.53103
 Alpha virt. eigenvalues --    1.55704   1.55993   1.57403   1.59657   1.60857
 Alpha virt. eigenvalues --    1.62512   1.63685   1.66221   1.67537   1.67891
 Alpha virt. eigenvalues --    1.68759   1.69074   1.70751   1.72531   1.74147
 Alpha virt. eigenvalues --    1.76949   1.79442   1.87180   1.92354   1.93085
 Alpha virt. eigenvalues --    1.94907   2.07568   2.10068   2.67362   2.75550
 Alpha virt. eigenvalues --    2.76668   2.79451   2.84238   2.87901   2.89832
 Alpha virt. eigenvalues --    2.93476   2.98032   3.03235   3.07994   3.12098
 Alpha virt. eigenvalues --    3.15625   3.17788   3.20835   3.26736   3.27305
 Alpha virt. eigenvalues --    3.29228   3.31492   3.34796   3.36429   3.37635
 Alpha virt. eigenvalues --    3.39835   3.41267   3.44377   3.45535   3.46788
 Alpha virt. eigenvalues --    3.49718   3.51377   3.52335   3.53173   3.57744
 Alpha virt. eigenvalues --    3.59113   3.60532   3.62303   3.64848   3.66959
 Alpha virt. eigenvalues --    3.69033   3.71003   3.72693   3.73106   3.74336
 Alpha virt. eigenvalues --    3.75983   3.76873   3.81018   3.83834   3.86259
 Alpha virt. eigenvalues --    3.87474   3.89364   3.91813   3.92792   3.96400
 Alpha virt. eigenvalues --    3.96838   3.99994   4.02147   4.06290   4.08710
 Alpha virt. eigenvalues --    4.09977   4.11294   4.12238   4.14846   4.16208
 Alpha virt. eigenvalues --    4.17973   4.20045   4.21179   4.21766   4.26023
 Alpha virt. eigenvalues --    4.26997   4.27780   4.28815   4.29896   4.31241
 Alpha virt. eigenvalues --    4.32369   4.33990   4.36079   4.37120   4.38886
 Alpha virt. eigenvalues --    4.40631   4.41896   4.48423   4.50588   4.53089
 Alpha virt. eigenvalues --    4.62450   4.85435   4.96854   5.06687   5.08280
 Alpha virt. eigenvalues --    5.10917   5.14810   5.16116   5.19074   5.19530
 Alpha virt. eigenvalues --    5.23801   5.32522   5.35792   5.41604   5.44983
 Alpha virt. eigenvalues --    5.59220   5.65657   5.70590  24.01775  24.06398
 Alpha virt. eigenvalues --   24.16295  24.18816  24.20538  35.65889
          Condensed to atoms (all electrons):
               1          2          3          4          5          6
     1  C    5.285447   0.437793   0.458802   0.152661  -0.023904  -0.079404
     2  H    0.437793   0.563993  -0.032715  -0.023857   0.003950   0.002337
     3  H    0.458802  -0.032715   0.563100  -0.047038   0.001890  -0.009941
     4  C    0.152661  -0.023857  -0.047038   5.095219   0.459840   0.458270
     5  H   -0.023904   0.003950   0.001890   0.459840   0.560720  -0.031320
     6  H   -0.079404   0.002337  -0.009941   0.458270  -0.031320   0.565072
     7  N   -0.006192  -0.012799   0.006714   0.201805  -0.060210  -0.037154
     8  C    0.010674  -0.004842  -0.000264  -0.090746   0.001287  -0.000173
     9  H    0.004102  -0.000281  -0.000010   0.008116  -0.000225  -0.000638
    10  H   -0.028715   0.000727   0.000346   0.016529  -0.000053   0.011806
    11  H    0.014313   0.001116  -0.000115  -0.005232  -0.000172  -0.003010
    12  C   -0.062316   0.001084   0.000797  -0.046896  -0.000237  -0.000749
    13  H   -0.003993   0.000005   0.000052  -0.009889  -0.003117   0.011461
    14  H    0.006127  -0.000062   0.000009   0.008996   0.000122  -0.000501
    15  H   -0.001530  -0.000036  -0.000025   0.003941   0.003612  -0.002541
    16  C    0.137800  -0.028569  -0.039350  -0.031698  -0.014357   0.009918
    17  H   -0.012813  -0.012550   0.005352  -0.023063   0.000775  -0.000290
    18  H   -0.018130   0.001037  -0.013377   0.016683  -0.000109  -0.000152
    19  H   -0.080958   0.005020   0.002311  -0.004800   0.004480   0.000824
               7          8          9         10         11         12
     1  C   -0.006192   0.010674   0.004102  -0.028715   0.014313  -0.062316
     2  H   -0.012799  -0.004842  -0.000281   0.000727   0.001116   0.001084
     3  H    0.006714  -0.000264  -0.000010   0.000346  -0.000115   0.000797
     4  C    0.201805  -0.090746   0.008116   0.016529  -0.005232  -0.046896
     5  H   -0.060210   0.001287  -0.000225  -0.000053  -0.000172  -0.000237
     6  H   -0.037154  -0.000173  -0.000638   0.011806  -0.003010  -0.000749
     7  N    6.847846   0.263569  -0.042282  -0.044559  -0.039663   0.247846
     8  C    0.263569   4.842231   0.426656   0.420898   0.423319  -0.060610
     9  H   -0.042282   0.426656   0.553563  -0.032100  -0.018332  -0.006312
    10  H   -0.044559   0.420898  -0.032100   0.582852  -0.035506   0.000114
    11  H   -0.039663   0.423319  -0.018332  -0.035506   0.557486   0.004227
    12  C    0.247846  -0.060610  -0.006312   0.000114   0.004227   4.835271
    13  H   -0.032830  -0.002056  -0.002867   0.012723  -0.000680   0.418154
    14  H   -0.044965  -0.001151   0.004952  -0.002715   0.000235   0.417343
    15  H   -0.045975   0.002110   0.000175  -0.000624  -0.000190   0.436574
    16  C   -0.000676   0.005245  -0.000510   0.001102  -0.003406   0.003807
    17  H   -0.000977   0.000452  -0.000003  -0.000008   0.000020  -0.000270
    18  H   -0.001395  -0.000672  -0.000000   0.000004   0.000022  -0.000057
    19  H    0.003941   0.000568   0.000000   0.000001  -0.000031   0.000784
              13         14         15         16         17         18
     1  C   -0.003993   0.006127  -0.001530   0.137800  -0.012813  -0.018130
     2  H    0.000005  -0.000062  -0.000036  -0.028569  -0.012550   0.001037
     3  H    0.000052   0.000009  -0.000025  -0.039350   0.005352  -0.013377
     4  C   -0.009889   0.008996   0.003941  -0.031698  -0.023063   0.016683
     5  H   -0.003117   0.000122   0.003612  -0.014357   0.000775  -0.000109
     6  H    0.011461  -0.000501  -0.002541   0.009918  -0.000290  -0.000152
     7  N   -0.032830  -0.044965  -0.045975  -0.000676  -0.000977  -0.001395
     8  C   -0.002056  -0.001151   0.002110   0.005245   0.000452  -0.000672
     9  H   -0.002867   0.004952   0.000175  -0.000510  -0.000003  -0.000000
    10  H    0.012723  -0.002715  -0.000624   0.001102  -0.000008   0.000004
    11  H   -0.000680   0.000235  -0.000190  -0.003406   0.000020   0.000022
    12  C    0.418154   0.417343   0.436574   0.003807  -0.000270  -0.000057
    13  H    0.586813  -0.030920  -0.037007  -0.000214  -0.000005   0.000003
    14  H   -0.030920   0.555988  -0.015901  -0.000295  -0.000002  -0.000001
    15  H   -0.037007  -0.015901   0.552347  -0.000609   0.000024  -0.000001
    16  C   -0.000214  -0.000295  -0.000609   5.050610   0.433457   0.403960
    17  H   -0.000005  -0.000002   0.000024   0.433457   0.543536  -0.025780
    18  H    0.000003  -0.000001  -0.000001   0.403960  -0.025780   0.564797
    19  H   -0.000004   0.000009  -0.000128   0.454719  -0.026736  -0.027901
              19
     1  C   -0.080958
     2  H    0.005020
     3  H    0.002311
     4  C   -0.004800
     5  H    0.004480
     6  H    0.000824
     7  N    0.003941
     8  C    0.000568
     9  H    0.000000
    10  H    0.000001
    11  H   -0.000031
    12  C    0.000784
    13  H   -0.000004
    14  H    0.000009
    15  H   -0.000128
    16  C    0.454719
    17  H   -0.026736
    18  H   -0.027901
    19  H    0.568206
 Mulliken charges:
               1
     1  C   -0.189765
     2  H    0.098649
     3  H    0.103462
     4  C   -0.138840
     5  H    0.097031
     6  H    0.106184
     7  N   -0.202044
     8  C   -0.236493
     9  H    0.105997
    10  H    0.097180
    11  H    0.105600
    12  C   -0.188556
    13  H    0.094368
    14  H    0.102733
    15  H    0.105785
    16  C   -0.380933
    17  H    0.118879
    18  H    0.101069
    19  H    0.099695
 Sum of Mulliken charges =  -0.00000
 Mulliken charges with hydrogens summed into heavy atoms:
               1
     1  C    0.012346
     4  C    0.064375
     7  N   -0.202044
     8  C    0.072283
    12  C    0.114330
    16  C   -0.061290
 Electronic spatial extent (au):  <R**2>=            828.6065
 Charge=             -0.0000 electrons
 Dipole moment (field-independent basis, Debye):
    X=             -0.1329    Y=              0.1449    Z=              0.8104  Tot=              0.8339
 Quadrupole moment (field-independent basis, Debye-Ang):
   XX=            -39.4553   YY=            -39.5268   ZZ=            -42.7511
   XY=              0.2701   XZ=              0.6692   YZ=             -0.5601
 Traceless Quadrupole moment (field-independent basis, Debye-Ang):
   XX=              1.1224   YY=              1.0509   ZZ=             -2.1733
   XY=              0.2701   XZ=              0.6692   YZ=             -0.5601
 Octapole moment (field-independent basis, Debye-Ang**2):
  XXX=             -5.0906  YYY=             -1.8103  ZZZ=              0.8287  XYY=             -0.6777
  XXY=              1.3325  XXZ=             -1.7310  XZZ=              0.2288  YZZ=              1.4162
  YYZ=             -2.1492  XYZ=             -0.0770
 Hexadecapole moment (field-independent basis, Debye-Ang**3):
 XXXX=           -793.9590 YYYY=           -233.7806 ZZZZ=           -119.9692 XXXY=              4.1345
 XXXZ=             20.2009 YYYX=              1.3447 YYYZ=             -1.2288 ZZZX=              0.5639
 ZZZY=             -0.4839 XXYY=           -176.0168 XXZZ=           -149.3295 YYZZ=            -61.4820
 XXYZ=             -1.4326 YYXZ=              2.2225 ZZXY=              0.6537
 N-N= 2.586392756158D+02 E-N=-1.104057715740D+03  KE= 2.518955262181D+02
 Calling FoFJK, ICntrl=      2127 FMM=F ISym2X=0 I1Cent= 0 IOpClX= 0 NMat=1 NMatS=1 NMatT=0.
 ***** Axes restored to original set *****
 -------------------------------------------------------------------
 Center     Atomic                   Forces (Hartrees/Bohr)
 Number     Number              X              Y              Z
 -------------------------------------------------------------------
      1        6           0.001317428    0.001794845   -0.004805873
      2        1          -0.000460565   -0.001508444   -0.000855828
      3        1          -0.000888079   -0.002998645    0.000772490
      4        6          -0.028492851    0.003955085    0.007888917
      5        1           0.001583604   -0.000687832    0.000099480
      6        1           0.005397644   -0.009206487   -0.000638207
      7        7           0.007541247   -0.008380048   -0.000770271
      8        6           0.009075877    0.015241204   -0.030456630
      9        1          -0.000673858   -0.003021511    0.004627651
     10        1          -0.003156202   -0.008276904    0.006320579
     11        1          -0.001564391   -0.000450931    0.002660533
     12        6           0.020730006    0.019243975    0.022751532
     13        1          -0.005529667   -0.008403823   -0.003844409
     14        1          -0.002713116   -0.003435154   -0.003369729
     15        1          -0.002314278   -0.000688935   -0.001703197
     16        6          -0.011441895   -0.012955392    0.013576595
     17        1          -0.002626873    0.013700919    0.000200533
     18        1           0.013107835    0.003666176    0.000896591
     19        1           0.001108134    0.002411902   -0.013350756
 -------------------------------------------------------------------
 Cartesian Forces:  Max     0.030456630 RMS     0.009458851

 GradGradGradGradGradGradGradGradGradGradGradGradGradGradGradGradGradGrad
 Berny optimization.
 FormGI is forming the generalized inverse of G from B-inverse, IUseBI=4.
 Internal  Forces:  Max     0.020322628 RMS     0.005585505
 Search for a local minimum.
 Step number   1 out of a maximum of   97
 All quantities printed in internal units (Hartrees-Bohrs-Radians)
 Mixed Optimization -- RFO/linear search
 Second derivative matrix not updated -- first step.
 ITU=  0
     Eigenvalues ---    0.00237   0.00292   0.00388   0.00433   0.00455
     Eigenvalues ---    0.03031   0.03387   0.03632   0.04800   0.05148
     Eigenvalues ---    0.05720   0.05720   0.07518   0.07562   0.07694
     Eigenvalues ---    0.07709   0.08433   0.10029   0.12298   0.13205
     Eigenvalues ---    0.15569   0.16000   0.16000   0.16000   0.16000
     Eigenvalues ---    0.16000   0.16000   0.16000   0.16000   0.16000
     Eigenvalues ---    0.16150   0.21908   0.22044   0.28519   0.29555
     Eigenvalues ---    0.31778   0.32890   0.33071   0.34737   0.34805
     Eigenvalues ---    0.34949   0.35006   0.35072   0.35074   0.35136
     Eigenvalues ---    0.35168   0.35215   0.35338   0.37230   0.37230
     Eigenvalues ---    0.37230
 RFO step:  Lambda=-1.19323779D-02 EMin= 2.36824164D-03
 Linear search not attempted -- first point.
 Iteration  1 RMS(Cart)=  0.07792464 RMS(Int)=  0.00311234
 Iteration  2 RMS(Cart)=  0.00448316 RMS(Int)=  0.00040810
 Iteration  3 RMS(Cart)=  0.00000821 RMS(Int)=  0.00040806
 Iteration  4 RMS(Cart)=  0.00000000 RMS(Int)=  0.00040806
 Variable       Old X    -DE/DX   Delta X   Delta X   Delta X     New X
                                 (Linear)    (Quad)   (Total)
    R1        2.06104  -0.00106   0.00000  -0.00294  -0.00294   2.05810
    R2        2.05665   0.00165   0.00000   0.00455   0.00455   2.06120
    R3        2.88859  -0.00019   0.00000  -0.00062  -0.00062   2.88797
    R4        2.91018   0.00467   0.00000   0.01571   0.01571   2.92589
    R5        2.05992  -0.00004   0.00000  -0.00011  -0.00011   2.05981
    R6        2.05758   0.00917   0.00000   0.02536   0.02536   2.08295
    R7        2.84553  -0.02032   0.00000  -0.06164  -0.06164   2.78389
    R8        2.82227  -0.01737   0.00000  -0.05068  -0.05068   2.77158
    R9        2.82545  -0.01835   0.00000  -0.05383  -0.05383   2.77162
   R10        2.05403   0.00049   0.00000   0.00133   0.00133   2.05536
   R11        2.05554   0.00797   0.00000   0.02198   0.02198   2.07753
   R12        2.05130   0.00071   0.00000   0.00195   0.00195   2.05325
   R13        2.05558   0.00762   0.00000   0.02102   0.02102   2.07661
   R14        2.05328   0.00080   0.00000   0.00219   0.00219   2.05547
   R15        2.05454   0.00071   0.00000   0.00194   0.00194   2.05649
   R16        2.02201   0.01286   0.00000   0.03346   0.03346   2.05547
   R17        2.02201   0.01287   0.00000   0.03350   0.03350   2.05551
   R18        2.02201   0.01284   0.00000   0.03340   0.03340   2.05541
    A1        1.85283   0.00052   0.00000  -0.00589  -0.00584   1.84699
    A2        1.94181  -0.00323   0.00000  -0.03536  -0.03534   1.90647
    A3        1.91500  -0.00184   0.00000  -0.01752  -0.01727   1.89773
    A4        1.88853  -0.00205   0.00000   0.00102  -0.00007   1.88846
    A5        1.88265   0.00140   0.00000   0.03450   0.03407   1.91672
    A6        1.97761   0.00507   0.00000   0.02408   0.02364   2.00125
    A7        1.92317   0.00164   0.00000  -0.01715  -0.01809   1.90508
    A8        1.92834   0.00057   0.00000   0.00685   0.00767   1.93601
    A9        2.03840  -0.01194   0.00000  -0.05080  -0.05116   1.98724
   A10        1.87449  -0.00187   0.00000  -0.00617  -0.00646   1.86803
   A11        1.84947   0.00347   0.00000  -0.00031  -0.00195   1.84752
   A12        1.84130   0.00894   0.00000   0.07262   0.07289   1.91419
   A13        1.92800  -0.00051   0.00000   0.00096   0.00091   1.92891
   A14        1.87964   0.00182   0.00000   0.01462   0.01461   1.89425
   A15        1.89363  -0.00065   0.00000   0.00043   0.00037   1.89400
   A16        1.86428   0.00566   0.00000   0.03051   0.02996   1.89424
   A17        1.89485   0.00929   0.00000   0.05609   0.05529   1.95014
   A18        1.90595   0.00179   0.00000   0.01088   0.01045   1.91639
   A19        1.95459  -0.00721   0.00000  -0.04273  -0.04363   1.91096
   A20        1.92195  -0.00446   0.00000  -0.03022  -0.03037   1.89158
   A21        1.92071  -0.00435   0.00000  -0.02038  -0.02104   1.89967
   A22        1.89600   0.00955   0.00000   0.05730   0.05651   1.95251
   A23        1.87143   0.00542   0.00000   0.02911   0.02858   1.90001
   A24        1.89095   0.00174   0.00000   0.01079   0.01035   1.90130
   A25        1.95545  -0.00744   0.00000  -0.04461  -0.04546   1.90999
   A26        1.92162  -0.00428   0.00000  -0.01985  -0.02054   1.90108
   A27        1.92638  -0.00416   0.00000  -0.02799  -0.02814   1.89823
   A28        1.91063   0.00558   0.00000   0.03284   0.03240   1.94303
   A29        1.91063   0.00425   0.00000   0.02514   0.02476   1.93539
   A30        1.91063   0.00425   0.00000   0.02394   0.02360   1.93424
   A31        1.91063  -0.00470   0.00000  -0.02579  -0.02626   1.88438
   A32        1.91063  -0.00503   0.00000  -0.03005  -0.03041   1.88022
   A33        1.91063  -0.00436   0.00000  -0.02608  -0.02635   1.88428
    D1        2.53816   0.00057   0.00000   0.03325   0.03354   2.57170
    D2       -1.67641  -0.00036   0.00000   0.01917   0.01905  -1.65736
    D3        0.42750   0.00333   0.00000   0.08469   0.08427   0.51177
    D4       -1.71606  -0.00183   0.00000   0.00698   0.00743  -1.70863
    D5        0.35256  -0.00275   0.00000  -0.00710  -0.00707   0.34549
    D6        2.45647   0.00094   0.00000   0.05842   0.05815   2.51462
    D7        0.37072   0.00169   0.00000   0.06594   0.06632   0.43704
    D8        2.43934   0.00076   0.00000   0.05185   0.05182   2.49116
    D9       -1.73994   0.00445   0.00000   0.11737   0.11705  -1.62290
   D10       -0.44236  -0.00017   0.00000  -0.04405  -0.04413  -0.48649
   D11        1.65204   0.00010   0.00000  -0.04013  -0.04014   1.61190
   D12       -2.53675  -0.00003   0.00000  -0.04202  -0.04210  -2.57885
   D13       -2.45344  -0.00058   0.00000  -0.04677  -0.04646  -2.49990
   D14       -0.35904  -0.00031   0.00000  -0.04285  -0.04246  -0.40151
   D15        1.73535  -0.00044   0.00000  -0.04474  -0.04443   1.69092
   D16        1.73961  -0.00210   0.00000  -0.08640  -0.08670   1.65290
   D17       -2.44918  -0.00183   0.00000  -0.08248  -0.08271  -2.53189
   D18       -0.35479  -0.00196   0.00000  -0.08437  -0.08467  -0.43946
   D19       -1.17788  -0.00161   0.00000  -0.06628  -0.06585  -1.24373
   D20        3.04009  -0.00162   0.00000  -0.07605  -0.07565   2.96444
   D21        2.95618   0.00152   0.00000  -0.00953  -0.00946   2.94672
   D22        0.89097   0.00151   0.00000  -0.01930  -0.01926   0.87171
   D23        0.97155  -0.00174   0.00000  -0.03400  -0.03446   0.93709
   D24       -1.09367  -0.00175   0.00000  -0.04377  -0.04426  -1.13792
   D25       -3.11896  -0.00106   0.00000  -0.01238  -0.01266  -3.13162
   D26       -1.00814  -0.00126   0.00000  -0.01476  -0.01465  -1.02279
   D27        1.08618   0.00006   0.00000   0.00039   0.00059   1.08677
   D28       -1.06231   0.00046   0.00000   0.00616   0.00585  -1.05646
   D29        1.04851   0.00026   0.00000   0.00378   0.00387   1.05237
   D30       -3.14036   0.00158   0.00000   0.01892   0.01911  -3.12125
   D31        1.01106   0.00061   0.00000   0.01228   0.01223   1.02329
   D32        3.12769   0.00027   0.00000   0.00830   0.00859   3.13628
   D33       -1.07629  -0.00073   0.00000  -0.00292  -0.00312  -1.07941
   D34       -1.07613   0.00055   0.00000   0.00262   0.00254  -1.07359
   D35        1.04050   0.00021   0.00000  -0.00135  -0.00109   1.03940
   D36        3.11970  -0.00079   0.00000  -0.01258  -0.01280   3.10690
         Item               Value     Threshold  Converged?
 Maximum Force            0.020323     0.000450     NO 
 RMS     Force            0.005586     0.000300     NO 
 Maximum Displacement     0.283706     0.001800     NO 
 RMS     Displacement     0.078733     0.001200     NO 
 Predicted change in Energy=-6.712009D-03
 GradGradGradGradGradGradGradGradGradGradGradGradGradGradGradGradGradGrad

                          Input orientation:                          
 ---------------------------------------------------------------------
 Center     Atomic      Atomic             Coordinates (Angstroms)
 Number     Number       Type             X           Y           Z
 ---------------------------------------------------------------------
      1          6           0        0.587142   -0.738408    0.340747
      2          1           0        0.191596   -0.437415    1.309811
      3          1           0        1.354450   -1.484457    0.551379
      4          6           0       -0.521583   -1.409492   -0.469134
      5          1           0       -0.371850   -1.194410   -1.527164
      6          1           0       -0.485062   -2.505113   -0.354116
      7          7           0       -1.873747   -0.921724   -0.146696
      8          6           0       -2.287548   -1.392706    1.179212
      9          1           0       -3.290865   -1.023657    1.379564
     10          1           0       -2.281175   -2.490292    1.241651
     11          1           0       -1.618308   -0.994230    1.936765
     12          6           0       -2.810526   -1.452226   -1.142770
     13          1           0       -2.805529   -2.550881   -1.165086
     14          1           0       -3.811997   -1.099591   -0.906523
     15          1           0       -2.530441   -1.077987   -2.125508
     16          6           0        1.227822    0.495883   -0.339936
     17          1           0        0.758131    1.419048   -0.007880
     18          1           0        2.289243    0.558030   -0.110423
     19          1           0        1.121101    0.440169   -1.420930
 ---------------------------------------------------------------------
                    Distance matrix (angstroms):
                    1          2          3          4          5
     1  C    0.000000
     2  H    1.089100   0.000000
     3  H    1.090741   1.738893   0.000000
     4  C    1.528245   2.149001   2.136953   0.000000
     5  H    2.148650   2.989806   2.717459   1.090003   0.000000
     6  H    2.180300   2.738959   2.290299   1.102247   1.762612
     7  N    2.515389   2.573248   3.350408   1.473171   2.058092
     8  C    3.065123   2.660036   3.696856   2.415774   3.321700
     9  H    4.024853   3.532149   4.741010   3.351936   4.122968
    10  H    3.479651   3.214583   3.834833   2.681619   3.604326
    11  H    2.734361   1.994709   3.316159   2.676491   3.686806
    12  C    3.775515   4.007210   4.496466   2.386393   2.482210
    13  H    4.130716   4.424321   4.624819   2.646419   2.809610
    14  H    4.586781   4.623783   5.381987   3.333793   3.496970
    15  H    3.989619   4.429587   4.735327   2.624687   2.243008
    16  C    1.548313   2.160203   2.175368   2.589896   2.612576
    17  H    2.192121   2.346003   3.016407   3.138640   3.227266
    18  H    2.186653   2.721783   2.341703   3.449719   3.487065
    19  H    2.185786   3.015142   2.765618   2.650579   2.216312
                    6          7          8          9         10
     6  H    0.000000
     7  N    2.116268   0.000000
     8  C    2.614862   1.466659   0.000000
     9  H    3.615645   2.085205   1.087650   0.000000
    10  H    2.402647   2.133989   1.099379   1.785921   0.000000
    11  H    2.969032   2.100313   1.086532   1.763175   1.777858
    12  C    2.671765   1.466681   2.380893   2.603183   2.653913
    13  H    2.458523   2.135296   2.665598   3.007193   2.463940
    14  H    3.653648   2.089447   2.600029   2.345962   2.981966
    15  H    3.059100   2.090781   3.328547   3.587022   3.659850
    16  C    3.455453   3.415652   4.269942   5.067959   4.871521
    17  H    4.130914   3.524949   4.311764   4.928100   5.107019
    18  H    4.139928   4.418311   5.139606   5.988272   5.657658
    19  H    3.520304   3.528107   4.662517   5.426877   5.220385
                   11         12         13         14         15
    11  H    0.000000
    12  C    3.333869   0.000000
    13  H    3.667989   1.098893   0.000000
    14  H    3.592723   1.087708   1.784958   0.000000
    15  H    4.164261   1.088245   1.779748   1.768835   0.000000
    16  C    3.937545   4.554989   5.121676   5.316609   4.448581
    17  H    3.905511   4.718846   5.458859   5.295014   4.640500
    18  H    4.676478   5.578039   6.060887   6.372332   5.474164
    19  H    4.564645   4.372210   4.942698   5.193354   4.016838
                   16         17         18         19
    16  C    0.000000
    17  H    1.087706   0.000000
    18  H    1.087729   1.759594   0.000000
    19  H    1.087677   1.756890   1.759510   0.000000
 Stoichiometry    C5H13N
 Framework group  C1[X(C5H13N)]
 Deg. of freedom    51
 Full point group                 C1      NOp   1
 Largest Abelian subgroup         C1      NOp   1
 Largest concise Abelian subgroup C1      NOp   1
                         Standard orientation:                         
 ---------------------------------------------------------------------
 Center     Atomic      Atomic             Coordinates (Angstroms)
 Number     Number       Type             X           Y           Z
 ---------------------------------------------------------------------
      1          6           0        1.497194    0.454162    0.365319
      2          1           0        1.255028    1.381868   -0.151262
      3          1           0        1.933622    0.750502    1.320008
      4          6           0        0.207784   -0.315790    0.648389
      5          1           0        0.413177   -1.385401    0.605342
      6          1           0       -0.165394   -0.099298    1.662696
      7          7           0       -0.860658   -0.071194   -0.335906
      8          6           0       -1.402997    1.282582   -0.180195
      9          1           0       -2.193638    1.424694   -0.913456
     10          1           0       -1.805560    1.446215    0.829658
     11          1           0       -0.623667    2.015423   -0.370305
     12          6           0       -1.940533   -1.035486   -0.101040
     13          1           0       -2.345872   -0.956156    0.917279
     14          1           0       -2.735117   -0.856084   -0.821845
     15          1           0       -1.553875   -2.041819   -0.249588
     16          6           0        2.543036   -0.322529   -0.471485
     17          1           0        2.455820   -0.088097   -1.530040
     18          1           0        3.553956   -0.075188   -0.155230
     19          1           0        2.409219   -1.395945   -0.357853
 ---------------------------------------------------------------------
 Rotational constants (GHZ):           6.3000236           1.9395175           1.7039627
 Standard basis: 6-311+G(2d,2p) (5D, 7F)
 There are   291 symmetry adapted cartesian basis functions of A   symmetry.
 There are   279 symmetry adapted basis functions of A   symmetry.
   279 basis functions,   395 primitive gaussians,   291 cartesian basis functions
    25 alpha electrons       25 beta electrons
       nuclear repulsion energy       260.6008615597 Hartrees.
 NAtoms=   19 NActive=   19 NUniq=   19 SFac= 1.00D+00 NAtFMM=   60 NAOKFM=F Big=F
 Integral buffers will be    131072 words long.
 Raffenetti 2 integral format.
 Two-electron integral symmetry is turned on.
 Nuclear repulsion after empirical dispersion term =      260.5903472170 Hartrees.
 One-electron integrals computed using PRISM.
 NBasis=   279 RedAO= T EigKep=  3.34D-05  NBF=   279
 NBsUse=   279 1.00D-06 EigRej= -1.00D+00 NBFU=   279
 Initial guess from the checkpoint file:  "dimethyl_aminopropyl.chk"
 B after Tr=    -0.000000    0.000000    0.000000
         Rot=    0.999947    0.010091    0.001834    0.000386 Ang=   1.18 deg.
 ExpMin= 4.38D-02 ExpMax= 6.29D+03 ExpMxC= 9.49D+02 IAcc=2 IRadAn=         4 AccDes= 0.00D+00
 Harris functional with IExCor= 4639 and IRadAn=       4 diagonalized for initial guess.
 HarFok:  IExCor= 4639 AccDes= 0.00D+00 IRadAn=         4 IDoV= 1 UseB2=F ITyADJ=14
 ICtDFT=  3500011 ScaDFX=  1.000000  1.000000  1.000000  1.000000
 FoFCou: FMM=F IPFlag=           0 FMFlag=      100000 FMFlg1=           0
         NFxFlg=           0 DoJE=T BraDBF=F KetDBF=T FulRan=T
         wScrn=  0.000000 ICntrl=       500 IOpCl=  0 I1Cent=   200000004 NGrid=           0
         NMat0=    1 NMatS0=      1 NMatT0=    0 NMatD0=    1 NMtDS0=    0 NMtDT0=    0
 Petite list used in FoFCou.
 Requested convergence on RMS density matrix=1.00D-08 within  32 cycles.
 Requested convergence on MAX density matrix=1.00D-06.
 Requested convergence on             energy=1.00D-06.
 No special actions if energy rises.
 SCF Done:  E(RwB97XD) =  -253.095882110     A.U. after   11 cycles
            NFock= 11  Conv=0.55D-08     -V/T= 2.0048
 QCSCF skips out because SCF is already converged.
 Calling FoFJK, ICntrl=      2127 FMM=F ISym2X=0 I1Cent= 0 IOpClX= 0 NMat=1 NMatS=1 NMatT=0.
 ***** Axes restored to original set *****
 -------------------------------------------------------------------
 Center     Atomic                   Forces (Hartrees/Bohr)
 Number     Number              X              Y              Z
 -------------------------------------------------------------------
      1        6           0.004173365    0.003594858   -0.002435648
      2        1           0.001540279   -0.000948896    0.000862937
      3        1           0.001056584    0.000602906   -0.001297338
      4        6          -0.008766083    0.006711931    0.001049287
      5        1           0.002328496   -0.002063495   -0.001163088
      6        1           0.000656228   -0.000463393    0.001048060
      7        7           0.000392596   -0.012836585    0.000321505
      8        6           0.002977735    0.007154350   -0.009082409
      9        1          -0.001114011   -0.000876021    0.001926582
     10        1          -0.000821862   -0.001507747    0.000910998
     11        1          -0.000990679   -0.000691549    0.002100119
     12        6           0.006739906    0.008757393    0.006340526
     13        1          -0.001339328   -0.001641092   -0.000489376
     14        1          -0.001921693   -0.001096316   -0.001111909
     15        1          -0.001111483   -0.000464782   -0.001581385
     16        6          -0.004929513   -0.006239072    0.004737302
     17        1          -0.001074434    0.000837625   -0.000961345
     18        1           0.000959909    0.001123210    0.000742539
     19        1           0.001243989    0.000046676   -0.001917358
 -------------------------------------------------------------------
 Cartesian Forces:  Max     0.012836585 RMS     0.003689030

 GradGradGradGradGradGradGradGradGradGradGradGradGradGradGradGradGradGrad
 Berny optimization.
 Using GEDIIS/GDIIS optimizer.
 FormGI is forming the generalized inverse of G from B-inverse, IUseBI=4.
 Internal  Forces:  Max     0.006087247 RMS     0.001616456
 Search for a local minimum.
 Step number   2 out of a maximum of   97
 All quantities printed in internal units (Hartrees-Bohrs-Radians)
 Mixed Optimization -- RFO/linear search
 Update second derivatives using D2CorX and points    1    2
 DE= -7.39D-03 DEPred=-6.71D-03 R= 1.10D+00
 TightC=F SS=  1.41D+00  RLast= 3.55D-01 DXNew= 5.0454D-01 1.0655D+00
 Trust test= 1.10D+00 RLast= 3.55D-01 DXMaxT set to 5.05D-01
 ITU=  1  0
 Use linear search instead of GDIIS.
     Eigenvalues ---    0.00234   0.00288   0.00380   0.00433   0.00455
     Eigenvalues ---    0.02818   0.03337   0.03920   0.04748   0.05317
     Eigenvalues ---    0.05409   0.05460   0.07044   0.07068   0.07439
     Eigenvalues ---    0.07488   0.08769   0.09382   0.12457   0.13014
     Eigenvalues ---    0.14133   0.15797   0.16000   0.16000   0.16000
     Eigenvalues ---    0.16000   0.16000   0.16000   0.16000   0.16213
     Eigenvalues ---    0.16612   0.21824   0.22955   0.27983   0.29491
     Eigenvalues ---    0.31359   0.32251   0.32997   0.34738   0.34785
     Eigenvalues ---    0.34974   0.35001   0.35032   0.35074   0.35148
     Eigenvalues ---    0.35193   0.35316   0.35378   0.37205   0.37230
     Eigenvalues ---    0.37906
 RFO step:  Lambda=-3.71984733D-03 EMin= 2.34285736D-03
 Quartic linear search produced a step of  0.29216.
 Iteration  1 RMS(Cart)=  0.12195836 RMS(Int)=  0.00542974
 Iteration  2 RMS(Cart)=  0.00808939 RMS(Int)=  0.00031374
 Iteration  3 RMS(Cart)=  0.00003153 RMS(Int)=  0.00031293
 Iteration  4 RMS(Cart)=  0.00000000 RMS(Int)=  0.00031293
 Variable       Old X    -DE/DX   Delta X   Delta X   Delta X     New X
                                 (Linear)    (Quad)   (Total)
    R1        2.05810  -0.00005  -0.00086   0.00014  -0.00072   2.05738
    R2        2.06120   0.00008   0.00133  -0.00023   0.00110   2.06230
    R3        2.88797   0.00158  -0.00018   0.00657   0.00639   2.89436
    R4        2.92589  -0.00609   0.00459  -0.02777  -0.02318   2.90271
    R5        2.05981   0.00104  -0.00003   0.00367   0.00363   2.06344
    R6        2.08295   0.00059   0.00741  -0.00077   0.00664   2.08959
    R7        2.78389  -0.00379  -0.01801  -0.00758  -0.02559   2.75830
    R8        2.77158  -0.00507  -0.01481  -0.01300  -0.02781   2.74377
    R9        2.77162  -0.00567  -0.01573  -0.01497  -0.03069   2.74093
   R10        2.05536   0.00108   0.00039   0.00361   0.00400   2.05936
   R11        2.07753   0.00155   0.00642   0.00295   0.00937   2.08690
   R12        2.05325   0.00060   0.00057   0.00186   0.00243   2.05568
   R13        2.07661   0.00164   0.00614   0.00337   0.00951   2.08612
   R14        2.05547   0.00117   0.00064   0.00382   0.00446   2.05993
   R15        2.05649   0.00098   0.00057   0.00319   0.00376   2.06024
   R16        2.05547   0.00088   0.00978  -0.00083   0.00895   2.06441
   R17        2.05551   0.00116   0.00979   0.00007   0.00986   2.06537
   R18        2.05541   0.00178   0.00976   0.00213   0.01189   2.06730
    A1        1.84699  -0.00045  -0.00171  -0.00008  -0.00174   1.84525
    A2        1.90647   0.00064  -0.01033   0.00604  -0.00440   1.90207
    A3        1.89773   0.00027  -0.00504  -0.00357  -0.00862   1.88911
    A4        1.88846   0.00161  -0.00002   0.01783   0.01750   1.90596
    A5        1.91672   0.00012   0.00995  -0.00434   0.00550   1.92222
    A6        2.00125  -0.00207   0.00691  -0.01472  -0.00801   1.99324
    A7        1.90508  -0.00136  -0.00529  -0.01307  -0.01867   1.88641
    A8        1.93601  -0.00053   0.00224  -0.00646  -0.00409   1.93191
    A9        1.98724   0.00056  -0.01495   0.01195  -0.00309   1.98415
   A10        1.86803  -0.00024  -0.00189  -0.00941  -0.01167   1.85636
   A11        1.84752   0.00102  -0.00057   0.01432   0.01321   1.86073
   A12        1.91419   0.00055   0.02129   0.00207   0.02340   1.93759
   A13        1.92891   0.00158   0.00027   0.03295   0.03203   1.96094
   A14        1.89425   0.00128   0.00427   0.02917   0.03225   1.92650
   A15        1.89400  -0.00062   0.00011   0.01714   0.01565   1.90965
   A16        1.89424   0.00224   0.00875   0.01243   0.02084   1.91508
   A17        1.95014   0.00036   0.01615  -0.00536   0.01044   1.96058
   A18        1.91639   0.00296   0.00305   0.02320   0.02586   1.94225
   A19        1.91096  -0.00198  -0.01275  -0.01373  -0.02677   1.88419
   A20        1.89158  -0.00212  -0.00887  -0.00931  -0.01854   1.87304
   A21        1.89967  -0.00154  -0.00615  -0.00747  -0.01400   1.88566
   A22        1.95251   0.00081   0.01651  -0.00205   0.01411   1.96662
   A23        1.90001   0.00234   0.00835   0.01371   0.02175   1.92175
   A24        1.90130   0.00202   0.00302   0.01584   0.01852   1.91982
   A25        1.90999  -0.00220  -0.01328  -0.01448  -0.02807   1.88192
   A26        1.90108  -0.00134  -0.00600  -0.00657  -0.01292   1.88815
   A27        1.89823  -0.00171  -0.00822  -0.00653  -0.01504   1.88319
   A28        1.94303   0.00017   0.00947  -0.00280   0.00651   1.94954
   A29        1.93539   0.00061   0.00723   0.00198   0.00906   1.94444
   A30        1.93424   0.00093   0.00690   0.00400   0.01077   1.94500
   A31        1.88438  -0.00038  -0.00767   0.00065  -0.00718   1.87719
   A32        1.88022  -0.00065  -0.00889  -0.00181  -0.01082   1.86940
   A33        1.88428  -0.00077  -0.00770  -0.00219  -0.01001   1.87428
    D1        2.57170   0.00111   0.00980   0.11421   0.12407   2.69577
    D2       -1.65736  -0.00033   0.00556   0.09084   0.09644  -1.56092
    D3        0.51177   0.00040   0.02462   0.09759   0.12207   0.63384
    D4       -1.70863   0.00177   0.00217   0.12683   0.12909  -1.57954
    D5        0.34549   0.00033  -0.00207   0.10346   0.10146   0.44695
    D6        2.51462   0.00106   0.01699   0.11021   0.12710   2.64172
    D7        0.43704   0.00173   0.01938   0.12461   0.14405   0.58109
    D8        2.49116   0.00028   0.01514   0.10124   0.11642   2.60758
    D9       -1.62290   0.00102   0.03420   0.10799   0.14206  -1.48084
   D10       -0.48649  -0.00078  -0.01289  -0.11952  -0.13247  -0.61896
   D11        1.61190  -0.00073  -0.01173  -0.11924  -0.13101   1.48089
   D12       -2.57885  -0.00069  -0.01230  -0.11805  -0.13040  -2.70926
   D13       -2.49990  -0.00045  -0.01357  -0.11506  -0.12854  -2.62844
   D14       -0.40151  -0.00041  -0.01241  -0.11479  -0.12708  -0.52859
   D15        1.69092  -0.00037  -0.01298  -0.11360  -0.12648   1.56444
   D16        1.65290  -0.00118  -0.02533  -0.12462  -0.15002   1.50289
   D17       -2.53189  -0.00114  -0.02416  -0.12435  -0.14856  -2.68045
   D18       -0.43946  -0.00110  -0.02474  -0.12316  -0.14795  -0.58741
   D19       -1.24373  -0.00059  -0.01924  -0.09521  -0.11405  -1.35778
   D20        2.96444  -0.00154  -0.02210  -0.15339  -0.17575   2.78870
   D21        2.94672   0.00008  -0.00276  -0.09562  -0.09798   2.84874
   D22        0.87171  -0.00087  -0.00563  -0.15381  -0.15967   0.71203
   D23        0.93709  -0.00045  -0.01007  -0.09321  -0.10312   0.83397
   D24       -1.13792  -0.00140  -0.01293  -0.15140  -0.16481  -1.30274
   D25       -3.13162  -0.00062  -0.00370  -0.02274  -0.02649   3.12507
   D26       -1.02279  -0.00139  -0.00428  -0.03497  -0.03936  -1.06215
   D27        1.08677  -0.00109   0.00017  -0.03215  -0.03206   1.05472
   D28       -1.05646   0.00148   0.00171   0.04274   0.04456  -1.01190
   D29        1.05237   0.00072   0.00113   0.03051   0.03169   1.08406
   D30       -3.12125   0.00102   0.00558   0.03333   0.03899  -3.08226
   D31        1.02329   0.00143   0.00357   0.03836   0.04205   1.06533
   D32        3.13628   0.00078   0.00251   0.02815   0.03076  -3.11615
   D33       -1.07941   0.00124  -0.00091   0.03729   0.03645  -1.04296
   D34       -1.07359  -0.00084   0.00074  -0.02828  -0.02761  -1.10120
   D35        1.03940  -0.00150  -0.00032  -0.03849  -0.03890   1.00050
   D36        3.10690  -0.00104  -0.00374  -0.02935  -0.03320   3.07370
         Item               Value     Threshold  Converged?
 Maximum Force            0.006087     0.000450     NO 
 RMS     Force            0.001616     0.000300     NO 
 Maximum Displacement     0.415358     0.001800     NO 
 RMS     Displacement     0.121417     0.001200     NO 
 Predicted change in Energy=-3.059693D-03
 GradGradGradGradGradGradGradGradGradGradGradGradGradGradGradGradGradGrad

                          Input orientation:                          
 ---------------------------------------------------------------------
 Center     Atomic      Atomic             Coordinates (Angstroms)
 Number     Number       Type             X           Y           Z
 ---------------------------------------------------------------------
      1          6           0        0.643371   -0.766595    0.329194
      2          1           0        0.298115   -0.487789    1.323363
      3          1           0        1.474017   -1.456547    0.487247
      4          6           0       -0.485865   -1.497117   -0.403641
      5          1           0       -0.332334   -1.368278   -1.477014
      6          1           0       -0.437534   -2.584790   -0.210408
      7          7           0       -1.814503   -0.971123   -0.106043
      8          6           0       -2.309690   -1.419036    1.183261
      9          1           0       -3.293761   -0.989205    1.368848
     10          1           0       -2.402323   -2.518098    1.238427
     11          1           0       -1.657210   -1.094978    1.991099
     12          6           0       -2.753482   -1.354641   -1.142866
     13          1           0       -2.862375   -2.449334   -1.234768
     14          1           0       -3.737992   -0.938094   -0.929609
     15          1           0       -2.425570   -0.963306   -2.106163
     16          6           0        1.137824    0.502278   -0.381385
     17          1           0        0.538333    1.375195   -0.112959
     18          1           0        2.176720    0.724216   -0.124545
     19          1           0        1.085116    0.397785   -1.469074
 ---------------------------------------------------------------------
                    Distance matrix (angstroms):
                    1          2          3          4          5
     1  C    0.000000
     2  H    1.088718   0.000000
     3  H    1.091324   1.737909   0.000000
     4  C    1.531628   2.148467   2.153246   0.000000
     5  H    2.139254   3.002472   2.670022   1.091925   0.000000
     6  H    2.182971   2.700194   2.326733   1.105761   1.759335
     7  N    2.504477   2.596146   3.376684   1.459628   2.057697
     8  C    3.142559   2.772634   3.847373   2.418820   3.315052
     9  H    4.078166   3.626991   4.871072   3.359162   4.124642
    10  H    3.629149   3.379606   4.088664   2.722425   3.602855
    11  H    2.856998   2.153566   3.492404   2.696024   3.722606
    12  C    3.748516   4.018205   4.532042   2.389318   2.444136
    13  H    4.191401   4.514465   4.770247   2.691707   2.761969
    14  H    4.561835   4.644225   5.425985   3.341479   3.476092
    15  H    3.922761   4.405250   4.709123   2.635525   2.222941
    16  C    1.536049   2.142781   2.168996   2.575742   2.619303
    17  H    2.189474   2.364622   3.042124   3.063275   3.185177
    18  H    2.186220   2.663560   2.371457   3.478732   3.535966
    19  H    2.187393   3.033368   2.723415   2.682124   2.264555
                    6          7          8          9         10
     6  H    0.000000
     7  N    2.123878   0.000000
     8  C    2.608881   1.451943   0.000000
     9  H    3.632901   2.088979   1.089768   0.000000
    10  H    2.442123   2.132197   1.104338   1.774595   0.000000
    11  H    2.924685   2.106676   1.087817   1.754048   1.773973
    12  C    2.783228   1.450438   2.368958   2.595024   2.673481
    13  H    2.635814   2.134751   2.685858   3.016104   2.516559
    14  H    3.757909   2.092645   2.595297   2.341550   2.996799
    15  H    3.189888   2.091397   3.322864   3.581916   3.688387
    16  C    3.470012   3.311037   4.245576   4.992673   4.927384
    17  H    4.079620   3.322814   4.195133   4.740367   5.062750
    18  H    4.217964   4.336402   5.141183   5.923867   5.773901
    19  H    3.577494   3.484187   4.675514   5.399269   5.291047
                   11         12         13         14         15
    11  H    0.000000
    12  C    3.330312   0.000000
    13  H    3.700394   1.103928   0.000000
    14  H    3.589540   1.090069   1.773041   0.000000
    15  H    4.170764   1.090234   1.777191   1.762773   0.000000
    16  C    3.999015   4.378387   5.043994   5.113591   4.221442
    17  H    3.917808   4.398723   5.239303   4.930029   4.269212
    18  H    4.741776   5.446607   6.057763   6.196388   5.287307
    19  H    4.660633   4.232287   4.872749   5.033684   3.818818
                   16         17         18         19
    16  C    0.000000
    17  H    1.092441   0.000000
    18  H    1.092945   1.763015   0.000000
    19  H    1.093968   1.758793   1.762360   0.000000
 Stoichiometry    C5H13N
 Framework group  C1[X(C5H13N)]
 Deg. of freedom    51
 Full point group                 C1      NOp   1
 Largest Abelian subgroup         C1      NOp   1
 Largest concise Abelian subgroup C1      NOp   1
                         Standard orientation:                         
 ---------------------------------------------------------------------
 Center     Atomic      Atomic             Coordinates (Angstroms)
 Number     Number       Type             X           Y           Z
 ---------------------------------------------------------------------
      1          6           0        1.526348    0.496910    0.352874
      2          1           0        1.299745    1.410896   -0.193556
      3          1           0        2.044505    0.814893    1.259179
      4          6           0        0.213575   -0.191523    0.738324
      5          1           0        0.412089   -1.258919    0.854774
      6          1           0       -0.142212    0.168224    1.721535
      7          7           0       -0.831550   -0.069375   -0.273263
      8          6           0       -1.466669    1.236180   -0.256228
      9          1           0       -2.225707    1.286169   -1.036584
     10          1           0       -1.956675    1.451885    0.709654
     11          1           0       -0.747140    2.027906   -0.453189
     12          6           0       -1.837601   -1.097417   -0.086826
     13          1           0       -2.339975   -1.028490    0.893749
     14          1           0       -2.602140   -1.018151   -0.859772
     15          1           0       -1.381398   -2.084384   -0.166735
     16          6           0        2.457581   -0.363356   -0.514416
     17          1           0        2.218252   -0.272941   -1.576477
     18          1           0        3.503378   -0.072820   -0.386257
     19          1           0        2.378726   -1.423400   -0.255854
 ---------------------------------------------------------------------
 Rotational constants (GHZ):           6.0691412           1.9865336           1.7516443
 Standard basis: 6-311+G(2d,2p) (5D, 7F)
 There are   291 symmetry adapted cartesian basis functions of A   symmetry.
 There are   279 symmetry adapted basis functions of A   symmetry.
   279 basis functions,   395 primitive gaussians,   291 cartesian basis functions
    25 alpha electrons       25 beta electrons
       nuclear repulsion energy       261.3243423364 Hartrees.
 NAtoms=   19 NActive=   19 NUniq=   19 SFac= 1.00D+00 NAtFMM=   60 NAOKFM=F Big=F
 Integral buffers will be    131072 words long.
 Raffenetti 2 integral format.
 Two-electron integral symmetry is turned on.
 Nuclear repulsion after empirical dispersion term =      261.3137331550 Hartrees.
 One-electron integrals computed using PRISM.
 NBasis=   279 RedAO= T EigKep=  3.68D-05  NBF=   279
 NBsUse=   279 1.00D-06 EigRej= -1.00D+00 NBFU=   279
 Initial guess from the checkpoint file:  "dimethyl_aminopropyl.chk"
 B after Tr=    -0.000000   -0.000000   -0.000000
         Rot=    0.999347    0.034695   -0.004314   -0.009103 Ang=   4.14 deg.
 ExpMin= 4.38D-02 ExpMax= 6.29D+03 ExpMxC= 9.49D+02 IAcc=2 IRadAn=         4 AccDes= 0.00D+00
 Harris functional with IExCor= 4639 and IRadAn=       4 diagonalized for initial guess.
 HarFok:  IExCor= 4639 AccDes= 0.00D+00 IRadAn=         4 IDoV= 1 UseB2=F ITyADJ=14
 ICtDFT=  3500011 ScaDFX=  1.000000  1.000000  1.000000  1.000000
 FoFCou: FMM=F IPFlag=           0 FMFlag=      100000 FMFlg1=           0
         NFxFlg=           0 DoJE=T BraDBF=F KetDBF=T FulRan=T
         wScrn=  0.000000 ICntrl=       500 IOpCl=  0 I1Cent=   200000004 NGrid=           0
         NMat0=    1 NMatS0=      1 NMatT0=    0 NMatD0=    1 NMtDS0=    0 NMtDT0=    0
 Petite list used in FoFCou.
 Requested convergence on RMS density matrix=1.00D-08 within  32 cycles.
 Requested convergence on MAX density matrix=1.00D-06.
 Requested convergence on             energy=1.00D-06.
 No special actions if energy rises.
 SCF Done:  E(RwB97XD) =  -253.098954726     A.U. after   11 cycles
            NFock= 11  Conv=0.70D-08     -V/T= 2.0048
 QCSCF skips out because SCF is already converged.
 Calling FoFJK, ICntrl=      2127 FMM=F ISym2X=0 I1Cent= 0 IOpClX= 0 NMat=1 NMatS=1 NMatT=0.
 ***** Axes restored to original set *****
 -------------------------------------------------------------------
 Center     Atomic                   Forces (Hartrees/Bohr)
 Number     Number              X              Y              Z
 -------------------------------------------------------------------
      1        6          -0.000123305    0.001822127    0.000098661
      2        1           0.000578975   -0.001466432    0.002572668
      3        1           0.000083829   -0.000320804   -0.002617451
      4        6           0.000664536    0.002363876   -0.000520947
      5        1           0.001010888   -0.001748916   -0.000015031
      6        1          -0.000849525    0.001591771    0.001362968
      7        7          -0.001212589   -0.001983179   -0.000386661
      8        6           0.000486108    0.000148214    0.000456469
      9        1          -0.000062416    0.000389972   -0.000363347
     10        1           0.000372470    0.000318457   -0.000412407
     11        1           0.001543401    0.000186086   -0.000038803
     12        6          -0.000676718    0.000632037   -0.001659230
     13        1           0.000202176    0.000126460    0.000150658
     14        1           0.000058678    0.000232765    0.000498775
     15        1           0.000014046   -0.000121583    0.000124735
     16        6          -0.000971025    0.000894365   -0.000548790
     17        1          -0.000222322   -0.002184293   -0.001035949
     18        1          -0.002075242   -0.000126142    0.000737442
     19        1           0.001178035   -0.000754780    0.001596241
 -------------------------------------------------------------------
 Cartesian Forces:  Max     0.002617451 RMS     0.001070969

 GradGradGradGradGradGradGradGradGradGradGradGradGradGradGradGradGradGrad
 Berny optimization.
 Using GEDIIS/GDIIS optimizer.
 FormGI is forming the generalized inverse of G from B-inverse, IUseBI=4.
 Internal  Forces:  Max     0.002814523 RMS     0.001027800
 Search for a local minimum.
 Step number   3 out of a maximum of   97
 All quantities printed in internal units (Hartrees-Bohrs-Radians)
 Mixed Optimization -- RFO/linear search
 Update second derivatives using D2CorX and points    2    3
 DE= -3.07D-03 DEPred=-3.06D-03 R= 1.00D+00
 TightC=F SS=  1.41D+00  RLast= 6.70D-01 DXNew= 8.4853D-01 2.0098D+00
 Trust test= 1.00D+00 RLast= 6.70D-01 DXMaxT set to 8.49D-01
 ITU=  1  1  0
 Use linear search instead of GDIIS.
     Eigenvalues ---    0.00140   0.00319   0.00431   0.00433   0.00488
     Eigenvalues ---    0.02380   0.03364   0.04048   0.04759   0.05324
     Eigenvalues ---    0.05358   0.05403   0.06870   0.06914   0.07201
     Eigenvalues ---    0.07249   0.08790   0.09265   0.12389   0.13035
     Eigenvalues ---    0.14492   0.16000   0.16000   0.16000   0.16000
     Eigenvalues ---    0.16000   0.16000   0.16043   0.16478   0.17019
     Eigenvalues ---    0.18137   0.21820   0.23281   0.27259   0.29986
     Eigenvalues ---    0.31390   0.32417   0.33160   0.34763   0.34903
     Eigenvalues ---    0.34990   0.35012   0.35071   0.35135   0.35165
     Eigenvalues ---    0.35193   0.35339   0.35427   0.37228   0.37231
     Eigenvalues ---    0.38489
 RFO step:  Lambda=-3.82352956D-03 EMin= 1.40361001D-03
 Quartic linear search produced a step of  0.65375.
 Iteration  1 RMS(Cart)=  0.14042849 RMS(Int)=  0.01879568
 Iteration  2 RMS(Cart)=  0.02212749 RMS(Int)=  0.00060875
 Iteration  3 RMS(Cart)=  0.00046499 RMS(Int)=  0.00043488
 Iteration  4 RMS(Cart)=  0.00000024 RMS(Int)=  0.00043488
 Variable       Old X    -DE/DX   Delta X   Delta X   Delta X     New X
                                 (Linear)    (Quad)   (Total)
    R1        2.05738   0.00179  -0.00047   0.00626   0.00579   2.06317
    R2        2.06230  -0.00011   0.00072  -0.00015   0.00057   2.06288
    R3        2.89436  -0.00178   0.00418  -0.00725  -0.00308   2.89128
    R4        2.90271  -0.00281  -0.01515  -0.01245  -0.02761   2.87510
    R5        2.06344  -0.00005   0.00237  -0.00004   0.00233   2.06577
    R6        2.08959  -0.00136   0.00434  -0.00344   0.00090   2.09048
    R7        2.75830  -0.00102  -0.01673  -0.00781  -0.02454   2.73376
    R8        2.74377  -0.00144  -0.01818  -0.00884  -0.02702   2.71676
    R9        2.74093   0.00066  -0.02007  -0.00116  -0.02122   2.71971
   R10        2.05936   0.00015   0.00262   0.00075   0.00337   2.06273
   R11        2.08690  -0.00037   0.00613   0.00006   0.00619   2.09308
   R12        2.05568   0.00095   0.00159   0.00354   0.00513   2.06081
   R13        2.08612  -0.00016   0.00622   0.00078   0.00700   2.09312
   R14        2.05993   0.00013   0.00292   0.00075   0.00366   2.06359
   R15        2.06024  -0.00015   0.00246  -0.00029   0.00217   2.06241
   R16        2.06441  -0.00188   0.00585  -0.00441   0.00144   2.06585
   R17        2.06537  -0.00182   0.00644  -0.00419   0.00225   2.06762
   R18        2.06730  -0.00157   0.00777  -0.00327   0.00450   2.07180
    A1        1.84525  -0.00020  -0.00114   0.00337   0.00225   1.84750
    A2        1.90207   0.00009  -0.00287  -0.00385  -0.00685   1.89523
    A3        1.88911   0.00107  -0.00564   0.00925   0.00341   1.89252
    A4        1.90596   0.00041   0.01144  -0.00112   0.01039   1.91635
    A5        1.92222   0.00061   0.00360   0.00460   0.00824   1.93046
    A6        1.99324  -0.00186  -0.00524  -0.01117  -0.01648   1.97675
    A7        1.88641   0.00118  -0.01221   0.01551   0.00344   1.88985
    A8        1.93191   0.00004  -0.00268  -0.01155  -0.01430   1.91761
    A9        1.98415  -0.00247  -0.00202  -0.01799  -0.02001   1.96414
   A10        1.85636  -0.00035  -0.00763   0.00191  -0.00612   1.85024
   A11        1.86073   0.00111   0.00864   0.01775   0.02632   1.88705
   A12        1.93759   0.00068   0.01530  -0.00240   0.01255   1.95014
   A13        1.96094  -0.00278   0.02094  -0.01296   0.00547   1.96641
   A14        1.92650   0.00164   0.02109   0.02077   0.04021   1.96671
   A15        1.90965   0.00174   0.01023   0.02003   0.02812   1.93777
   A16        1.91508  -0.00021   0.01362   0.00237   0.01581   1.93088
   A17        1.96058  -0.00041   0.00682  -0.00085   0.00587   1.96644
   A18        1.94225  -0.00136   0.01691  -0.01042   0.00626   1.94851
   A19        1.88419   0.00063  -0.01750   0.00419  -0.01338   1.87081
   A20        1.87304   0.00095  -0.01212   0.00633  -0.00608   1.86696
   A21        1.88566   0.00052  -0.00915  -0.00090  -0.01019   1.87547
   A22        1.96662  -0.00022   0.00923   0.00121   0.01029   1.97691
   A23        1.92175  -0.00072   0.01422  -0.00376   0.01029   1.93204
   A24        1.91982   0.00018   0.01211   0.00287   0.01473   1.93455
   A25        1.88192   0.00040  -0.01835  -0.00092  -0.01933   1.86259
   A26        1.88815   0.00009  -0.00845  -0.00032  -0.00897   1.87918
   A27        1.88319   0.00032  -0.00983   0.00091  -0.00918   1.87401
   A28        1.94954  -0.00085   0.00426  -0.00481  -0.00057   1.94897
   A29        1.94444  -0.00040   0.00592  -0.00154   0.00435   1.94879
   A30        1.94500  -0.00036   0.00704  -0.00143   0.00558   1.95058
   A31        1.87719   0.00070  -0.00470   0.00411  -0.00061   1.87659
   A32        1.86940   0.00063  -0.00707   0.00278  -0.00431   1.86509
   A33        1.87428   0.00040  -0.00654   0.00144  -0.00514   1.86913
    D1        2.69577   0.00108   0.08111   0.14436   0.22550   2.92127
    D2       -1.56092   0.00137   0.06305   0.14932   0.21238  -1.34854
    D3        0.63384   0.00039   0.07981   0.12266   0.20259   0.83643
    D4       -1.57954   0.00111   0.08439   0.14567   0.23004  -1.34949
    D5        0.44695   0.00140   0.06633   0.15064   0.21692   0.66387
    D6        2.64172   0.00042   0.08309   0.12397   0.20713   2.84885
    D7        0.58109   0.00089   0.09417   0.14280   0.23690   0.81799
    D8        2.60758   0.00117   0.07611   0.14777   0.22378   2.83136
    D9       -1.48084   0.00019   0.09287   0.12110   0.21399  -1.26685
   D10       -0.61896  -0.00050  -0.08660  -0.15028  -0.23689  -0.85584
   D11        1.48089  -0.00047  -0.08565  -0.14939  -0.23505   1.24585
   D12       -2.70926  -0.00047  -0.08525  -0.14957  -0.23482  -2.94407
   D13       -2.62844  -0.00118  -0.08404  -0.16194  -0.24599  -2.87443
   D14       -0.52859  -0.00115  -0.08308  -0.16105  -0.24415  -0.77274
   D15        1.56444  -0.00116  -0.08269  -0.16123  -0.24392   1.32052
   D16        1.50289  -0.00084  -0.09807  -0.15585  -0.25391   1.24898
   D17       -2.68045  -0.00081  -0.09712  -0.15497  -0.25207  -2.93252
   D18       -0.58741  -0.00081  -0.09672  -0.15515  -0.25184  -0.83925
   D19       -1.35778   0.00180  -0.07456   0.11115   0.03681  -1.32097
   D20        2.78870   0.00032  -0.11489   0.07941  -0.03577   2.75293
   D21        2.84874   0.00103  -0.06405   0.09061   0.02701   2.87575
   D22        0.71203  -0.00045  -0.10439   0.05887  -0.04557   0.66646
   D23        0.83397   0.00047  -0.06741   0.07950   0.01217   0.84614
   D24       -1.30274  -0.00101  -0.10775   0.04776  -0.06041  -1.36315
   D25        3.12507  -0.00097  -0.01732  -0.04598  -0.06317   3.06191
   D26       -1.06215  -0.00058  -0.02573  -0.03962  -0.06534  -1.12748
   D27        1.05472  -0.00117  -0.02096  -0.04886  -0.06984   0.98487
   D28       -1.01190   0.00047   0.02913  -0.01388   0.01530  -0.99660
   D29        1.08406   0.00086   0.02072  -0.00752   0.01313   1.09719
   D30       -3.08226   0.00027   0.02549  -0.01676   0.00862  -3.07363
   D31        1.06533  -0.00053   0.02749   0.00702   0.03505   1.10038
   D32       -3.11615  -0.00068   0.02011   0.00402   0.02454  -3.09161
   D33       -1.04296  -0.00061   0.02383   0.00459   0.02893  -1.01402
   D34       -1.10120   0.00068  -0.01805  -0.00445  -0.02293  -1.12413
   D35        1.00050   0.00053  -0.02543  -0.00745  -0.03344   0.96706
   D36        3.07370   0.00059  -0.02171  -0.00688  -0.02905   3.04465
         Item               Value     Threshold  Converged?
 Maximum Force            0.002815     0.000450     NO 
 RMS     Force            0.001028     0.000300     NO 
 Maximum Displacement     0.626152     0.001800     NO 
 RMS     Displacement     0.155548     0.001200     NO 
 Predicted change in Energy=-3.208381D-03
 GradGradGradGradGradGradGradGradGradGradGradGradGradGradGradGradGradGrad

                          Input orientation:                          
 ---------------------------------------------------------------------
 Center     Atomic      Atomic             Coordinates (Angstroms)
 Number     Number       Type             X           Y           Z
 ---------------------------------------------------------------------
      1          6           0        0.681228   -0.853672    0.293483
      2          1           0        0.398838   -0.703340    1.337343
      3          1           0        1.574017   -1.481505    0.313511
      4          6           0       -0.455056   -1.591106   -0.417819
      5          1           0       -0.275276   -1.540608   -1.494912
      6          1           0       -0.429325   -2.665164   -0.154200
      7          7           0       -1.750034   -1.004600   -0.149835
      8          6           0       -2.242148   -1.324287    1.162588
      9          1           0       -3.179829   -0.801416    1.359663
     10          1           0       -2.437187   -2.406716    1.293401
     11          1           0       -1.539734   -1.022130    1.940133
     12          6           0       -2.724440   -1.325887   -1.159106
     13          1           0       -2.942581   -2.409671   -1.227453
     14          1           0       -3.673448   -0.826873   -0.952106
     15          1           0       -2.388898   -0.992849   -2.142777
     16          6           0        0.994161    0.502802   -0.320382
     17          1           0        0.206987    1.231901   -0.110944
     18          1           0        1.933299    0.912663    0.063248
     19          1           0        1.090280    0.442998   -1.410873
 ---------------------------------------------------------------------
                    Distance matrix (angstroms):
                    1          2          3          4          5
     1  C    0.000000
     2  H    1.091782   0.000000
     3  H    1.091627   1.742073   0.000000
     4  C    1.530000   2.144261   2.159629   0.000000
     5  H    2.141293   3.029375   2.587233   1.093161   0.000000
     6  H    2.171463   2.599866   2.373433   1.106236   1.756663
     7  N    2.475953   2.630609   3.389903   1.446641   2.066748
     8  C    3.085927   2.718624   3.912642   2.400536   3.313259
     9  H    4.005899   3.580079   4.914876   3.347751   4.139013
    10  H    3.624403   3.308543   4.231544   2.742688   3.633000
    11  H    2.769929   2.055005   3.542933   2.657103   3.696919
    12  C    3.732502   4.046564   4.546377   2.402071   2.481385
    13  H    4.226862   4.544757   4.861658   2.741046   2.818034
    14  H    4.529394   4.673366   5.437483   3.350755   3.514488
    15  H    3.921785   4.468391   4.687945   2.659536   2.277535
    16  C    1.521440   2.134770   2.162297   2.548367   2.677036
    17  H    2.176713   2.424768   3.067818   2.915792   3.136041
    18  H    2.177299   2.566975   2.433877   3.493498   3.650234
    19  H    2.180254   3.056939   2.628919   2.740766   2.409668
                    6          7          8          9         10
     6  H    0.000000
     7  N    2.121736   0.000000
     8  C    2.611170   1.437647   0.000000
     9  H    3.651110   2.089062   1.091548   0.000000
    10  H    2.488745   2.126273   1.107612   1.769999   0.000000
    11  H    2.884233   2.100595   1.090532   1.753730   1.772219
    12  C    2.840959   1.439208   2.371259   2.612784   2.695458
    13  H    2.744741   2.134866   2.716792   3.055477   2.571018
    14  H    3.813175   2.091590   2.601533   2.364019   3.011071
    15  H    3.254382   2.092870   3.325180   3.595734   3.716002
    16  C    3.477059   3.135595   4.001394   4.684627   4.779513
    17  H    3.948909   2.972101   3.762213   4.215161   4.712046
    18  H    4.293032   4.157913   4.862803   5.546425   5.624296
    19  H    3.680910   3.428286   4.566297   5.240063   5.279867
                   11         12         13         14         15
    11  H    0.000000
    12  C    3.331827   0.000000
    13  H    3.731869   1.107631   0.000000
    14  H    3.599431   1.092007   1.765002   0.000000
    15  H    4.170382   1.091381   1.775322   1.759350   0.000000
    16  C    3.722361   4.227949   4.980283   4.894251   4.123492
    17  H    3.512635   4.029166   4.942410   4.472570   3.976993
    18  H    4.396372   5.310346   6.039703   5.957562   5.213339
    19  H    4.504755   4.212413   4.943210   4.951378   3.834321
                   16         17         18         19
    16  C    0.000000
    17  H    1.093203   0.000000
    18  H    1.094137   1.764201   0.000000
    19  H    1.096351   1.758519   1.761901   0.000000
 Stoichiometry    C5H13N
 Framework group  C1[X(C5H13N)]
 Deg. of freedom    51
 Full point group                 C1      NOp   1
 Largest Abelian subgroup         C1      NOp   1
 Largest concise Abelian subgroup C1      NOp   1
                         Standard orientation:                         
 ---------------------------------------------------------------------
 Center     Atomic      Atomic             Coordinates (Angstroms)
 Number     Number       Type             X           Y           Z
 ---------------------------------------------------------------------
      1          6           0        1.543657    0.425278    0.430337
      2          1           0        1.355881    1.426184    0.036745
      3          1           0        2.158351    0.565717    1.321447
      4          6           0        0.204756   -0.205291    0.818445
      5          1           0        0.366502   -1.271857    0.995295
      6          1           0       -0.143490    0.214235    1.780984
      7          7           0       -0.794320   -0.067632   -0.218699
      8          6           0       -1.337808    1.261331   -0.291550
      9          1           0       -2.026582    1.349551   -1.133742
     10          1           0       -1.898559    1.543817    0.620900
     11          1           0       -0.556667    2.007743   -0.439695
     12          6           0       -1.841909   -1.048911   -0.113978
     13          1           0       -2.429237   -0.963846    0.821252
     14          1           0       -2.549460   -0.947726   -0.939577
     15          1           0       -1.432815   -2.059785   -0.157436
     16          6           0        2.300352   -0.371366   -0.622066
     17          1           0        1.825309   -0.296521   -1.603811
     18          1           0        3.332049   -0.022750   -0.727918
     19          1           0        2.344672   -1.437585   -0.370676
 ---------------------------------------------------------------------
 Rotational constants (GHZ):           5.8248811           2.0839817           1.8690209
 Standard basis: 6-311+G(2d,2p) (5D, 7F)
 There are   291 symmetry adapted cartesian basis functions of A   symmetry.
 There are   279 symmetry adapted basis functions of A   symmetry.
   279 basis functions,   395 primitive gaussians,   291 cartesian basis functions
    25 alpha electrons       25 beta electrons
       nuclear repulsion energy       263.5222022017 Hartrees.
 NAtoms=   19 NActive=   19 NUniq=   19 SFac= 1.00D+00 NAtFMM=   60 NAOKFM=F Big=F
 Integral buffers will be    131072 words long.
 Raffenetti 2 integral format.
 Two-electron integral symmetry is turned on.
 Nuclear repulsion after empirical dispersion term =      263.5113677183 Hartrees.
 One-electron integrals computed using PRISM.
 NBasis=   279 RedAO= T EigKep=  3.77D-05  NBF=   279
 NBsUse=   279 1.00D-06 EigRej= -1.00D+00 NBFU=   279
 Initial guess from the checkpoint file:  "dimethyl_aminopropyl.chk"
 B after Tr=    -0.000000   -0.000000    0.000000
         Rot=    0.999834   -0.009079   -0.004599    0.015116 Ang=  -2.09 deg.
 ExpMin= 4.38D-02 ExpMax= 6.29D+03 ExpMxC= 9.49D+02 IAcc=2 IRadAn=         4 AccDes= 0.00D+00
 Harris functional with IExCor= 4639 and IRadAn=       4 diagonalized for initial guess.
 HarFok:  IExCor= 4639 AccDes= 0.00D+00 IRadAn=         4 IDoV= 1 UseB2=F ITyADJ=14
 ICtDFT=  3500011 ScaDFX=  1.000000  1.000000  1.000000  1.000000
 FoFCou: FMM=F IPFlag=           0 FMFlag=      100000 FMFlg1=           0
         NFxFlg=           0 DoJE=T BraDBF=F KetDBF=T FulRan=T
         wScrn=  0.000000 ICntrl=       500 IOpCl=  0 I1Cent=   200000004 NGrid=           0
         NMat0=    1 NMatS0=      1 NMatT0=    0 NMatD0=    1 NMtDS0=    0 NMtDT0=    0
 Petite list used in FoFCou.
 Requested convergence on RMS density matrix=1.00D-08 within  32 cycles.
 Requested convergence on MAX density matrix=1.00D-06.
 Requested convergence on             energy=1.00D-06.
 No special actions if energy rises.
 SCF Done:  E(RwB97XD) =  -253.101827839     A.U. after   11 cycles
            NFock= 11  Conv=0.90D-08     -V/T= 2.0046
 QCSCF skips out because SCF is already converged.
 Calling FoFJK, ICntrl=      2127 FMM=F ISym2X=0 I1Cent= 0 IOpClX= 0 NMat=1 NMatS=1 NMatT=0.
 ***** Axes restored to original set *****
 -------------------------------------------------------------------
 Center     Atomic                   Forces (Hartrees/Bohr)
 Number     Number              X              Y              Z
 -------------------------------------------------------------------
      1        6          -0.002678021    0.000157701    0.002405593
      2        1           0.002389513   -0.001475773    0.000879384
      3        1          -0.000525237   -0.000671974   -0.002661155
      4        6           0.007494237   -0.002151799   -0.000907900
      5        1          -0.000477476    0.000075633    0.000376265
      6        1          -0.001610037    0.001171404    0.000888115
      7        7          -0.000781002    0.006441346   -0.001618212
      8        6          -0.004230613   -0.003839238    0.008756219
      9        1           0.000759128    0.000638280   -0.001627283
     10        1           0.000960511    0.001050535   -0.000919179
     11        1           0.000044183   -0.000026818   -0.001722650
     12        6          -0.006047506   -0.004525251   -0.005947419
     13        1           0.001521812    0.001134704    0.000669548
     14        1           0.001591039    0.000875604    0.001308378
     15        1           0.001241641    0.000066030    0.001241578
     16        6           0.001678652    0.006486969   -0.003734778
     17        1           0.000408055   -0.002777560   -0.000384351
     18        1          -0.002142665   -0.001243946    0.000424035
     19        1           0.000403787   -0.001385848    0.002573814
 -------------------------------------------------------------------
 Cartesian Forces:  Max     0.008756219 RMS     0.002797793

 GradGradGradGradGradGradGradGradGradGradGradGradGradGradGradGradGradGrad
 Berny optimization.
 Using GEDIIS/GDIIS optimizer.
 FormGI is forming the generalized inverse of G from B-inverse, IUseBI=4.
 Internal  Forces:  Max     0.005423753 RMS     0.001467838
 Search for a local minimum.
 Step number   4 out of a maximum of   97
 All quantities printed in internal units (Hartrees-Bohrs-Radians)
 Mixed Optimization -- RFO/linear search
 Update second derivatives using D2CorX and points    3    4
 DE= -2.87D-03 DEPred=-3.21D-03 R= 8.96D-01
 TightC=F SS=  1.41D+00  RLast= 1.00D+00 DXNew= 1.4270D+00 3.0095D+00
 Trust test= 8.96D-01 RLast= 1.00D+00 DXMaxT set to 1.43D+00
 ITU=  1  1  1  0
 Use linear search instead of GDIIS.
     Eigenvalues ---    0.00129   0.00308   0.00431   0.00437   0.00538
     Eigenvalues ---    0.02319   0.03547   0.04230   0.04802   0.05299
     Eigenvalues ---    0.05319   0.05445   0.06768   0.06834   0.07062
     Eigenvalues ---    0.07142   0.08624   0.09235   0.12373   0.12916
     Eigenvalues ---    0.15751   0.16000   0.16000   0.16000   0.16000
     Eigenvalues ---    0.16000   0.16050   0.16349   0.16566   0.17685
     Eigenvalues ---    0.18539   0.21788   0.24982   0.28433   0.29870
     Eigenvalues ---    0.32316   0.32433   0.33920   0.34781   0.34928
     Eigenvalues ---    0.34997   0.35014   0.35041   0.35077   0.35149
     Eigenvalues ---    0.35194   0.35342   0.35669   0.37223   0.37232
     Eigenvalues ---    0.37814
 RFO step:  Lambda=-2.17931418D-03 EMin= 1.28874497D-03
 Quartic linear search produced a step of  0.31884.
 Iteration  1 RMS(Cart)=  0.08902898 RMS(Int)=  0.00413370
 Iteration  2 RMS(Cart)=  0.00622494 RMS(Int)=  0.00010094
 Iteration  3 RMS(Cart)=  0.00002446 RMS(Int)=  0.00009932
 Iteration  4 RMS(Cart)=  0.00000000 RMS(Int)=  0.00009932
 Variable       Old X    -DE/DX   Delta X   Delta X   Delta X     New X
                                 (Linear)    (Quad)   (Total)
    R1        2.06317   0.00002   0.00185  -0.00003   0.00182   2.06499
    R2        2.06288  -0.00009   0.00018  -0.00028  -0.00010   2.06277
    R3        2.89128  -0.00102  -0.00098  -0.00366  -0.00464   2.88664
    R4        2.87510   0.00149  -0.00880   0.00665  -0.00215   2.87295
    R5        2.06577  -0.00045   0.00074  -0.00146  -0.00072   2.06505
    R6        2.09048  -0.00096   0.00029  -0.00287  -0.00258   2.08790
    R7        2.73376   0.00518  -0.00782   0.01737   0.00954   2.74330
    R8        2.71676   0.00542  -0.00861   0.01767   0.00905   2.72581
    R9        2.71971   0.00361  -0.00677   0.01212   0.00536   2.72507
   R10        2.06273  -0.00064   0.00107  -0.00203  -0.00096   2.06177
   R11        2.09308  -0.00130   0.00197  -0.00404  -0.00207   2.09101
   R12        2.06081  -0.00121   0.00164  -0.00362  -0.00199   2.05882
   R13        2.09312  -0.00145   0.00223  -0.00449  -0.00226   2.09086
   R14        2.06359  -0.00074   0.00117  -0.00232  -0.00115   2.06245
   R15        2.06241  -0.00072   0.00069  -0.00222  -0.00153   2.06088
   R16        2.06585  -0.00222   0.00046  -0.00617  -0.00572   2.06014
   R17        2.06762  -0.00216   0.00072  -0.00604  -0.00533   2.06229
   R18        2.07180  -0.00245   0.00144  -0.00695  -0.00551   2.06629
    A1        1.84750  -0.00025   0.00072  -0.00136  -0.00058   1.84692
    A2        1.89523   0.00114  -0.00218   0.01621   0.01404   1.90927
    A3        1.89252   0.00049   0.00109   0.01283   0.01385   1.90637
    A4        1.91635  -0.00095   0.00331  -0.01922  -0.01597   1.90038
    A5        1.93046   0.00062   0.00263  -0.00377  -0.00135   1.92911
    A6        1.97675  -0.00096  -0.00525  -0.00356  -0.00894   1.96781
    A7        1.88985  -0.00085   0.00110  -0.00402  -0.00284   1.88701
    A8        1.91761  -0.00055  -0.00456   0.00502   0.00046   1.91806
    A9        1.96414   0.00408  -0.00638   0.01898   0.01260   1.97674
   A10        1.85024   0.00092  -0.00195   0.00417   0.00213   1.85237
   A11        1.88705  -0.00189   0.00839  -0.01693  -0.00854   1.87851
   A12        1.95014  -0.00191   0.00400  -0.00849  -0.00463   1.94551
   A13        1.96641   0.00143   0.00174  -0.00026   0.00091   1.96732
   A14        1.96671  -0.00179   0.01282  -0.01913  -0.00659   1.96012
   A15        1.93777  -0.00019   0.00897  -0.00942  -0.00081   1.93695
   A16        1.93088  -0.00197   0.00504  -0.01298  -0.00798   1.92290
   A17        1.96644  -0.00062   0.00187  -0.00271  -0.00085   1.96559
   A18        1.94851  -0.00122   0.00200  -0.00938  -0.00742   1.94109
   A19        1.87081   0.00168  -0.00426   0.01272   0.00844   1.87926
   A20        1.86696   0.00146  -0.00194   0.00791   0.00591   1.87287
   A21        1.87547   0.00096  -0.00325   0.00629   0.00303   1.87850
   A22        1.97691  -0.00091   0.00328  -0.00474  -0.00148   1.97543
   A23        1.93204  -0.00218   0.00328  -0.01372  -0.01048   1.92156
   A24        1.93455  -0.00164   0.00470  -0.01245  -0.00782   1.92673
   A25        1.86259   0.00210  -0.00616   0.01635   0.01018   1.87277
   A26        1.87918   0.00123  -0.00286   0.00700   0.00410   1.88328
   A27        1.87401   0.00176  -0.00293   0.00980   0.00679   1.88080
   A28        1.94897  -0.00162  -0.00018  -0.01022  -0.01043   1.93854
   A29        1.94879  -0.00071   0.00139  -0.00392  -0.00254   1.94625
   A30        1.95058  -0.00140   0.00178  -0.00929  -0.00754   1.94304
   A31        1.87659   0.00131  -0.00019   0.00866   0.00846   1.88505
   A32        1.86509   0.00152  -0.00137   0.00857   0.00715   1.87224
   A33        1.86913   0.00119  -0.00164   0.00800   0.00635   1.87549
    D1        2.92127   0.00072   0.07190   0.09351   0.16544   3.08672
    D2       -1.34854   0.00105   0.06771   0.09893   0.16664  -1.18190
    D3        0.83643   0.00113   0.06459   0.10560   0.17026   1.00669
    D4       -1.34949   0.00054   0.07335   0.09049   0.16376  -1.18573
    D5        0.66387   0.00086   0.06916   0.09591   0.16496   0.82883
    D6        2.84885   0.00095   0.06604   0.10258   0.16858   3.01743
    D7        0.81799  -0.00008   0.07553   0.06828   0.14385   0.96184
    D8        2.83136   0.00025   0.07135   0.07370   0.14505   2.97640
    D9       -1.26685   0.00034   0.06823   0.08037   0.14867  -1.11818
   D10       -0.85584  -0.00090  -0.07553  -0.11104  -0.18655  -1.04239
   D11        1.24585  -0.00084  -0.07494  -0.10976  -0.18469   1.06116
   D12       -2.94407  -0.00077  -0.07487  -0.10862  -0.18349  -3.12757
   D13       -2.87443  -0.00122  -0.07843  -0.11473  -0.19316  -3.06759
   D14       -0.77274  -0.00116  -0.07784  -0.11345  -0.19130  -0.96404
   D15        1.32052  -0.00109  -0.07777  -0.11231  -0.19010   1.13042
   D16        1.24898   0.00026  -0.08096  -0.08391  -0.16486   1.08412
   D17       -2.93252   0.00033  -0.08037  -0.08263  -0.16300  -3.09551
   D18       -0.83925   0.00040  -0.08030  -0.08149  -0.16180  -1.00105
   D19       -1.32097  -0.00059   0.01174  -0.06408  -0.05233  -1.37330
   D20        2.75293  -0.00002  -0.01140  -0.03512  -0.04654   2.70639
   D21        2.87575  -0.00078   0.00861  -0.05947  -0.05077   2.82498
   D22        0.66646  -0.00021  -0.01453  -0.03050  -0.04498   0.62149
   D23        0.84614   0.00033   0.00388  -0.04949  -0.04566   0.80048
   D24       -1.36315   0.00089  -0.01926  -0.02052  -0.03987  -1.40301
   D25        3.06191   0.00054  -0.02014   0.02277   0.00268   3.06459
   D26       -1.12748   0.00088  -0.02083   0.02811   0.00731  -1.12018
   D27        0.98487   0.00080  -0.02227   0.02753   0.00527   0.99014
   D28       -0.99660  -0.00089   0.00488  -0.01099  -0.00612  -1.00273
   D29        1.09719  -0.00055   0.00419  -0.00565  -0.00150   1.09569
   D30       -3.07363  -0.00063   0.00275  -0.00624  -0.00354  -3.07717
   D31        1.10038  -0.00002   0.01118  -0.00360   0.00774   1.10812
   D32       -3.09161   0.00050   0.00782   0.00440   0.01234  -3.07927
   D33       -1.01402   0.00023   0.00923  -0.00023   0.00916  -1.00486
   D34       -1.12413  -0.00035  -0.00731   0.01988   0.01243  -1.11170
   D35        0.96706   0.00017  -0.01066   0.02788   0.01703   0.98409
   D36        3.04465  -0.00010  -0.00926   0.02325   0.01386   3.05850
         Item               Value     Threshold  Converged?
 Maximum Force            0.005424     0.000450     NO 
 RMS     Force            0.001468     0.000300     NO 
 Maximum Displacement     0.328868     0.001800     NO 
 RMS     Displacement     0.088320     0.001200     NO 
 Predicted change in Energy=-1.716078D-03
 GradGradGradGradGradGradGradGradGradGradGradGradGradGradGradGradGradGrad

                          Input orientation:                          
 ---------------------------------------------------------------------
 Center     Atomic      Atomic             Coordinates (Angstroms)
 Number     Number       Type             X           Y           Z
 ---------------------------------------------------------------------
      1          6           0        0.724677   -0.889412    0.260651
      2          1           0        0.554288   -0.821861    1.337914
      3          1           0        1.630505   -1.486344    0.139481
      4          6           0       -0.443591   -1.625596   -0.392477
      5          1           0       -0.279953   -1.631835   -1.472918
      6          1           0       -0.445065   -2.684192   -0.076071
      7          7           0       -1.727988   -0.995561   -0.145933
      8          6           0       -2.250119   -1.289783    1.166103
      9          1           0       -3.174287   -0.735421    1.336312
     10          1           0       -2.472933   -2.364793    1.304248
     11          1           0       -1.547558   -0.995646    1.945113
     12          6           0       -2.695779   -1.307177   -1.168558
     13          1           0       -2.945635   -2.383885   -1.218236
     14          1           0       -3.625379   -0.766495   -0.982390
     15          1           0       -2.324754   -1.003561   -2.148100
     16          6           0        0.927695    0.507984   -0.302713
     17          1           0        0.054798    1.134945   -0.119791
     18          1           0        1.794434    0.997698    0.144412
     19          1           0        1.087497    0.481477   -1.384082
 ---------------------------------------------------------------------
                    Distance matrix (angstroms):
                    1          2          3          4          5
     1  C    0.000000
     2  H    1.092745   0.000000
     3  H    1.091573   1.742418   0.000000
     4  C    1.527545   2.153138   2.145750   0.000000
     5  H    2.136758   3.041840   2.504166   1.092780   0.000000
     6  H    2.168620   2.542899   2.406095   1.104871   1.756672
     7  N    2.488402   2.727775   3.406142   1.451690   2.064591
     8  C    3.135212   2.848363   4.018934   2.409458   3.311040
     9  H    4.047553   3.729577   5.008225   3.352286   4.131888
    10  H    3.672949   3.397917   4.355061   2.746547   3.613730
    11  H    2.830504   2.194686   3.687977   2.660809   3.700607
    12  C    3.730508   4.132901   4.523251   2.403340   2.456472
    13  H    4.229864   4.606873   4.856957   2.741734   2.781422
    14  H    4.525843   4.780846   5.422278   3.348108   3.490173
    15  H    3.887691   4.524841   4.594581   2.647246   2.243170
    16  C    1.520300   2.144663   2.160283   2.537843   2.721510
    17  H    2.165986   2.490679   3.069401   2.818392   3.098077
    18  H    2.172343   2.504637   2.489450   3.489796   3.719312
    19  H    2.171663   3.064680   2.547238   2.786982   2.518710
                    6          7          8          9         10
     6  H    0.000000
     7  N    2.121850   0.000000
     8  C    2.597228   1.442438   0.000000
     9  H    3.638844   2.087224   1.091043   0.000000
    10  H    2.473772   2.129030   1.106516   1.774198   0.000000
    11  H    2.855146   2.098816   1.089479   1.756304   1.772453
    12  C    2.855768   1.442042   2.376880   2.613474   2.698701
    13  H    2.765425   2.135402   2.714014   3.048840   2.566464
    14  H    3.822745   2.086199   2.604072   2.362377   3.018510
    15  H    3.263596   2.089226   3.327376   3.596488   3.713976
    16  C    3.482216   3.055795   3.935466   4.588978   4.732805
    17  H    3.851958   2.778141   3.584058   4.005683   4.545930
    18  H    4.315122   4.057689   4.757608   5.395602   5.555357
    19  H    3.752479   3.411980   4.558562   5.200403   5.291979
                   11         12         13         14         15
    11  H    0.000000
    12  C    3.333228   0.000000
    13  H    3.726741   1.106434   0.000000
    14  H    3.597238   1.091400   1.770205   0.000000
    15  H    4.166351   1.090570   1.776355   1.762585   0.000000
    16  C    3.666129   4.144160   4.919733   4.776687   4.033441
    17  H    3.372060   3.824860   4.753036   4.231224   3.788075
    18  H    4.287757   5.215204   5.979981   5.810029   5.121363
    19  H    4.495436   4.190336   4.950148   4.891829   3.799015
                   16         17         18         19
    16  C    0.000000
    17  H    1.090178   0.000000
    18  H    1.091319   1.764929   0.000000
    19  H    1.093434   1.758386   1.761402   0.000000
 Stoichiometry    C5H13N
 Framework group  C1[X(C5H13N)]
 Deg. of freedom    51
 Full point group                 C1      NOp   1
 Largest Abelian subgroup         C1      NOp   1
 Largest concise Abelian subgroup C1      NOp   1
                         Standard orientation:                         
 ---------------------------------------------------------------------
 Center     Atomic      Atomic             Coordinates (Angstroms)
 Number     Number       Type             X           Y           Z
 ---------------------------------------------------------------------
      1          6           0        1.574092    0.391376    0.466945
      2          1           0        1.462725    1.442785    0.190854
      3          1           0        2.218462    0.381684    1.347982
      4          6           0        0.209450   -0.180741    0.846192
      5          1           0        0.335335   -1.244275    1.063486
      6          1           0       -0.145895    0.284135    1.783401
      7          7           0       -0.776327   -0.062017   -0.212841
      8          6           0       -1.336134    1.264039   -0.306746
      9          1           0       -2.011106    1.327856   -1.161565
     10          1           0       -1.909298    1.548929    0.595860
     11          1           0       -0.557018    2.011511   -0.452447
     12          6           0       -1.816421   -1.055166   -0.106316
     13          1           0       -2.420048   -0.956574    0.815698
     14          1           0       -2.500788   -0.973744   -0.952581
     15          1           0       -1.387463   -2.057730   -0.120603
     16          6           0        2.228619   -0.360971   -0.680610
     17          1           0        1.626915   -0.293605   -1.587198
     18          1           0        3.220875    0.034555   -0.904135
     19          1           0        2.343956   -1.422619   -0.445664
 ---------------------------------------------------------------------
 Rotational constants (GHZ):           5.6930100           2.1110157           1.9124637
 Standard basis: 6-311+G(2d,2p) (5D, 7F)
 There are   291 symmetry adapted cartesian basis functions of A   symmetry.
 There are   279 symmetry adapted basis functions of A   symmetry.
   279 basis functions,   395 primitive gaussians,   291 cartesian basis functions
    25 alpha electrons       25 beta electrons
       nuclear repulsion energy       263.8292544738 Hartrees.
 NAtoms=   19 NActive=   19 NUniq=   19 SFac= 1.00D+00 NAtFMM=   60 NAOKFM=F Big=F
 Integral buffers will be    131072 words long.
 Raffenetti 2 integral format.
 Two-electron integral symmetry is turned on.
 Nuclear repulsion after empirical dispersion term =      263.8182681477 Hartrees.
 One-electron integrals computed using PRISM.
 NBasis=   279 RedAO= T EigKep=  3.92D-05  NBF=   279
 NBsUse=   279 1.00D-06 EigRej= -1.00D+00 NBFU=   279
 Initial guess from the checkpoint file:  "dimethyl_aminopropyl.chk"
 B after Tr=     0.000000    0.000000    0.000000
         Rot=    0.999986   -0.001828   -0.004863    0.001217 Ang=  -0.61 deg.
 ExpMin= 4.38D-02 ExpMax= 6.29D+03 ExpMxC= 9.49D+02 IAcc=2 IRadAn=         4 AccDes= 0.00D+00
 Harris functional with IExCor= 4639 and IRadAn=       4 diagonalized for initial guess.
 HarFok:  IExCor= 4639 AccDes= 0.00D+00 IRadAn=         4 IDoV= 1 UseB2=F ITyADJ=14
 ICtDFT=  3500011 ScaDFX=  1.000000  1.000000  1.000000  1.000000
 FoFCou: FMM=F IPFlag=           0 FMFlag=      100000 FMFlg1=           0
         NFxFlg=           0 DoJE=T BraDBF=F KetDBF=T FulRan=T
         wScrn=  0.000000 ICntrl=       500 IOpCl=  0 I1Cent=   200000004 NGrid=           0
         NMat0=    1 NMatS0=      1 NMatT0=    0 NMatD0=    1 NMtDS0=    0 NMtDT0=    0
 Petite list used in FoFCou.
 Requested convergence on RMS density matrix=1.00D-08 within  32 cycles.
 Requested convergence on MAX density matrix=1.00D-06.
 Requested convergence on             energy=1.00D-06.
 No special actions if energy rises.
 SCF Done:  E(RwB97XD) =  -253.103403577     A.U. after   11 cycles
            NFock= 11  Conv=0.63D-08     -V/T= 2.0046
 QCSCF skips out because SCF is already converged.
 Calling FoFJK, ICntrl=      2127 FMM=F ISym2X=0 I1Cent= 0 IOpClX= 0 NMat=1 NMatS=1 NMatT=0.
 ***** Axes restored to original set *****
 -------------------------------------------------------------------
 Center     Atomic                   Forces (Hartrees/Bohr)
 Number     Number              X              Y              Z
 -------------------------------------------------------------------
      1        6          -0.002740502   -0.000249841    0.002754958
      2        1           0.000759900   -0.000565275    0.000312709
      3        1          -0.000129043   -0.000510471   -0.001388431
      4        6           0.003666035   -0.001756381   -0.001555743
      5        1           0.000172028    0.000213356    0.000091140
      6        1          -0.000884747    0.000778655    0.000443441
      7        7           0.000605778    0.003251854   -0.000570086
      8        6          -0.001989525   -0.002139002    0.004729255
      9        1           0.000504330    0.000214880   -0.000749637
     10        1           0.000543731    0.000897725   -0.000746960
     11        1           0.000696977    0.000293053   -0.000837558
     12        6          -0.004080885   -0.002899883   -0.003262898
     13        1           0.000899130    0.000889784    0.000423890
     14        1           0.000698216    0.000272690    0.000410985
     15        1           0.000421550    0.000133635    0.000610558
     16        6           0.001258982    0.003682062   -0.001697100
     17        1          -0.000166782   -0.001065885    0.000090998
     18        1          -0.000355588   -0.000594010    0.000269441
     19        1           0.000120415   -0.000846946    0.000671037
 -------------------------------------------------------------------
 Cartesian Forces:  Max     0.004729255 RMS     0.001593049

 GradGradGradGradGradGradGradGradGradGradGradGradGradGradGradGradGradGrad
 Berny optimization.
 Using GEDIIS/GDIIS optimizer.
 FormGI is forming the generalized inverse of G from B-inverse, IUseBI=4.
 Internal  Forces:  Max     0.003018244 RMS     0.000733242
 Search for a local minimum.
 Step number   5 out of a maximum of   97
 All quantities printed in internal units (Hartrees-Bohrs-Radians)
 Mixed Optimization -- En-DIIS/RFO-DIIS
 Update second derivatives using D2CorX and points    4    5
 DE= -1.58D-03 DEPred=-1.72D-03 R= 9.18D-01
 TightC=F SS=  1.41D+00  RLast= 7.35D-01 DXNew= 2.4000D+00 2.2035D+00
 Trust test= 9.18D-01 RLast= 7.35D-01 DXMaxT set to 2.20D+00
 ITU=  1  1  1  1  0
 Use linear search instead of GDIIS.
     Eigenvalues ---    0.00217   0.00314   0.00432   0.00448   0.00584
     Eigenvalues ---    0.02216   0.03362   0.04301   0.04795   0.05351
     Eigenvalues ---    0.05408   0.05413   0.06791   0.06870   0.07142
     Eigenvalues ---    0.07205   0.08491   0.09167   0.12191   0.12989
     Eigenvalues ---    0.13486   0.15877   0.16000   0.16000   0.16000
     Eigenvalues ---    0.16000   0.16014   0.16075   0.16535   0.17609
     Eigenvalues ---    0.18581   0.21782   0.25013   0.27043   0.29424
     Eigenvalues ---    0.31161   0.32467   0.33606   0.34774   0.34916
     Eigenvalues ---    0.34975   0.35002   0.35030   0.35077   0.35149
     Eigenvalues ---    0.35194   0.35342   0.35651   0.37212   0.37231
     Eigenvalues ---    0.37537
 RFO step:  Lambda=-7.13317711D-04 EMin= 2.16592267D-03
 Quartic linear search produced a step of  0.28777.
 Iteration  1 RMS(Cart)=  0.07903034 RMS(Int)=  0.00185021
 Iteration  2 RMS(Cart)=  0.00274032 RMS(Int)=  0.00004954
 Iteration  3 RMS(Cart)=  0.00000271 RMS(Int)=  0.00004948
 Iteration  4 RMS(Cart)=  0.00000000 RMS(Int)=  0.00004948
 Variable       Old X    -DE/DX   Delta X   Delta X   Delta X     New X
                                 (Linear)    (Quad)   (Total)
    R1        2.06499   0.00015   0.00052  -0.00105  -0.00053   2.06446
    R2        2.06277   0.00033  -0.00003   0.00116   0.00113   2.06390
    R3        2.88664  -0.00060  -0.00134  -0.00008  -0.00142   2.88522
    R4        2.87295   0.00144  -0.00062   0.00661   0.00599   2.87894
    R5        2.06505  -0.00007  -0.00021   0.00013  -0.00007   2.06498
    R6        2.08790  -0.00062  -0.00074  -0.00175  -0.00249   2.08541
    R7        2.74330   0.00191   0.00275   0.01013   0.01287   2.75617
    R8        2.72581   0.00242   0.00261   0.01138   0.01399   2.73980
    R9        2.72507   0.00302   0.00154   0.01114   0.01269   2.73775
   R10        2.06177  -0.00044  -0.00027  -0.00146  -0.00174   2.06004
   R11        2.09101  -0.00107  -0.00060  -0.00392  -0.00451   2.08650
   R12        2.05882  -0.00007  -0.00057  -0.00120  -0.00177   2.05705
   R13        2.09086  -0.00109  -0.00065  -0.00413  -0.00478   2.08608
   R14        2.06245  -0.00039  -0.00033  -0.00129  -0.00162   2.06083
   R15        2.06088  -0.00037  -0.00044  -0.00102  -0.00146   2.05942
   R16        2.06014  -0.00046  -0.00164  -0.00111  -0.00275   2.05738
   R17        2.06229  -0.00044  -0.00153  -0.00096  -0.00249   2.05980
   R18        2.06629  -0.00063  -0.00159  -0.00164  -0.00323   2.06306
    A1        1.84692   0.00019  -0.00017   0.00031   0.00030   1.84723
    A2        1.90927   0.00013   0.00404   0.01116   0.01511   1.92438
    A3        1.90637   0.00004   0.00399   0.00682   0.01066   1.91703
    A4        1.90038  -0.00093  -0.00460  -0.01471  -0.01938   1.88100
    A5        1.92911  -0.00013  -0.00039  -0.00833  -0.00889   1.92022
    A6        1.96781   0.00067  -0.00257   0.00466   0.00188   1.96969
    A7        1.88701   0.00030  -0.00082   0.00296   0.00213   1.88914
    A8        1.91806  -0.00017   0.00013  -0.00385  -0.00369   1.91437
    A9        1.97674   0.00022   0.00363   0.00726   0.01088   1.98762
   A10        1.85237   0.00029   0.00061   0.00512   0.00572   1.85809
   A11        1.87851   0.00002  -0.00246   0.00148  -0.00103   1.87748
   A12        1.94551  -0.00063  -0.00133  -0.01242  -0.01375   1.93176
   A13        1.96732  -0.00088   0.00026  -0.00282  -0.00263   1.96470
   A14        1.96012   0.00001  -0.00190  -0.00660  -0.00853   1.95159
   A15        1.93695   0.00053  -0.00023  -0.00347  -0.00376   1.93319
   A16        1.92290  -0.00070  -0.00230  -0.00504  -0.00737   1.91553
   A17        1.96559  -0.00051  -0.00025  -0.00415  -0.00441   1.96118
   A18        1.94109  -0.00134  -0.00214  -0.00637  -0.00855   1.93255
   A19        1.87926   0.00088   0.00243   0.00651   0.00893   1.88819
   A20        1.87287   0.00093   0.00170   0.00396   0.00561   1.87848
   A21        1.87850   0.00090   0.00087   0.00608   0.00694   1.88544
   A22        1.97543  -0.00068  -0.00043  -0.00588  -0.00633   1.96910
   A23        1.92156  -0.00069  -0.00302  -0.00324  -0.00628   1.91528
   A24        1.92673  -0.00068  -0.00225  -0.00569  -0.00798   1.91875
   A25        1.87277   0.00092   0.00293   0.00806   0.01098   1.88375
   A26        1.88328   0.00065   0.00118   0.00416   0.00530   1.88858
   A27        1.88080   0.00061   0.00195   0.00350   0.00541   1.88622
   A28        1.93854  -0.00100  -0.00300  -0.00769  -0.01074   1.92779
   A29        1.94625  -0.00038  -0.00073  -0.00206  -0.00281   1.94344
   A30        1.94304  -0.00089  -0.00217  -0.00714  -0.00936   1.93368
   A31        1.88505   0.00081   0.00243   0.00670   0.00913   1.89418
   A32        1.87224   0.00092   0.00206   0.00583   0.00781   1.88005
   A33        1.87549   0.00069   0.00183   0.00544   0.00725   1.88274
    D1        3.08672   0.00043   0.04761   0.02391   0.07159  -3.12487
    D2       -1.18190   0.00086   0.04795   0.02959   0.07761  -1.10429
    D3        1.00669   0.00006   0.04900   0.01560   0.06465   1.07134
    D4       -1.18573   0.00022   0.04712   0.02226   0.06931  -1.11642
    D5        0.82883   0.00065   0.04747   0.02794   0.07533   0.90416
    D6        3.01743  -0.00015   0.04851   0.01394   0.06237   3.07980
    D7        0.96184  -0.00017   0.04140   0.00413   0.04555   1.00739
    D8        2.97640   0.00026   0.04174   0.00982   0.05157   3.02797
    D9       -1.11818  -0.00054   0.04278  -0.00418   0.03861  -1.07958
   D10       -1.04239  -0.00038  -0.05368  -0.03030  -0.08400  -1.12639
   D11        1.06116  -0.00030  -0.05315  -0.02845  -0.08162   0.97953
   D12       -3.12757  -0.00028  -0.05280  -0.02780  -0.08065   3.07497
   D13       -3.06759  -0.00056  -0.05559  -0.02993  -0.08548   3.13011
   D14       -0.96404  -0.00048  -0.05505  -0.02808  -0.08311  -1.04715
   D15        1.13042  -0.00046  -0.05471  -0.02743  -0.08213   1.04829
   D16        1.08412   0.00027  -0.04744  -0.00811  -0.05552   1.02860
   D17       -3.09551   0.00035  -0.04690  -0.00625  -0.05315   3.13452
   D18       -1.00105   0.00037  -0.04656  -0.00560  -0.05217  -1.05322
   D19       -1.37330   0.00093  -0.01506   0.10116   0.08612  -1.28718
   D20        2.70639   0.00092  -0.01339   0.11357   0.10018   2.80657
   D21        2.82498   0.00040  -0.01461   0.09205   0.07746   2.90245
   D22        0.62149   0.00039  -0.01294   0.10447   0.09153   0.71301
   D23        0.80048   0.00037  -0.01314   0.09178   0.07863   0.87911
   D24       -1.40301   0.00037  -0.01147   0.10420   0.09269  -1.31032
   D25        3.06459  -0.00004   0.00077   0.01252   0.01332   3.07791
   D26       -1.12018   0.00025   0.00210   0.01452   0.01663  -1.10355
   D27        0.99014   0.00010   0.00152   0.01489   0.01640   1.00654
   D28       -1.00273  -0.00030  -0.00176  -0.00140  -0.00315  -1.00588
   D29        1.09569  -0.00001  -0.00043   0.00060   0.00016   1.09585
   D30       -3.07717  -0.00016  -0.00102   0.00096  -0.00007  -3.07724
   D31        1.10812  -0.00051   0.00223  -0.01367  -0.01142   1.09670
   D32       -3.07927  -0.00028   0.00355  -0.00960  -0.00605  -3.08532
   D33       -1.00486  -0.00038   0.00264  -0.01084  -0.00818  -1.01304
   D34       -1.11170   0.00023   0.00358  -0.00187   0.00171  -1.11000
   D35        0.98409   0.00047   0.00490   0.00220   0.00707   0.99117
   D36        3.05850   0.00036   0.00399   0.00096   0.00494   3.06344
         Item               Value     Threshold  Converged?
 Maximum Force            0.003018     0.000450     NO 
 RMS     Force            0.000733     0.000300     NO 
 Maximum Displacement     0.249458     0.001800     NO 
 RMS     Displacement     0.079147     0.001200     NO 
 Predicted change in Energy=-4.862367D-04
 GradGradGradGradGradGradGradGradGradGradGradGradGradGradGradGradGradGrad

                          Input orientation:                          
 ---------------------------------------------------------------------
 Center     Atomic      Atomic             Coordinates (Angstroms)
 Number     Number       Type             X           Y           Z
 ---------------------------------------------------------------------
      1          6           0        0.726328   -0.917590    0.245763
      2          1           0        0.593787   -0.929931    1.330090
      3          1           0        1.624287   -1.507161    0.048497
      4          6           0       -0.447824   -1.613647   -0.438319
      5          1           0       -0.273643   -1.597589   -1.516969
      6          1           0       -0.474162   -2.676236   -0.141605
      7          7           0       -1.736830   -0.977652   -0.190922
      8          6           0       -2.226057   -1.215883    1.152930
      9          1           0       -3.156181   -0.669099    1.308711
     10          1           0       -2.418695   -2.285712    1.346456
     11          1           0       -1.508809   -0.863639    1.892122
     12          6           0       -2.726850   -1.366812   -1.174439
     13          1           0       -2.948541   -2.448037   -1.154157
     14          1           0       -3.658209   -0.829634   -0.991969
     15          1           0       -2.378413   -1.109351   -2.174423
     16          6           0        0.926616    0.514310   -0.234344
     17          1           0        0.030968    1.105675   -0.051549
     18          1           0        1.765346    0.989727    0.274196
     19          1           0        1.127736    0.538803   -1.307105
 ---------------------------------------------------------------------
                    Distance matrix (angstroms):
                    1          2          3          4          5
     1  C    0.000000
     2  H    1.092466   0.000000
     3  H    1.092171   1.742872   0.000000
     4  C    1.526793   2.163259   2.131191   0.000000
     5  H    2.137655   3.050237   2.461910   1.092741   0.000000
     6  H    2.164270   2.521107   2.409639   1.103552   1.759350
     7  N    2.502288   2.783439   3.410983   1.458503   2.069695
     8  C    3.102984   2.839838   4.016188   2.419174   3.329562
     9  H    4.033049   3.759090   5.014316   3.358494   4.141930
    10  H    3.602007   3.303553   4.317007   2.742522   3.643345
    11  H    2.776553   2.177426   3.691797   2.668175   3.699489
    12  C    3.760747   4.182124   4.521909   2.407646   2.487732
    13  H    4.219799   4.585217   4.821035   2.731705   2.830189
    14  H    4.556741   4.845771   5.426452   3.350788   3.510081
    15  H    3.941255   4.598671   4.595784   2.644909   2.258468
    16  C    1.523468   2.155007   2.157101   2.541435   2.746974
    17  H    2.159982   2.523764   3.061958   2.788109   3.089965
    18  H    2.172148   2.484461   2.511033   3.490467   3.749661
    19  H    2.166474   3.065465   2.504034   2.805392   2.563606
                    6          7          8          9         10
     6  H    0.000000
     7  N    2.117062   0.000000
     8  C    2.622516   1.449840   0.000000
     9  H    3.650376   2.087742   1.090124   0.000000
    10  H    2.479525   2.130609   1.104127   1.777286   0.000000
    11  H    2.914112   2.098587   1.088543   1.758423   1.774243
    12  C    2.802846   1.448755   2.385419   2.614797   2.700787
    13  H    2.683261   2.134970   2.713455   3.045235   2.561279
    14  H    3.777727   2.086932   2.607842   2.360283   3.020727
    15  H    3.195881   2.088839   3.332543   3.595966   3.712417
    16  C    3.485737   3.053159   3.854536   4.522246   4.640060
    17  H    3.816559   2.735834   3.454644   3.893334   4.410984
    18  H    4.315967   4.043779   4.644157   5.295598   5.420742
    19  H    3.776366   3.428008   4.514269   5.162700   5.253232
                   11         12         13         14         15
    11  H    0.000000
    12  C    3.337755   0.000000
    13  H    3.723300   1.103905   0.000000
    14  H    3.597091   1.090544   1.774588   0.000000
    15  H    4.165739   1.089799   1.777096   1.764743   0.000000
    16  C    3.514526   4.215473   4.963708   4.837438   4.162139
    17  H    3.166539   3.870353   4.766769   4.270813   3.901032
    18  H    4.095453   5.275571   6.006592   5.859028   5.250962
    19  H    4.376445   4.301954   5.055753   4.987705   3.970105
                   16         17         18         19
    16  C    0.000000
    17  H    1.088721   0.000000
    18  H    1.090001   1.768509   0.000000
    19  H    1.091727   1.760871   1.763631   0.000000
 Stoichiometry    C5H13N
 Framework group  C1[X(C5H13N)]
 Deg. of freedom    51
 Full point group                 C1      NOp   1
 Largest Abelian subgroup         C1      NOp   1
 Largest concise Abelian subgroup C1      NOp   1
                         Standard orientation:                         
 ---------------------------------------------------------------------
 Center     Atomic      Atomic             Coordinates (Angstroms)
 Number     Number       Type             X           Y           Z
 ---------------------------------------------------------------------
      1          6           0        1.577104    0.276566    0.538355
      2          1           0        1.506179    1.365301    0.482592
      3          1           0        2.210842    0.062976    1.401833
      4          6           0        0.202040   -0.329678    0.808105
      5          1           0        0.313648   -1.414681    0.874401
      6          1           0       -0.166319    0.007493    1.792206
      7          7           0       -0.780729   -0.050912   -0.232896
      8          6           0       -1.249357    1.320772   -0.202767
      9          1           0       -1.929998    1.495935   -1.036083
     10          1           0       -1.781910    1.562368    0.733776
     11          1           0       -0.416934    2.014624   -0.305571
     12          6           0       -1.894939   -0.975541   -0.183006
     13          1           0       -2.467874   -0.905226    0.757955
     14          1           0       -2.578568   -0.773320   -1.008259
     15          1           0       -1.533762   -1.998566   -0.286129
     16          6           0        2.224047   -0.265036   -0.730143
     17          1           0        1.592316   -0.066062   -1.594225
     18          1           0        3.199980    0.188686   -0.902747
     19          1           0        2.364132   -1.345639   -0.662747
 ---------------------------------------------------------------------
 Rotational constants (GHZ):           5.7241010           2.0965408           1.9163312
 Standard basis: 6-311+G(2d,2p) (5D, 7F)
 There are   291 symmetry adapted cartesian basis functions of A   symmetry.
 There are   279 symmetry adapted basis functions of A   symmetry.
   279 basis functions,   395 primitive gaussians,   291 cartesian basis functions
    25 alpha electrons       25 beta electrons
       nuclear repulsion energy       263.5931040239 Hartrees.
 NAtoms=   19 NActive=   19 NUniq=   19 SFac= 1.00D+00 NAtFMM=   60 NAOKFM=F Big=F
 Integral buffers will be    131072 words long.
 Raffenetti 2 integral format.
 Two-electron integral symmetry is turned on.
 Nuclear repulsion after empirical dispersion term =      263.5820608151 Hartrees.
 One-electron integrals computed using PRISM.
 NBasis=   279 RedAO= T EigKep=  3.77D-05  NBF=   279
 NBsUse=   279 1.00D-06 EigRej= -1.00D+00 NBFU=   279
 Initial guess from the checkpoint file:  "dimethyl_aminopropyl.chk"
 B after Tr=    -0.000000    0.000000   -0.000000
         Rot=    0.998065   -0.060680    0.000303    0.013569 Ang=  -7.13 deg.
 ExpMin= 4.38D-02 ExpMax= 6.29D+03 ExpMxC= 9.49D+02 IAcc=2 IRadAn=         4 AccDes= 0.00D+00
 Harris functional with IExCor= 4639 and IRadAn=       4 diagonalized for initial guess.
 HarFok:  IExCor= 4639 AccDes= 0.00D+00 IRadAn=         4 IDoV= 1 UseB2=F ITyADJ=14
 ICtDFT=  3500011 ScaDFX=  1.000000  1.000000  1.000000  1.000000
 FoFCou: FMM=F IPFlag=           0 FMFlag=      100000 FMFlg1=           0
         NFxFlg=           0 DoJE=T BraDBF=F KetDBF=T FulRan=T
         wScrn=  0.000000 ICntrl=       500 IOpCl=  0 I1Cent=   200000004 NGrid=           0
         NMat0=    1 NMatS0=      1 NMatT0=    0 NMatD0=    1 NMtDS0=    0 NMtDT0=    0
 Petite list used in FoFCou.
 Requested convergence on RMS density matrix=1.00D-08 within  32 cycles.
 Requested convergence on MAX density matrix=1.00D-06.
 Requested convergence on             energy=1.00D-06.
 No special actions if energy rises.
 SCF Done:  E(RwB97XD) =  -253.103953583     A.U. after   10 cycles
            NFock= 10  Conv=0.99D-08     -V/T= 2.0047
 QCSCF skips out because SCF is already converged.
 Calling FoFJK, ICntrl=      2127 FMM=F ISym2X=0 I1Cent= 0 IOpClX= 0 NMat=1 NMatS=1 NMatT=0.
 ***** Axes restored to original set *****
 -------------------------------------------------------------------
 Center     Atomic                   Forces (Hartrees/Bohr)
 Number     Number              X              Y              Z
 -------------------------------------------------------------------
      1        6          -0.000642082   -0.000137477    0.000129424
      2        1          -0.000112563   -0.000264107   -0.000142371
      3        1           0.000047025   -0.000258414   -0.000123327
      4        6          -0.001746966   -0.000297977    0.000578820
      5        1          -0.000191098    0.000425682    0.000069150
      6        1           0.000126244   -0.000483959    0.000170699
      7        7           0.000916858    0.001357730   -0.000185732
      8        6           0.000768445   -0.000425561   -0.000828239
      9        1           0.000029912   -0.000069074   -0.000205478
     10        1           0.000025571    0.000048073   -0.000053185
     11        1           0.000306753    0.000247191   -0.000035380
     12        6           0.000617889   -0.000653399    0.000563961
     13        1           0.000033790    0.000011464    0.000032300
     14        1           0.000085519   -0.000071491   -0.000015457
     15        1          -0.000004898    0.000004411   -0.000113494
     16        6          -0.000089323   -0.000009786    0.000271551
     17        1          -0.000241728    0.000493206   -0.000072635
     18        1           0.000140465    0.000003059    0.000108417
     19        1          -0.000069811    0.000080428   -0.000149026
 -------------------------------------------------------------------
 Cartesian Forces:  Max     0.001746966 RMS     0.000431381

 GradGradGradGradGradGradGradGradGradGradGradGradGradGradGradGradGradGrad
 Berny optimization.
 Using GEDIIS/GDIIS optimizer.
 FormGI is forming the generalized inverse of G from B-inverse, IUseBI=4.
 Internal  Forces:  Max     0.002408378 RMS     0.000433013
 Search for a local minimum.
 Step number   6 out of a maximum of   97
 All quantities printed in internal units (Hartrees-Bohrs-Radians)
 Mixed Optimization -- En-DIIS/RFO-DIIS
 Swapping is turned off.
 Update second derivatives using D2CorX and points    5    6
 DE= -5.50D-04 DEPred=-4.86D-04 R= 1.13D+00
 TightC=F SS=  1.41D+00  RLast= 3.69D-01 DXNew= 3.7059D+00 1.1076D+00
 Trust test= 1.13D+00 RLast= 3.69D-01 DXMaxT set to 2.20D+00
 ITU=  1  1  1  1  1  0
     Eigenvalues ---    0.00190   0.00300   0.00414   0.00436   0.00525
     Eigenvalues ---    0.02091   0.03501   0.04351   0.04799   0.05354
     Eigenvalues ---    0.05407   0.05515   0.06877   0.06947   0.07228
     Eigenvalues ---    0.07300   0.08474   0.09309   0.12207   0.12971
     Eigenvalues ---    0.14047   0.15944   0.16000   0.16000   0.16000
     Eigenvalues ---    0.16007   0.16059   0.16086   0.16538   0.17617
     Eigenvalues ---    0.18431   0.21805   0.25043   0.28226   0.29483
     Eigenvalues ---    0.32108   0.32978   0.34479   0.34788   0.34921
     Eigenvalues ---    0.34952   0.35009   0.35077   0.35128   0.35159
     Eigenvalues ---    0.35194   0.35502   0.36128   0.37215   0.37261
     Eigenvalues ---    0.37734
 En-DIIS/RFO-DIIS/Sim-DIIS IScMMF=       -3 using points:     6    5
 RFO step:  Lambda=-3.72650908D-04.
 DidBck=F Rises=F RFO-DIIS coefs:    1.88549   -0.88549
 Iteration  1 RMS(Cart)=  0.09997810 RMS(Int)=  0.00272044
 Iteration  2 RMS(Cart)=  0.00425128 RMS(Int)=  0.00005645
 Iteration  3 RMS(Cart)=  0.00000550 RMS(Int)=  0.00005631
 Iteration  4 RMS(Cart)=  0.00000000 RMS(Int)=  0.00005631
 Variable       Old X    -DE/DX   Delta X   Delta X   Delta X     New X
                                 (Linear)    (Quad)   (Total)
    R1        2.06446  -0.00012  -0.00047  -0.00113  -0.00160   2.06287
    R2        2.06390   0.00020   0.00100   0.00013   0.00113   2.06504
    R3        2.88522  -0.00078  -0.00126  -0.00094  -0.00219   2.88303
    R4        2.87894   0.00045   0.00530  -0.00375   0.00155   2.88049
    R5        2.06498  -0.00009  -0.00007   0.00020   0.00013   2.06511
    R6        2.08541   0.00051  -0.00221   0.00339   0.00119   2.08660
    R7        2.75617  -0.00241   0.01140  -0.01484  -0.00344   2.75273
    R8        2.73980  -0.00139   0.01239  -0.01179   0.00059   2.74040
    R9        2.73775  -0.00063   0.01123  -0.01075   0.00049   2.73824
   R10        2.06004  -0.00009  -0.00154   0.00088  -0.00065   2.05938
   R11        2.08650  -0.00006  -0.00400   0.00234  -0.00166   2.08484
   R12        2.05705   0.00026  -0.00157   0.00111  -0.00046   2.05659
   R13        2.08608  -0.00002  -0.00423   0.00253  -0.00170   2.08438
   R14        2.06083  -0.00011  -0.00143   0.00074  -0.00069   2.06014
   R15        2.05942   0.00010  -0.00129   0.00149   0.00020   2.05962
   R16        2.05738   0.00046  -0.00244   0.00283   0.00039   2.05778
   R17        2.05980   0.00016  -0.00221   0.00183  -0.00037   2.05943
   R18        2.06306   0.00014  -0.00286   0.00227  -0.00059   2.06248
    A1        1.84723   0.00007   0.00027  -0.00105  -0.00064   1.84659
    A2        1.92438  -0.00028   0.01338  -0.00730   0.00598   1.93036
    A3        1.91703  -0.00009   0.00944  -0.00609   0.00320   1.92023
    A4        1.88100  -0.00029  -0.01716   0.00865  -0.00854   1.87246
    A5        1.92022   0.00012  -0.00787   0.00631  -0.00167   1.91855
    A6        1.96969   0.00044   0.00166  -0.00022   0.00126   1.97095
    A7        1.88914   0.00060   0.00189  -0.00294  -0.00106   1.88808
    A8        1.91437  -0.00015  -0.00327   0.00112  -0.00213   1.91224
    A9        1.98762  -0.00090   0.00964  -0.00416   0.00547   1.99309
   A10        1.85809   0.00002   0.00506  -0.00059   0.00446   1.86255
   A11        1.87748  -0.00017  -0.00091  -0.00659  -0.00754   1.86995
   A12        1.93176   0.00067  -0.01218   0.01282   0.00065   1.93241
   A13        1.96470  -0.00062  -0.00233  -0.00198  -0.00454   1.96016
   A14        1.95159  -0.00053  -0.00755  -0.00727  -0.01495   1.93664
   A15        1.93319   0.00067  -0.00333  -0.00179  -0.00533   1.92786
   A16        1.91553  -0.00019  -0.00653   0.00241  -0.00415   1.91138
   A17        1.96118   0.00006  -0.00390   0.00203  -0.00189   1.95929
   A18        1.93255  -0.00036  -0.00757   0.00645  -0.00115   1.93140
   A19        1.88819   0.00008   0.00791  -0.00586   0.00203   1.89022
   A20        1.87848   0.00023   0.00496  -0.00326   0.00166   1.88014
   A21        1.88544   0.00021   0.00614  -0.00232   0.00380   1.88924
   A22        1.96910  -0.00009  -0.00560   0.00156  -0.00406   1.96505
   A23        1.91528   0.00002  -0.00556   0.00474  -0.00084   1.91444
   A24        1.91875   0.00009  -0.00707   0.00574  -0.00136   1.91739
   A25        1.88375   0.00001   0.00972  -0.00646   0.00325   1.88701
   A26        1.88858  -0.00000   0.00469  -0.00330   0.00136   1.88994
   A27        1.88622  -0.00002   0.00479  -0.00279   0.00198   1.88820
   A28        1.92779   0.00046  -0.00951   0.00834  -0.00121   1.92658
   A29        1.94344  -0.00020  -0.00249  -0.00003  -0.00252   1.94092
   A30        1.93368   0.00004  -0.00829   0.00476  -0.00356   1.93012
   A31        1.89418  -0.00012   0.00808  -0.00470   0.00338   1.89755
   A32        1.88005  -0.00024   0.00691  -0.00546   0.00139   1.88144
   A33        1.88274   0.00004   0.00642  -0.00355   0.00286   1.88559
    D1       -3.12487  -0.00001   0.06340   0.01363   0.07709  -3.04778
    D2       -1.10429   0.00026   0.06872   0.01188   0.08067  -1.02363
    D3        1.07134   0.00036   0.05725   0.02661   0.08391   1.15526
    D4       -1.11642  -0.00023   0.06138   0.01336   0.07469  -1.04174
    D5        0.90416   0.00004   0.06670   0.01162   0.07826   0.98242
    D6        3.07980   0.00014   0.05523   0.02635   0.08150  -3.12189
    D7        1.00739  -0.00001   0.04034   0.02715   0.06750   1.07489
    D8        3.02797   0.00027   0.04566   0.02541   0.07107   3.09905
    D9       -1.07958   0.00036   0.03419   0.04014   0.07432  -1.00526
   D10       -1.12639   0.00009  -0.07438   0.04238  -0.03201  -1.15840
   D11        0.97953   0.00012  -0.07228   0.04206  -0.03024   0.94929
   D12        3.07497   0.00006  -0.07141   0.04076  -0.03069   3.04428
   D13        3.13011  -0.00002  -0.07569   0.04353  -0.03213   3.09799
   D14       -1.04715   0.00001  -0.07359   0.04322  -0.03036  -1.07751
   D15        1.04829  -0.00004  -0.07273   0.04192  -0.03081   1.01748
   D16        1.02860  -0.00002  -0.04916   0.02822  -0.02092   1.00768
   D17        3.13452   0.00001  -0.04706   0.02790  -0.01915   3.11537
   D18       -1.05322  -0.00005  -0.04620   0.02660  -0.01960  -1.07283
   D19       -1.28718   0.00051   0.07626   0.01722   0.09352  -1.19367
   D20        2.80657   0.00053   0.08871   0.02696   0.11564   2.92220
   D21        2.90245   0.00044   0.06859   0.02807   0.09671   2.99916
   D22        0.71301   0.00046   0.08105   0.03781   0.11883   0.83184
   D23        0.87911   0.00016   0.06963   0.02569   0.09535   0.97446
   D24       -1.31032   0.00017   0.08208   0.03543   0.11747  -1.19285
   D25        3.07791   0.00037   0.01179   0.03152   0.04333   3.12124
   D26       -1.10355   0.00038   0.01472   0.02709   0.04182  -1.06173
   D27        1.00654   0.00043   0.01452   0.03006   0.04458   1.05112
   D28       -1.00588  -0.00029  -0.00279   0.01890   0.01611  -0.98977
   D29        1.09585  -0.00028   0.00014   0.01447   0.01460   1.11045
   D30       -3.07724  -0.00023  -0.00006   0.01745   0.01736  -3.05989
   D31        1.09670  -0.00035  -0.01011  -0.00049  -0.01054   1.08616
   D32       -3.08532  -0.00038  -0.00536  -0.00436  -0.00968  -3.09500
   D33       -1.01304  -0.00034  -0.00725  -0.00139  -0.00860  -1.02164
   D34       -1.11000   0.00036   0.00151   0.00910   0.01058  -1.09942
   D35        0.99117   0.00032   0.00626   0.00523   0.01144   1.00260
   D36        3.06344   0.00036   0.00437   0.00820   0.01252   3.07597
         Item               Value     Threshold  Converged?
 Maximum Force            0.002408     0.000450     NO 
 RMS     Force            0.000433     0.000300     NO 
 Maximum Displacement     0.341302     0.001800     NO 
 RMS     Displacement     0.100320     0.001200     NO 
 Predicted change in Energy=-2.079834D-04
 GradGradGradGradGradGradGradGradGradGradGradGradGradGradGradGradGradGrad

                          Input orientation:                          
 ---------------------------------------------------------------------
 Center     Atomic      Atomic             Coordinates (Angstroms)
 Number     Number       Type             X           Y           Z
 ---------------------------------------------------------------------
      1          6           0        0.724793   -0.959550    0.222780
      2          1           0        0.625503   -1.066397    1.304614
      3          1           0        1.620255   -1.522907   -0.050938
      4          6           0       -0.455957   -1.610069   -0.491509
      5          1           0       -0.269980   -1.565789   -1.567468
      6          1           0       -0.507572   -2.679577   -0.221869
      7          7           0       -1.734489   -0.955300   -0.249534
      8          6           0       -2.184220   -1.114869    1.119856
      9          1           0       -3.130728   -0.592032    1.255432
     10          1           0       -2.331719   -2.174180    1.390528
     11          1           0       -1.464920   -0.683029    1.813053
     12          6           0       -2.744112   -1.432230   -1.173026
     13          1           0       -2.943701   -2.511360   -1.062292
     14          1           0       -3.678190   -0.895740   -1.005210
     15          1           0       -2.424948   -1.246967   -2.198554
     16          6           0        0.903515    0.509539   -0.142312
     17          1           0       -0.001468    1.070134    0.086831
     18          1           0        1.736843    0.952603    0.402600
     19          1           0        1.101948    0.618261   -1.210016
 ---------------------------------------------------------------------
                    Distance matrix (angstroms):
                    1          2          3          4          5
     1  C    0.000000
     2  H    1.091622   0.000000
     3  H    1.092770   1.742256   0.000000
     4  C    1.525632   2.165916   2.124231   0.000000
     5  H    2.135904   3.049612   2.423776   1.092811   0.000000
     6  H    2.162158   2.493262   2.427911   1.104181   1.762841
     7  N    2.504229   2.827946   3.408215   1.456680   2.062628
     8  C    3.048151   2.816209   4.001411   2.414252   3.330068
     9  H    4.008302   3.786385   5.014477   3.352999   4.135317
    10  H    3.490161   3.159070   4.256768   2.716388   3.656589
    11  H    2.720344   2.185257   3.701103   2.681121   3.692569
    12  C    3.768952   4.198432   4.507217   2.394106   2.508934
    13  H    4.185376   4.519887   4.778030   2.706841   2.880640
    14  H    4.571464   4.887349   5.420101   3.340200   3.518664
    15  H    3.983256   4.648660   4.588253   2.631116   2.267996
    16  C    1.524289   2.157419   2.157059   2.542212   2.777615
    17  H    2.159989   2.537884   3.061508   2.779303   3.123603
    18  H    2.170924   2.474887   2.519413   3.489282   3.775024
    19  H    2.164402   3.064055   2.489318   2.812255   2.603849
                    6          7          8          9         10
     6  H    0.000000
     7  N    2.116417   0.000000
     8  C    2.657006   1.450155   0.000000
     9  H    3.663497   2.084795   1.089778   0.000000
    10  H    2.486515   2.128885   1.103249   1.777599   0.000000
    11  H    3.007261   2.097871   1.088302   1.759016   1.775781
    12  C    2.731791   1.449013   2.381492   2.598618   2.700437
    13  H    2.582504   2.131688   2.699772   3.015070   2.550400
    14  H    3.721359   2.086281   2.606889   2.345732   3.030999
    15  H    3.104188   2.088177   3.329751   3.585678   3.708088
    16  C    3.488260   3.019323   3.710240   4.409338   4.474224
    17  H    3.796283   2.686798   3.256653   3.731045   4.201817
    18  H    4.315100   4.014414   4.490394   5.177496   5.225511
    19  H    3.800358   3.382897   4.385310   5.045670   5.133285
                   11         12         13         14         15
    11  H    0.000000
    12  C    3.333811   0.000000
    13  H    3.714457   1.103004   0.000000
    14  H    3.589765   1.090177   1.775658   0.000000
    15  H    4.163252   1.089906   1.777325   1.765798   0.000000
    16  C    3.294716   4.258875   4.977275   4.869437   4.288602
    17  H    2.862711   3.920607   4.775387   4.309930   4.057733
    18  H    3.862118   5.314977   6.004368   5.892443   5.378161
    19  H    4.173860   4.358676   5.116993   5.018352   4.110386
                   16         17         18         19
    16  C    0.000000
    17  H    1.088929   0.000000
    18  H    1.089803   1.770663   0.000000
    19  H    1.091416   1.761683   1.765052   0.000000
 Stoichiometry    C5H13N
 Framework group  C1[X(C5H13N)]
 Deg. of freedom    51
 Full point group                 C1      NOp   1
 Largest Abelian subgroup         C1      NOp   1
 Largest concise Abelian subgroup C1      NOp   1
                         Standard orientation:                         
 ---------------------------------------------------------------------
 Center     Atomic      Atomic             Coordinates (Angstroms)
 Number     Number       Type             X           Y           Z
 ---------------------------------------------------------------------
      1          6           0        1.570431    0.092119    0.605110
      2          1           0        1.540460    1.154746    0.853233
      3          1           0        2.196332   -0.374464    1.369763
      4          6           0        0.179891   -0.525134    0.718901
      5          1           0        0.270724   -1.602164    0.557681
      6          1           0       -0.202232   -0.388829    1.745848
      7          7           0       -0.777500   -0.024066   -0.257957
      8          6           0       -1.127462    1.363648   -0.024026
      9          1           0       -1.827441    1.696661   -0.790022
     10          1           0       -1.595986    1.515790    0.963139
     11          1           0       -0.244846    1.997554   -0.083627
     12          6           0       -1.968533   -0.848840   -0.286700
     13          1           0       -2.507173   -0.848895    0.675842
     14          1           0       -2.649333   -0.484196   -1.056136
     15          1           0       -1.700952   -1.877258   -0.528883
     16          6           0        2.196912   -0.105133   -0.770415
     17          1           0        1.557082    0.318678   -1.542923
     18          1           0        3.176656    0.368518   -0.828960
     19          1           0        2.321775   -1.167638   -0.986472
 ---------------------------------------------------------------------
 Rotational constants (GHZ):           5.7920403           2.1144383           1.9440322
 Standard basis: 6-311+G(2d,2p) (5D, 7F)
 There are   291 symmetry adapted cartesian basis functions of A   symmetry.
 There are   279 symmetry adapted basis functions of A   symmetry.
   279 basis functions,   395 primitive gaussians,   291 cartesian basis functions
    25 alpha electrons       25 beta electrons
       nuclear repulsion energy       264.3521518007 Hartrees.
 NAtoms=   19 NActive=   19 NUniq=   19 SFac= 1.00D+00 NAtFMM=   60 NAOKFM=F Big=F
 Integral buffers will be    131072 words long.
 Raffenetti 2 integral format.
 Two-electron integral symmetry is turned on.
 Nuclear repulsion after empirical dispersion term =      264.3409616398 Hartrees.
 One-electron integrals computed using PRISM.
 NBasis=   279 RedAO= T EigKep=  3.58D-05  NBF=   279
 NBsUse=   279 1.00D-06 EigRej= -1.00D+00 NBFU=   279
 Initial guess from the checkpoint file:  "dimethyl_aminopropyl.chk"
 B after Tr=     0.000000   -0.000000   -0.000000
         Rot=    0.995594   -0.092162   -0.001176    0.017233 Ang= -10.76 deg.
 ExpMin= 4.38D-02 ExpMax= 6.29D+03 ExpMxC= 9.49D+02 IAcc=2 IRadAn=         4 AccDes= 0.00D+00
 Harris functional with IExCor= 4639 and IRadAn=       4 diagonalized for initial guess.
 HarFok:  IExCor= 4639 AccDes= 0.00D+00 IRadAn=         4 IDoV= 1 UseB2=F ITyADJ=14
 ICtDFT=  3500011 ScaDFX=  1.000000  1.000000  1.000000  1.000000
 FoFCou: FMM=F IPFlag=           0 FMFlag=      100000 FMFlg1=           0
         NFxFlg=           0 DoJE=T BraDBF=F KetDBF=T FulRan=T
         wScrn=  0.000000 ICntrl=       500 IOpCl=  0 I1Cent=   200000004 NGrid=           0
         NMat0=    1 NMatS0=      1 NMatT0=    0 NMatD0=    1 NMtDS0=    0 NMtDT0=    0
 Petite list used in FoFCou.
 Requested convergence on RMS density matrix=1.00D-08 within  32 cycles.
 Requested convergence on MAX density matrix=1.00D-06.
 Requested convergence on             energy=1.00D-06.
 No special actions if energy rises.
 SCF Done:  E(RwB97XD) =  -253.104214610     A.U. after   10 cycles
            NFock= 10  Conv=0.81D-08     -V/T= 2.0047
 QCSCF skips out because SCF is already converged.
 Calling FoFJK, ICntrl=      2127 FMM=F ISym2X=0 I1Cent= 0 IOpClX= 0 NMat=1 NMatS=1 NMatT=0.
 ***** Axes restored to original set *****
 -------------------------------------------------------------------
 Center     Atomic                   Forces (Hartrees/Bohr)
 Number     Number              X              Y              Z
 -------------------------------------------------------------------
      1        6           0.000548457   -0.000105236   -0.000728024
      2        1          -0.000449294   -0.000248415    0.000205646
      3        1          -0.000050123    0.000045382    0.000444132
      4        6          -0.000957567    0.000492754   -0.000233850
      5        1           0.000002888   -0.000122104   -0.000117930
      6        1           0.000189136   -0.000466473    0.000175523
      7        7           0.000191188   -0.000266792    0.000587505
      8        6           0.000555036    0.000378023   -0.001134464
      9        1          -0.000122243   -0.000133805    0.000160943
     10        1          -0.000108275   -0.000298041    0.000389313
     11        1           0.000179788    0.000226522    0.000252926
     12        6           0.000692935    0.000704060    0.000330229
     13        1          -0.000214203   -0.000425126   -0.000120006
     14        1          -0.000170052   -0.000138989   -0.000226278
     15        1          -0.000168739   -0.000120326   -0.000177267
     16        6          -0.000155907   -0.000988908    0.000561920
     17        1           0.000137317    0.000747249   -0.000161345
     18        1           0.000225751    0.000186209   -0.000053080
     19        1          -0.000326094    0.000534016   -0.000155893
 -------------------------------------------------------------------
 Cartesian Forces:  Max     0.001134464 RMS     0.000407208

 GradGradGradGradGradGradGradGradGradGradGradGradGradGradGradGradGradGrad
 Berny optimization.
 Using GEDIIS/GDIIS optimizer.
 FormGI is forming the generalized inverse of G from B-inverse, IUseBI=4.
 Internal  Forces:  Max     0.000910566 RMS     0.000293749
 Search for a local minimum.
 Step number   7 out of a maximum of   97
 All quantities printed in internal units (Hartrees-Bohrs-Radians)
 Mixed Optimization -- En-DIIS/RFO-DIIS
 Swapping is turned off.
 Update second derivatives using D2CorX and points    6    7
 DE= -2.61D-04 DEPred=-2.08D-04 R= 1.26D+00
 TightC=F SS=  1.41D+00  RLast= 3.69D-01 DXNew= 3.7059D+00 1.1070D+00
 Trust test= 1.26D+00 RLast= 3.69D-01 DXMaxT set to 2.20D+00
 ITU=  1  1  1  1  1  1  0
     Eigenvalues ---    0.00157   0.00280   0.00381   0.00435   0.00530
     Eigenvalues ---    0.02326   0.03492   0.04427   0.04806   0.05401
     Eigenvalues ---    0.05430   0.05544   0.06914   0.06966   0.07257
     Eigenvalues ---    0.07316   0.08474   0.09355   0.12305   0.12970
     Eigenvalues ---    0.14209   0.15964   0.15996   0.16000   0.16000
     Eigenvalues ---    0.16011   0.16044   0.16117   0.16578   0.17271
     Eigenvalues ---    0.18206   0.21920   0.24912   0.28277   0.29526
     Eigenvalues ---    0.32107   0.32929   0.33872   0.34842   0.34923
     Eigenvalues ---    0.35006   0.35042   0.35077   0.35146   0.35193
     Eigenvalues ---    0.35327   0.35497   0.35541   0.37214   0.37261
     Eigenvalues ---    0.37518
 En-DIIS/RFO-DIIS/Sim-DIIS IScMMF=       -3 using points:     7    6    5
 RFO step:  Lambda=-1.73880598D-04.
 DidBck=F Rises=F RFO-DIIS coefs:    2.06928   -2.00000    0.93072
 Iteration  1 RMS(Cart)=  0.07811108 RMS(Int)=  0.00205937
 Iteration  2 RMS(Cart)=  0.00280864 RMS(Int)=  0.00006004
 Iteration  3 RMS(Cart)=  0.00000372 RMS(Int)=  0.00005996
 Iteration  4 RMS(Cart)=  0.00000000 RMS(Int)=  0.00005996
 Variable       Old X    -DE/DX   Delta X   Delta X   Delta X     New X
                                 (Linear)    (Quad)   (Total)
    R1        2.06287   0.00027  -0.00122   0.00167   0.00045   2.06332
    R2        2.06504  -0.00018   0.00016  -0.00099  -0.00083   2.06421
    R3        2.88303   0.00007  -0.00102   0.00232   0.00130   2.88433
    R4        2.88049   0.00040  -0.00391   0.00760   0.00368   2.88417
    R5        2.06511   0.00011   0.00021   0.00053   0.00074   2.06585
    R6        2.08660   0.00049   0.00359  -0.00090   0.00269   2.08929
    R7        2.75273  -0.00075  -0.01566   0.01451  -0.00116   2.75157
    R8        2.74040  -0.00049  -0.01238   0.01310   0.00072   2.74111
    R9        2.73824   0.00002  -0.01129   0.01286   0.00158   2.73982
   R10        2.05938   0.00006   0.00092  -0.00083   0.00009   2.05947
   R11        2.08484   0.00040   0.00243  -0.00098   0.00145   2.08629
   R12        2.05659   0.00037   0.00116  -0.00014   0.00102   2.05761
   R13        2.08438   0.00044   0.00263  -0.00107   0.00156   2.08594
   R14        2.06014   0.00004   0.00076  -0.00081  -0.00004   2.06009
   R15        2.05962   0.00010   0.00157  -0.00112   0.00045   2.06008
   R16        2.05778   0.00024   0.00298  -0.00213   0.00086   2.05863
   R17        2.05943   0.00022   0.00192  -0.00111   0.00081   2.06024
   R18        2.06248   0.00015   0.00237  -0.00212   0.00026   2.06273
    A1        1.84659   0.00006  -0.00097  -0.00257  -0.00375   1.84284
    A2        1.93036  -0.00055  -0.00767   0.00210  -0.00544   1.92492
    A3        1.92023  -0.00009  -0.00650   0.00565  -0.00062   1.91961
    A4        1.87246  -0.00011   0.00890  -0.00933  -0.00040   1.87206
    A5        1.91855  -0.00012   0.00649  -0.00509   0.00154   1.92010
    A6        1.97095   0.00076  -0.00040   0.00806   0.00791   1.97886
    A7        1.88808   0.00037  -0.00312   0.00707   0.00394   1.89202
    A8        1.91224  -0.00027   0.00116  -0.00777  -0.00668   1.90557
    A9        1.99309  -0.00039  -0.00428   0.00790   0.00359   1.99668
   A10        1.86255  -0.00007  -0.00055   0.00070   0.00019   1.86275
   A11        1.86995   0.00007  -0.00710   0.00688  -0.00018   1.86976
   A12        1.93241   0.00033   0.01350  -0.01423  -0.00075   1.93167
   A13        1.96016  -0.00022  -0.00241   0.00491   0.00258   1.96274
   A14        1.93664  -0.00031  -0.00805   0.00070  -0.00731   1.92933
   A15        1.92786   0.00057  -0.00220   0.00612   0.00399   1.93185
   A16        1.91138   0.00019   0.00243  -0.00223   0.00023   1.91162
   A17        1.95929   0.00041   0.00208   0.00186   0.00395   1.96324
   A18        1.93140  -0.00008   0.00673  -0.00641   0.00036   1.93176
   A19        1.89022  -0.00029  -0.00614   0.00364  -0.00248   1.88774
   A20        1.88014  -0.00011  -0.00344   0.00154  -0.00184   1.87830
   A21        1.88924  -0.00015  -0.00239   0.00185  -0.00052   1.88872
   A22        1.96505   0.00016   0.00155  -0.00167  -0.00009   1.96496
   A23        1.91444   0.00037   0.00495  -0.00095   0.00402   1.91845
   A24        1.91739   0.00024   0.00597  -0.00474   0.00127   1.91866
   A25        1.88701  -0.00027  -0.00674   0.00585  -0.00089   1.88612
   A26        1.88994  -0.00026  -0.00348   0.00053  -0.00290   1.88704
   A27        1.88820  -0.00027  -0.00292   0.00128  -0.00161   1.88658
   A28        1.92658   0.00091   0.00870   0.00049   0.00923   1.93582
   A29        1.94092  -0.00006  -0.00009  -0.00110  -0.00117   1.93975
   A30        1.93012   0.00051   0.00490  -0.00072   0.00422   1.93434
   A31        1.89755  -0.00044  -0.00488   0.00153  -0.00334   1.89421
   A32        1.88144  -0.00074  -0.00578  -0.00207  -0.00778   1.87367
   A33        1.88559  -0.00025  -0.00369   0.00190  -0.00177   1.88382
    D1       -3.04778   0.00017   0.01580   0.02719   0.04288  -3.00490
    D2       -1.02363   0.00015   0.01402   0.02777   0.04169  -0.98193
    D3        1.15526   0.00008   0.02956   0.00860   0.03807   1.19333
    D4       -1.04174  -0.00010   0.01535   0.02000   0.03543  -1.00631
    D5        0.98242  -0.00012   0.01357   0.02058   0.03424   1.01666
    D6       -3.12189  -0.00020   0.02910   0.00142   0.03062  -3.09127
    D7        1.07489   0.00015   0.02978   0.01226   0.04204   1.11694
    D8        3.09905   0.00013   0.02800   0.01284   0.04085   3.13990
    D9       -1.00526   0.00005   0.04353  -0.00632   0.03723  -0.96803
   D10       -1.15840   0.00017   0.04395   0.01445   0.05842  -1.09998
   D11        0.94929   0.00020   0.04363   0.01598   0.05965   1.00894
   D12        3.04428   0.00018   0.04224   0.01717   0.05946   3.10374
   D13        3.09799   0.00021   0.04521   0.01725   0.06242  -3.12278
   D14       -1.07751   0.00024   0.04489   0.01878   0.06366  -1.01385
   D15        1.01748   0.00022   0.04350   0.01997   0.06347   1.08094
   D16        1.00768  -0.00006   0.02930   0.02732   0.05659   1.06427
   D17        3.11537  -0.00004   0.02898   0.02885   0.05782  -3.10999
   D18       -1.07283  -0.00005   0.02760   0.03004   0.05763  -1.01520
   D19       -1.19367   0.00057   0.01984   0.06323   0.08305  -1.11062
   D20        2.92220   0.00022   0.03041   0.05104   0.08144   3.00365
   D21        2.99916   0.00029   0.03131   0.04473   0.07600   3.07516
   D22        0.83184  -0.00005   0.04187   0.03254   0.07440   0.90624
   D23        0.97446   0.00017   0.02877   0.04747   0.07627   1.05073
   D24       -1.19285  -0.00017   0.03933   0.03528   0.07466  -1.11819
   D25        3.12124   0.00013   0.03394   0.01109   0.04501  -3.11694
   D26       -1.06173   0.00016   0.02924   0.01537   0.04461  -1.01712
   D27        1.05112   0.00019   0.03241   0.01449   0.04691   1.09803
   D28       -0.98977  -0.00002   0.02016   0.02021   0.04036  -0.94941
   D29        1.11045   0.00001   0.01546   0.02449   0.03996   1.15041
   D30       -3.05989   0.00004   0.01863   0.02361   0.04226  -3.01762
   D31        1.08616  -0.00007  -0.00065   0.00700   0.00632   1.09248
   D32       -3.09500  -0.00005  -0.00472   0.01265   0.00792  -3.08708
   D33       -1.02164  -0.00001  -0.00158   0.01076   0.00918  -1.01246
   D34       -1.09942   0.00003   0.00972  -0.00434   0.00538  -1.09404
   D35        1.00260   0.00005   0.00565   0.00131   0.00699   1.00959
   D36        3.07597   0.00009   0.00879  -0.00058   0.00824   3.08421
         Item               Value     Threshold  Converged?
 Maximum Force            0.000911     0.000450     NO 
 RMS     Force            0.000294     0.000300     YES
 Maximum Displacement     0.294556     0.001800     NO 
 RMS     Displacement     0.078332     0.001200     NO 
 Predicted change in Energy=-7.241766D-05
 GradGradGradGradGradGradGradGradGradGradGradGradGradGradGradGradGradGrad

                          Input orientation:                          
 ---------------------------------------------------------------------
 Center     Atomic      Atomic             Coordinates (Angstroms)
 Number     Number       Type             X           Y           Z
 ---------------------------------------------------------------------
      1          6           0        0.718964   -0.986099    0.207641
      2          1           0        0.621389   -1.155514    1.281856
      3          1           0        1.615862   -1.531134   -0.095182
      4          6           0       -0.460842   -1.607034   -0.535427
      5          1           0       -0.264362   -1.544063   -1.608982
      6          1           0       -0.522151   -2.682317   -0.285681
      7          7           0       -1.737319   -0.949507   -0.293766
      8          6           0       -2.155408   -1.043473    1.092025
      9          1           0       -3.124232   -0.559473    1.213857
     10          1           0       -2.247352   -2.088707    1.435366
     11          1           0       -1.447573   -0.532482    1.742741
     12          6           0       -2.758715   -1.482189   -1.174141
     13          1           0       -2.948039   -2.556083   -1.002828
     14          1           0       -3.695588   -0.945497   -1.023588
     15          1           0       -2.457628   -1.352646   -2.213845
     16          6           0        0.894097    0.504113   -0.071640
     17          1           0        0.014487    1.064673    0.242703
     18          1           0        1.763929    0.902539    0.451095
     19          1           0        1.031335    0.685433   -1.139242
 ---------------------------------------------------------------------
                    Distance matrix (angstroms):
                    1          2          3          4          5
     1  C    0.000000
     2  H    1.091861   0.000000
     3  H    1.092333   1.739626   0.000000
     4  C    1.526320   2.162779   2.124212   0.000000
     5  H    2.139713   3.048355   2.413917   1.093202   0.000000
     6  H    2.158909   2.469004   2.435695   1.105606   1.764427
     7  N    2.507204   2.844034   3.409039   1.456068   2.062254
     8  C    3.007897   2.785533   3.983686   2.416145   3.334980
     9  H    3.995577   3.793359   5.012604   3.354255   4.137233
    10  H    3.394419   3.020611   4.192598   2.703266   3.673818
    11  H    2.693730   2.209341   3.709434   2.705245   3.695583
    12  C    3.774874   4.190912   4.505937   2.388255   2.532728
    13  H    4.168572   4.463428   4.764822   2.702833   2.931507
    14  H    4.583213   4.898517   5.423689   3.337591   3.531895
    15  H    4.011071   4.662525   4.594987   2.620869   2.283181
    16  C    1.526238   2.158861   2.159566   2.551059   2.810778
    17  H    2.168682   2.525351   3.068677   2.823020   3.211229
    18  H    2.172136   2.496226   2.498621   3.495825   3.787313
    19  H    2.169260   3.069016   2.518909   2.801177   2.621095
                    6          7          8          9         10
     6  H    0.000000
     7  N    2.116442   0.000000
     8  C    2.692845   1.450533   0.000000
     9  H    3.677759   2.085326   1.089825   0.000000
    10  H    2.508125   2.132559   1.104016   1.776666   0.000000
    11  H    3.097207   2.098863   1.088840   1.758304   1.776502
    12  C    2.689217   1.449848   2.385783   2.586029   2.727431
    13  H    2.532818   2.133002   2.702714   2.988509   2.579572
    14  H    3.692121   2.089850   2.618697   2.341287   3.074211
    15  H    3.038407   2.089993   3.334022   3.580870   3.728638
    16  C    3.493553   3.014416   3.612288   4.350941   4.343096
    17  H    3.821924   2.722782   3.142303   3.665043   4.059822
    18  H    4.315112   4.030339   4.422551   5.158818   5.099677
    19  H    3.805736   3.324651   4.257112   4.935140   5.007419
                   11         12         13         14         15
    11  H    0.000000
    12  C    3.336051   0.000000
    13  H    3.726192   1.103830   0.000000
    14  H    3.588416   1.090154   1.775739   0.000000
    15  H    4.165028   1.090147   1.776324   1.764944   0.000000
    16  C    3.138459   4.301621   4.999392   4.906403   4.389836
    17  H    2.634129   4.023009   4.841258   4.405556   4.241392
    18  H    3.747183   5.364944   6.023172   5.949475   5.478075
    19  H    3.991758   4.366267   5.134341   5.001711   4.181077
                   16         17         18         19
    16  C    0.000000
    17  H    1.089382   0.000000
    18  H    1.090230   1.769255   0.000000
    19  H    1.091552   1.757150   1.764370   0.000000
 Stoichiometry    C5H13N
 Framework group  C1[X(C5H13N)]
 Deg. of freedom    51
 Full point group                 C1      NOp   1
 Largest Abelian subgroup         C1      NOp   1
 Largest concise Abelian subgroup C1      NOp   1
                         Standard orientation:                         
 ---------------------------------------------------------------------
 Center     Atomic      Atomic             Coordinates (Angstroms)
 Number     Number       Type             X           Y           Z
 ---------------------------------------------------------------------
      1          6           0        1.559789   -0.051826    0.621205
      2          1           0        1.541020    0.942473    1.071955
      3          1           0        2.178178   -0.662459    1.282955
      4          6           0        0.159652   -0.659502    0.621278
      5          1           0        0.235149   -1.700428    0.295911
      6          1           0       -0.228691   -0.676989    1.656290
      7          7           0       -0.782921    0.001251   -0.270404
      8          6           0       -1.038277    1.376472    0.113796
      9          1           0       -1.766140    1.816010   -0.567922
     10          1           0       -1.433882    1.461393    1.140994
     11          1           0       -0.127092    1.969122    0.049907
     12          6           0       -2.021957   -0.747789   -0.346476
     13          1           0       -2.538865   -0.812091    0.626721
     14          1           0       -2.698820   -0.274770   -1.058197
     15          1           0       -1.822305   -1.762269   -0.692003
     16          6           0        2.190263    0.016587   -0.767040
     17          1           0        1.594623    0.638314   -1.434439
     18          1           0        3.199577    0.426151   -0.720736
     19          1           0        2.250879   -0.976875   -1.215196
 ---------------------------------------------------------------------
 Rotational constants (GHZ):           5.8388434           2.1263692           1.9470141
 Standard basis: 6-311+G(2d,2p) (5D, 7F)
 There are   291 symmetry adapted cartesian basis functions of A   symmetry.
 There are   279 symmetry adapted basis functions of A   symmetry.
   279 basis functions,   395 primitive gaussians,   291 cartesian basis functions
    25 alpha electrons       25 beta electrons
       nuclear repulsion energy       264.5387049793 Hartrees.
 NAtoms=   19 NActive=   19 NUniq=   19 SFac= 1.00D+00 NAtFMM=   60 NAOKFM=F Big=F
 Integral buffers will be    131072 words long.
 Raffenetti 2 integral format.
 Two-electron integral symmetry is turned on.
 Nuclear repulsion after empirical dispersion term =      264.5273987251 Hartrees.
 One-electron integrals computed using PRISM.
 NBasis=   279 RedAO= T EigKep=  3.49D-05  NBF=   279
 NBsUse=   279 1.00D-06 EigRej= -1.00D+00 NBFU=   279
 Initial guess from the checkpoint file:  "dimethyl_aminopropyl.chk"
 B after Tr=    -0.000000   -0.000000    0.000000
         Rot=    0.997512   -0.069290   -0.001337    0.012890 Ang=  -8.08 deg.
 ExpMin= 4.38D-02 ExpMax= 6.29D+03 ExpMxC= 9.49D+02 IAcc=2 IRadAn=         4 AccDes= 0.00D+00
 Harris functional with IExCor= 4639 and IRadAn=       4 diagonalized for initial guess.
 HarFok:  IExCor= 4639 AccDes= 0.00D+00 IRadAn=         4 IDoV= 1 UseB2=F ITyADJ=14
 ICtDFT=  3500011 ScaDFX=  1.000000  1.000000  1.000000  1.000000
 FoFCou: FMM=F IPFlag=           0 FMFlag=      100000 FMFlg1=           0
         NFxFlg=           0 DoJE=T BraDBF=F KetDBF=T FulRan=T
         wScrn=  0.000000 ICntrl=       500 IOpCl=  0 I1Cent=   200000004 NGrid=           0
         NMat0=    1 NMatS0=      1 NMatT0=    0 NMatD0=    1 NMtDS0=    0 NMtDT0=    0
 Petite list used in FoFCou.
 Requested convergence on RMS density matrix=1.00D-08 within  32 cycles.
 Requested convergence on MAX density matrix=1.00D-06.
 Requested convergence on             energy=1.00D-06.
 No special actions if energy rises.
 SCF Done:  E(RwB97XD) =  -253.104320297     A.U. after   10 cycles
            NFock= 10  Conv=0.82D-08     -V/T= 2.0047
 QCSCF skips out because SCF is already converged.
 Calling FoFJK, ICntrl=      2127 FMM=F ISym2X=0 I1Cent= 0 IOpClX= 0 NMat=1 NMatS=1 NMatT=0.
 ***** Axes restored to original set *****
 -------------------------------------------------------------------
 Center     Atomic                   Forces (Hartrees/Bohr)
 Number     Number              X              Y              Z
 -------------------------------------------------------------------
      1        6          -0.000150640    0.000760743   -0.000384747
      2        1          -0.000309211    0.000062438    0.000224858
      3        1           0.000054627    0.000193356   -0.000134310
      4        6          -0.000109722    0.000228053    0.000122882
      5        1          -0.000096768   -0.000072781    0.000064989
      6        1           0.000187839    0.000088094    0.000101225
      7        7          -0.000307748   -0.000351947    0.000380088
      8        6           0.000335819   -0.000185985   -0.000931558
      9        1           0.000006040   -0.000040686   -0.000129994
     10        1          -0.000038479    0.000053761   -0.000014941
     11        1           0.000182709    0.000048551    0.000045946
     12        6           0.000399239    0.000352987    0.000511611
     13        1           0.000009710    0.000012887   -0.000047908
     14        1           0.000011319    0.000056278    0.000042864
     15        1           0.000093461    0.000005218    0.000021732
     16        6          -0.000116323   -0.001124524    0.000062815
     17        1           0.000001027    0.000069204    0.000017433
     18        1          -0.000028364   -0.000087618    0.000105389
     19        1          -0.000124535   -0.000068029   -0.000058376
 -------------------------------------------------------------------
 Cartesian Forces:  Max     0.001124524 RMS     0.000279141

 GradGradGradGradGradGradGradGradGradGradGradGradGradGradGradGradGradGrad
 Berny optimization.
 Using GEDIIS/GDIIS optimizer.
 FormGI is forming the generalized inverse of G from B-inverse, IUseBI=4.
 Internal  Forces:  Max     0.001236359 RMS     0.000266156
 Search for a local minimum.
 Step number   8 out of a maximum of   97
 All quantities printed in internal units (Hartrees-Bohrs-Radians)
 Mixed Optimization -- En-DIIS/RFO-DIIS
 Swapping is turned off.
 Update second derivatives using D2CorX and points    7    8
 DE= -1.06D-04 DEPred=-7.24D-05 R= 1.46D+00
 TightC=F SS=  1.41D+00  RLast= 3.06D-01 DXNew= 3.7059D+00 9.1923D-01
 Trust test= 1.46D+00 RLast= 3.06D-01 DXMaxT set to 2.20D+00
 ITU=  1  1  1  1  1  1  1  0
     Eigenvalues ---    0.00208   0.00213   0.00405   0.00436   0.00542
     Eigenvalues ---    0.02217   0.03375   0.04249   0.04820   0.05367
     Eigenvalues ---    0.05403   0.05486   0.06901   0.06934   0.07245
     Eigenvalues ---    0.07294   0.08575   0.09318   0.12098   0.12969
     Eigenvalues ---    0.13616   0.15428   0.15969   0.16000   0.16001
     Eigenvalues ---    0.16009   0.16022   0.16075   0.16476   0.17019
     Eigenvalues ---    0.18228   0.21756   0.24909   0.28862   0.29918
     Eigenvalues ---    0.32250   0.32903   0.33440   0.34782   0.34882
     Eigenvalues ---    0.35002   0.35063   0.35085   0.35147   0.35190
     Eigenvalues ---    0.35243   0.35501   0.35785   0.37216   0.37272
     Eigenvalues ---    0.37545
 En-DIIS/RFO-DIIS/Sim-DIIS IScMMF=       -3 using points:     8    7    6    5
 RFO step:  Lambda=-4.01287717D-05.
 DidBck=F Rises=F RFO-DIIS coefs:    0.80626    0.25710   -0.28878    0.22542
 Iteration  1 RMS(Cart)=  0.02696762 RMS(Int)=  0.00019711
 Iteration  2 RMS(Cart)=  0.00030201 RMS(Int)=  0.00001633
 Iteration  3 RMS(Cart)=  0.00000002 RMS(Int)=  0.00001633
 Variable       Old X    -DE/DX   Delta X   Delta X   Delta X     New X
                                 (Linear)    (Quad)   (Total)
    R1        2.06332   0.00024  -0.00007   0.00089   0.00082   2.06414
    R2        2.06421  -0.00001  -0.00002  -0.00009  -0.00012   2.06409
    R3        2.88433  -0.00068  -0.00007  -0.00154  -0.00161   2.88272
    R4        2.88417  -0.00124  -0.00196  -0.00209  -0.00406   2.88011
    R5        2.06585  -0.00009  -0.00012  -0.00009  -0.00021   2.06564
    R6        2.08929  -0.00007   0.00012  -0.00047  -0.00036   2.08894
    R7        2.75157  -0.00065  -0.00290   0.00107  -0.00182   2.74975
    R8        2.74111  -0.00111  -0.00325  -0.00019  -0.00344   2.73767
    R9        2.73982  -0.00084  -0.00313   0.00050  -0.00263   2.73718
   R10        2.05947  -0.00004   0.00033  -0.00026   0.00007   2.05954
   R11        2.08629  -0.00005   0.00063  -0.00041   0.00022   2.08651
   R12        2.05761   0.00017   0.00017   0.00034   0.00052   2.05813
   R13        2.08594  -0.00002   0.00067  -0.00036   0.00030   2.08624
   R14        2.06009   0.00002   0.00033  -0.00011   0.00022   2.06032
   R15        2.06008   0.00000   0.00025  -0.00024   0.00001   2.06009
   R16        2.05863   0.00004   0.00048  -0.00033   0.00015   2.05878
   R17        2.06024  -0.00000   0.00038  -0.00022   0.00016   2.06040
   R18        2.06273   0.00003   0.00064  -0.00030   0.00034   2.06307
    A1        1.84284   0.00009   0.00062   0.00176   0.00234   1.84518
    A2        1.92492  -0.00005  -0.00197   0.00026  -0.00166   1.92326
    A3        1.91961   0.00010  -0.00208   0.00167  -0.00035   1.91926
    A4        1.87206   0.00017   0.00390  -0.00158   0.00232   1.87438
    A5        1.92010  -0.00009   0.00160  -0.00202  -0.00040   1.91969
    A6        1.97886  -0.00021  -0.00188  -0.00007  -0.00189   1.97696
    A7        1.89202   0.00028  -0.00131   0.00257   0.00127   1.89329
    A8        1.90557   0.00009   0.00199  -0.00200  -0.00003   1.90554
    A9        1.99668  -0.00081  -0.00280  -0.00202  -0.00482   1.99186
   A10        1.86275  -0.00009  -0.00104   0.00096  -0.00008   1.86266
   A11        1.86976   0.00019  -0.00021   0.00244   0.00226   1.87203
   A12        1.93167   0.00038   0.00329  -0.00154   0.00174   1.93340
   A13        1.96274  -0.00033  -0.00020  -0.00102  -0.00117   1.96157
   A14        1.92933   0.00030   0.00239   0.00210   0.00452   1.93385
   A15        1.93185   0.00004  -0.00026   0.00148   0.00127   1.93312
   A16        1.91162  -0.00016   0.00135  -0.00120   0.00017   1.91178
   A17        1.96324   0.00006   0.00011   0.00040   0.00051   1.96375
   A18        1.93176  -0.00008   0.00178  -0.00188  -0.00008   1.93167
   A19        1.88774   0.00002  -0.00140   0.00085  -0.00055   1.88719
   A20        1.87830   0.00014  -0.00080   0.00124   0.00046   1.87875
   A21        1.88872   0.00003  -0.00122   0.00070  -0.00052   1.88820
   A22        1.96496   0.00008   0.00119   0.00011   0.00131   1.96626
   A23        1.91845  -0.00008   0.00058  -0.00069  -0.00010   1.91835
   A24        1.91866  -0.00013   0.00147  -0.00174  -0.00026   1.91840
   A25        1.88612   0.00004  -0.00210   0.00156  -0.00054   1.88558
   A26        1.88704   0.00001  -0.00055   0.00020  -0.00033   1.88670
   A27        1.88658   0.00009  -0.00078   0.00065  -0.00013   1.88645
   A28        1.93582   0.00011   0.00056  -0.00030   0.00026   1.93607
   A29        1.93975  -0.00015   0.00070  -0.00084  -0.00013   1.93962
   A30        1.93434  -0.00010   0.00107  -0.00096   0.00011   1.93445
   A31        1.89421   0.00000  -0.00120   0.00059  -0.00061   1.89361
   A32        1.87367  -0.00001  -0.00017   0.00002  -0.00013   1.87354
   A33        1.88382   0.00016  -0.00111   0.00160   0.00049   1.88431
    D1       -3.00490  -0.00014  -0.01956   0.00550  -0.01409  -3.01898
    D2       -0.98193  -0.00005  -0.02046   0.00697  -0.01351  -0.99544
    D3        1.19333  -0.00007  -0.01663   0.00187  -0.01478   1.17855
    D4       -1.00631   0.00004  -0.01776   0.00685  -0.01090  -1.01720
    D5        1.01666   0.00013  -0.01866   0.00832  -0.01032   1.00634
    D6       -3.09127   0.00011  -0.01483   0.00322  -0.01159  -3.10286
    D7        1.11694  -0.00008  -0.01414   0.00316  -0.01098   1.10596
    D8        3.13990   0.00001  -0.01504   0.00463  -0.01040   3.12950
    D9       -0.96803  -0.00001  -0.01121  -0.00047  -0.01167  -0.97969
   D10       -1.09998   0.00011   0.00559   0.00081   0.00641  -1.09357
   D11        1.00894   0.00008   0.00493   0.00079   0.00573   1.01467
   D12        3.10374   0.00012   0.00472   0.00161   0.00634   3.11008
   D13       -3.12278  -0.00001   0.00514  -0.00112   0.00401  -3.11876
   D14       -1.01385  -0.00004   0.00448  -0.00114   0.00333  -1.01052
   D15        1.08094  -0.00000   0.00427  -0.00033   0.00394   1.08488
   D16        1.06427  -0.00003   0.00023   0.00238   0.00260   1.06686
   D17       -3.10999  -0.00006  -0.00044   0.00236   0.00192  -3.10808
   D18       -1.01520  -0.00002  -0.00065   0.00318   0.00252  -1.01268
   D19       -1.11062  -0.00000  -0.02958   0.00037  -0.02922  -1.13984
   D20        3.00365  -0.00004  -0.03103  -0.00242  -0.03345   2.97020
   D21        3.07516   0.00002  -0.02606  -0.00335  -0.02942   3.04574
   D22        0.90624  -0.00003  -0.02752  -0.00613  -0.03364   0.87260
   D23        1.05073  -0.00019  -0.02646  -0.00507  -0.03153   1.01920
   D24       -1.11819  -0.00023  -0.02792  -0.00785  -0.03575  -1.15394
   D25       -3.11694  -0.00008  -0.00898  -0.00236  -0.01134  -3.12828
   D26       -1.01712  -0.00013  -0.00974  -0.00184  -0.01158  -1.02870
   D27        1.09803  -0.00011  -0.00996  -0.00200  -0.01195   1.08608
   D28       -0.94941   0.00010  -0.00609   0.00077  -0.00532  -0.95473
   D29        1.15041   0.00006  -0.00685   0.00129  -0.00556   1.14484
   D30       -3.01762   0.00008  -0.00707   0.00113  -0.00593  -3.02356
   D31        1.09248  -0.00011   0.00068   0.00089   0.00156   1.09403
   D32       -3.08708  -0.00006  -0.00078   0.00247   0.00168  -3.08541
   D33       -1.01246  -0.00008  -0.00048   0.00177   0.00129  -1.01117
   D34       -1.09404   0.00006  -0.00076  -0.00041  -0.00116  -1.09520
   D35        1.00959   0.00011  -0.00222   0.00117  -0.00104   1.00855
   D36        3.08421   0.00009  -0.00192   0.00048  -0.00143   3.08278
         Item               Value     Threshold  Converged?
 Maximum Force            0.001236     0.000450     NO 
 RMS     Force            0.000266     0.000300     YES
 Maximum Displacement     0.092546     0.001800     NO 
 RMS     Displacement     0.026972     0.001200     NO 
 Predicted change in Energy=-1.929987D-05
 GradGradGradGradGradGradGradGradGradGradGradGradGradGradGradGradGradGrad

                          Input orientation:                          
 ---------------------------------------------------------------------
 Center     Atomic      Atomic             Coordinates (Angstroms)
 Number     Number       Type             X           Y           Z
 ---------------------------------------------------------------------
      1          6           0        0.718959   -0.976968    0.213830
      2          1           0        0.615044   -1.123275    1.291282
      3          1           0        1.617941   -1.526489   -0.074119
      4          6           0       -0.458213   -1.611895   -0.519784
      5          1           0       -0.265016   -1.560727   -1.594449
      6          1           0       -0.513975   -2.684258   -0.257341
      7          7           0       -1.733764   -0.954507   -0.278672
      8          6           0       -2.161802   -1.069473    1.100578
      9          1           0       -3.124730   -0.574618    1.225814
     10          1           0       -2.270743   -2.119751    1.423310
     11          1           0       -1.450847   -0.581455    1.765823
     12          6           0       -2.751478   -1.461497   -1.176023
     13          1           0       -2.951536   -2.537065   -1.027947
     14          1           0       -3.685281   -0.920152   -1.022232
     15          1           0       -2.441231   -1.314003   -2.210637
     16          6           0        0.892759    0.505200   -0.095720
     17          1           0        0.012826    1.071774    0.206991
     18          1           0        1.762038    0.915014    0.419253
     19          1           0        1.029902    0.664687   -1.166994
 ---------------------------------------------------------------------
                    Distance matrix (angstroms):
                    1          2          3          4          5
     1  C    0.000000
     2  H    1.092294   0.000000
     3  H    1.092271   1.741466   0.000000
     4  C    1.525469   2.161155   2.125165   0.000000
     5  H    2.139826   3.048493   2.420352   1.093091   0.000000
     6  H    2.158001   2.471757   2.432913   1.105418   1.764132
     7  N    2.501782   2.830218   3.406308   1.455103   2.063006
     8  C    3.015570   2.783906   3.984374   2.412884   3.332011
     9  H    3.994990   3.780373   5.008874   3.351622   4.135730
    10  H    3.421566   3.055841   4.209052   2.705328   3.666376
    11  H    2.696881   2.187844   3.700802   2.696503   3.695483
    12  C    3.769668   4.187536   4.506689   2.390049   2.523375
    13  H    4.177134   4.483092   4.776104   2.707550   2.914026
    14  H    4.574758   4.887371   5.421322   3.338403   3.526469
    15  H    3.997303   4.651948   4.592030   2.622991   2.275186
    16  C    1.524089   2.157042   2.157340   2.546968   2.802621
    17  H    2.167029   2.521229   3.066984   2.819958   3.201944
    18  H    2.170209   2.496127   2.495018   3.492359   3.780640
    19  H    2.167578   3.067905   2.518218   2.795746   2.609981
                    6          7          8          9         10
     6  H    0.000000
     7  N    2.116691   0.000000
     8  C    2.677090   1.448711   0.000000
     9  H    3.669656   2.083886   1.089861   0.000000
    10  H    2.495895   2.131404   1.104132   1.776439   0.000000
    11  H    3.064751   2.097419   1.089114   1.758847   1.776485
    12  C    2.710266   1.448454   2.384179   2.587410   2.724139
    13  H    2.560704   2.132808   2.703354   2.993431   2.578040
    14  H    3.708681   2.088655   2.617176   2.342504   3.069305
    15  H    3.067129   2.088596   3.331969   3.580929   3.726106
    16  C    3.489651   3.010455   3.638828   4.364938   4.382416
    17  H    3.821113   2.718872   3.180007   3.686851   4.108522
    18  H    4.311934   4.025276   4.449597   5.172045   5.145994
    19  H    3.798218   3.323967   4.282076   4.952008   5.035577
                   11         12         13         14         15
    11  H    0.000000
    12  C    3.334752   0.000000
    13  H    3.725805   1.103991   0.000000
    14  H    3.588964   1.090273   1.775619   0.000000
    15  H    4.162897   1.090153   1.776245   1.764960   0.000000
    16  C    3.184125   4.279651   4.990293   4.883493   4.347167
    17  H    2.702862   3.996445   4.830759   4.376615   4.190376
    18  H    3.791477   5.344580   6.019054   5.926129   5.436203
    19  H    4.038366   4.338154   5.111008   4.976507   4.129548
                   16         17         18         19
    16  C    0.000000
    17  H    1.089460   0.000000
    18  H    1.090317   1.769003   0.000000
    19  H    1.091729   1.757271   1.764899   0.000000
 Stoichiometry    C5H13N
 Framework group  C1[X(C5H13N)]
 Deg. of freedom    51
 Full point group                 C1      NOp   1
 Largest Abelian subgroup         C1      NOp   1
 Largest concise Abelian subgroup C1      NOp   1
                         Standard orientation:                         
 ---------------------------------------------------------------------
 Center     Atomic      Atomic             Coordinates (Angstroms)
 Number     Number       Type             X           Y           Z
 ---------------------------------------------------------------------
      1          6           0        1.562044   -0.001434    0.617301
      2          1           0        1.536260    1.023124    0.995088
      3          1           0        2.186321   -0.559776    1.318434
      4          6           0        0.165864   -0.614423    0.661855
      5          1           0        0.243546   -1.672589    0.398992
      6          1           0       -0.216766   -0.571346    1.698043
      7          7           0       -0.779686   -0.008086   -0.263140
      8          6           0       -1.064369    1.373807    0.065634
      9          1           0       -1.785001    1.776706   -0.645814
     10          1           0       -1.482588    1.489327    1.080944
     11          1           0       -0.161213    1.978835   -0.000836
     12          6           0       -2.002098   -0.782187   -0.330178
     13          1           0       -2.533564   -0.822452    0.636630
     14          1           0       -2.676694   -0.347827   -1.068383
     15          1           0       -1.778131   -1.804204   -0.636370
     16          6           0        2.187322   -0.028098   -0.772363
     17          1           0        1.588235    0.544328   -1.479715
     18          1           0        3.195520    0.386769   -0.757784
     19          1           0        2.249298   -1.050281   -1.150747
 ---------------------------------------------------------------------
 Rotational constants (GHZ):           5.8180928           2.1269371           1.9523124
 Standard basis: 6-311+G(2d,2p) (5D, 7F)
 There are   291 symmetry adapted cartesian basis functions of A   symmetry.
 There are   279 symmetry adapted basis functions of A   symmetry.
   279 basis functions,   395 primitive gaussians,   291 cartesian basis functions
    25 alpha electrons       25 beta electrons
       nuclear repulsion energy       264.6389788213 Hartrees.
 NAtoms=   19 NActive=   19 NUniq=   19 SFac= 1.00D+00 NAtFMM=   60 NAOKFM=F Big=F
 Integral buffers will be    131072 words long.
 Raffenetti 2 integral format.
 Two-electron integral symmetry is turned on.
 Nuclear repulsion after empirical dispersion term =      264.6277074031 Hartrees.
 One-electron integrals computed using PRISM.
 NBasis=   279 RedAO= T EigKep=  3.51D-05  NBF=   279
 NBsUse=   279 1.00D-06 EigRej= -1.00D+00 NBFU=   279
 Initial guess from the checkpoint file:  "dimethyl_aminopropyl.chk"
 B after Tr=    -0.000000    0.000000   -0.000000
         Rot=    0.999690    0.024574    0.000435   -0.003866 Ang=   2.85 deg.
 ExpMin= 4.38D-02 ExpMax= 6.29D+03 ExpMxC= 9.49D+02 IAcc=2 IRadAn=         4 AccDes= 0.00D+00
 Harris functional with IExCor= 4639 and IRadAn=       4 diagonalized for initial guess.
 HarFok:  IExCor= 4639 AccDes= 0.00D+00 IRadAn=         4 IDoV= 1 UseB2=F ITyADJ=14
 ICtDFT=  3500011 ScaDFX=  1.000000  1.000000  1.000000  1.000000
 FoFCou: FMM=F IPFlag=           0 FMFlag=      100000 FMFlg1=           0
         NFxFlg=           0 DoJE=T BraDBF=F KetDBF=T FulRan=T
         wScrn=  0.000000 ICntrl=       500 IOpCl=  0 I1Cent=   200000004 NGrid=           0
         NMat0=    1 NMatS0=      1 NMatT0=    0 NMatD0=    1 NMtDS0=    0 NMtDT0=    0
 Petite list used in FoFCou.
 Requested convergence on RMS density matrix=1.00D-08 within  32 cycles.
 Requested convergence on MAX density matrix=1.00D-06.
 Requested convergence on             energy=1.00D-06.
 No special actions if energy rises.
 SCF Done:  E(RwB97XD) =  -253.104334641     A.U. after    9 cycles
            NFock=  9  Conv=0.94D-08     -V/T= 2.0047
 QCSCF skips out because SCF is already converged.
 Calling FoFJK, ICntrl=      2127 FMM=F ISym2X=0 I1Cent= 0 IOpClX= 0 NMat=1 NMatS=1 NMatT=0.
 ***** Axes restored to original set *****
 -------------------------------------------------------------------
 Center     Atomic                   Forces (Hartrees/Bohr)
 Number     Number              X              Y              Z
 -------------------------------------------------------------------
      1        6           0.000018419    0.000080698    0.000007012
      2        1           0.000052189   -0.000032944   -0.000062937
      3        1           0.000035859    0.000007378   -0.000025568
      4        6           0.000023229   -0.000106628    0.000122255
      5        1          -0.000047141    0.000076356    0.000081573
      6        1          -0.000033588   -0.000036473   -0.000052392
      7        7          -0.000052618   -0.000008621   -0.000191310
      8        6           0.000005854    0.000081778    0.000061172
      9        1           0.000007477   -0.000005752   -0.000006491
     10        1           0.000022924    0.000027001   -0.000061197
     11        1          -0.000065735   -0.000003804   -0.000019732
     12        6          -0.000050921   -0.000118216    0.000027715
     13        1           0.000024147    0.000052980   -0.000003431
     14        1           0.000028421    0.000008376    0.000037359
     15        1           0.000019168    0.000006886    0.000011085
     16        6           0.000045567    0.000047751    0.000074090
     17        1           0.000023521   -0.000013823   -0.000009796
     18        1          -0.000020414   -0.000020367   -0.000000102
     19        1          -0.000036359   -0.000042577    0.000010697
 -------------------------------------------------------------------
 Cartesian Forces:  Max     0.000191310 RMS     0.000053230

 GradGradGradGradGradGradGradGradGradGradGradGradGradGradGradGradGradGrad
 Berny optimization.
 Using GEDIIS/GDIIS optimizer.
 FormGI is forming the generalized inverse of G from B-inverse, IUseBI=4.
 Internal  Forces:  Max     0.000231444 RMS     0.000049869
 Search for a local minimum.
 Step number   9 out of a maximum of   97
 All quantities printed in internal units (Hartrees-Bohrs-Radians)
 Mixed Optimization -- En-DIIS/RFO-DIIS
 Swapping is turned off.
 Update second derivatives using D2CorX and points    6    7    8    9
 DE= -1.43D-05 DEPred=-1.93D-05 R= 7.43D-01
 TightC=F SS=  1.41D+00  RLast= 9.15D-02 DXNew= 3.7059D+00 2.7449D-01
 Trust test= 7.43D-01 RLast= 9.15D-02 DXMaxT set to 2.20D+00
 ITU=  1  1  1  1  1  1  1  1  0
     Eigenvalues ---    0.00207   0.00242   0.00407   0.00438   0.00569
     Eigenvalues ---    0.02206   0.03418   0.04341   0.04844   0.05380
     Eigenvalues ---    0.05404   0.05479   0.06894   0.06925   0.07241
     Eigenvalues ---    0.07294   0.08540   0.09365   0.12115   0.12923
     Eigenvalues ---    0.13768   0.15537   0.15944   0.15989   0.16001
     Eigenvalues ---    0.16009   0.16027   0.16053   0.16486   0.17045
     Eigenvalues ---    0.18295   0.21778   0.25743   0.27569   0.29827
     Eigenvalues ---    0.31970   0.33038   0.34466   0.34801   0.34871
     Eigenvalues ---    0.34998   0.35057   0.35092   0.35138   0.35189
     Eigenvalues ---    0.35196   0.35495   0.36203   0.37211   0.37284
     Eigenvalues ---    0.37646
 En-DIIS/RFO-DIIS/Sim-DIIS IScMMF=       -3 using points:     9    8    7    6    5
 RFO step:  Lambda=-8.14876409D-06.
 DidBck=F Rises=F RFO-DIIS coefs:    1.15886   -0.02087    0.06652   -0.23790    0.03339
 Iteration  1 RMS(Cart)=  0.02433784 RMS(Int)=  0.00016957
 Iteration  2 RMS(Cart)=  0.00024891 RMS(Int)=  0.00000394
 Iteration  3 RMS(Cart)=  0.00000002 RMS(Int)=  0.00000394
 Variable       Old X    -DE/DX   Delta X   Delta X   Delta X     New X
                                 (Linear)    (Quad)   (Total)
    R1        2.06414  -0.00006  -0.00012  -0.00003  -0.00015   2.06399
    R2        2.06409   0.00003   0.00006   0.00001   0.00007   2.06416
    R3        2.88272   0.00010  -0.00048   0.00065   0.00017   2.88289
    R4        2.88011  -0.00004  -0.00002  -0.00006  -0.00008   2.88003
    R5        2.06564  -0.00008   0.00010  -0.00023  -0.00013   2.06551
    R6        2.08894   0.00002   0.00064  -0.00022   0.00042   2.08936
    R7        2.74975   0.00005  -0.00158   0.00157  -0.00001   2.74973
    R8        2.73767  -0.00002  -0.00079   0.00083   0.00004   2.73770
    R9        2.73718  -0.00004  -0.00052   0.00053   0.00000   2.73718
   R10        2.05954  -0.00001  -0.00005  -0.00003  -0.00009   2.05945
   R11        2.08651  -0.00005   0.00005  -0.00014  -0.00010   2.08641
   R12        2.05813  -0.00006   0.00019  -0.00026  -0.00007   2.05806
   R13        2.08624  -0.00006   0.00008  -0.00019  -0.00012   2.08612
   R14        2.06032  -0.00001  -0.00006  -0.00003  -0.00009   2.06023
   R15        2.06009  -0.00000   0.00015  -0.00012   0.00003   2.06012
   R16        2.05878  -0.00003   0.00031  -0.00030   0.00002   2.05880
   R17        2.06040  -0.00002   0.00014  -0.00014   0.00000   2.06040
   R18        2.06307  -0.00002   0.00008  -0.00015  -0.00007   2.06300
    A1        1.84518   0.00000  -0.00029  -0.00021  -0.00050   1.84468
    A2        1.92326  -0.00000  -0.00030   0.00055   0.00026   1.92352
    A3        1.91926  -0.00002   0.00016   0.00024   0.00040   1.91966
    A4        1.87438  -0.00003  -0.00079  -0.00028  -0.00107   1.87331
    A5        1.91969  -0.00002   0.00010  -0.00056  -0.00045   1.91924
    A6        1.97696   0.00007   0.00099   0.00021   0.00120   1.97817
    A7        1.89329  -0.00004   0.00046  -0.00068  -0.00022   1.89307
    A8        1.90554  -0.00004  -0.00124   0.00068  -0.00056   1.90498
    A9        1.99186   0.00023   0.00048   0.00150   0.00199   1.99385
   A10        1.86266   0.00003   0.00073  -0.00047   0.00026   1.86292
   A11        1.87203  -0.00015  -0.00117  -0.00078  -0.00196   1.87007
   A12        1.93340  -0.00004   0.00077  -0.00041   0.00035   1.93375
   A13        1.96157   0.00010  -0.00067   0.00149   0.00081   1.96238
   A14        1.93385  -0.00004  -0.00306   0.00125  -0.00182   1.93203
   A15        1.93312  -0.00006  -0.00021   0.00007  -0.00017   1.93295
   A16        1.91178  -0.00000  -0.00054   0.00010  -0.00044   1.91135
   A17        1.96375  -0.00008   0.00039  -0.00048  -0.00009   1.96366
   A18        1.93167   0.00005   0.00009   0.00021   0.00030   1.93197
   A19        1.88719   0.00003  -0.00031   0.00023  -0.00008   1.88711
   A20        1.87875  -0.00002  -0.00003  -0.00010  -0.00013   1.87862
   A21        1.88820   0.00003   0.00039   0.00005   0.00044   1.88864
   A22        1.96626  -0.00000  -0.00042   0.00018  -0.00024   1.96602
   A23        1.91835  -0.00006   0.00058  -0.00056   0.00002   1.91837
   A24        1.91840  -0.00002   0.00012  -0.00040  -0.00028   1.91812
   A25        1.88558   0.00003   0.00009   0.00032   0.00041   1.88599
   A26        1.88670   0.00002  -0.00035   0.00022  -0.00013   1.88658
   A27        1.88645   0.00004  -0.00002   0.00026   0.00025   1.88670
   A28        1.93607   0.00001   0.00143  -0.00055   0.00087   1.93695
   A29        1.93962  -0.00001  -0.00060   0.00026  -0.00034   1.93927
   A30        1.93445  -0.00006   0.00018  -0.00051  -0.00033   1.93412
   A31        1.89361   0.00000  -0.00017   0.00024   0.00007   1.89368
   A32        1.87354   0.00001  -0.00107   0.00024  -0.00082   1.87271
   A33        1.88431   0.00004   0.00018   0.00036   0.00053   1.88484
    D1       -3.01898   0.00001   0.01706   0.00130   0.01835  -3.00063
    D2       -0.99544   0.00001   0.01751   0.00073   0.01824  -0.97720
    D3        1.17855   0.00009   0.01791   0.00181   0.01972   1.19827
    D4       -1.01720  -0.00000   0.01612   0.00118   0.01730  -0.99990
    D5        1.00634  -0.00001   0.01658   0.00061   0.01719   1.02353
    D6       -3.10286   0.00007   0.01697   0.00170   0.01867  -3.08419
    D7        1.10596  -0.00000   0.01634   0.00041   0.01675   1.12271
    D8        3.12950  -0.00001   0.01680  -0.00016   0.01663  -3.13705
    D9       -0.97969   0.00007   0.01719   0.00092   0.01811  -0.96158
   D10       -1.09357  -0.00002   0.00534  -0.00045   0.00489  -1.08868
   D11        1.01467  -0.00001   0.00568  -0.00034   0.00534   1.02002
   D12        3.11008  -0.00000   0.00563  -0.00006   0.00557   3.11564
   D13       -3.11876   0.00000   0.00554  -0.00001   0.00553  -3.11323
   D14       -1.01052   0.00001   0.00588   0.00010   0.00598  -1.00454
   D15        1.08488   0.00002   0.00583   0.00038   0.00621   1.09109
   D16        1.06686   0.00001   0.00580   0.00061   0.00641   1.07327
   D17       -3.10808   0.00001   0.00614   0.00072   0.00686  -3.10122
   D18       -1.01268   0.00002   0.00609   0.00100   0.00709  -1.00559
   D19       -1.13984  -0.00001   0.02307   0.00014   0.02321  -1.11663
   D20        2.97020   0.00003   0.02623  -0.00201   0.02421   2.99441
   D21        3.04574   0.00001   0.02301   0.00061   0.02363   3.06937
   D22        0.87260   0.00004   0.02617  -0.00153   0.02463   0.89723
   D23        1.01920   0.00008   0.02239   0.00185   0.02425   1.04345
   D24       -1.15394   0.00011   0.02555  -0.00029   0.02525  -1.12869
   D25       -3.12828   0.00004   0.01283  -0.00212   0.01071  -3.11757
   D26       -1.02870   0.00002   0.01231  -0.00208   0.01024  -1.01847
   D27        1.08608   0.00003   0.01314  -0.00219   0.01096   1.09703
   D28       -0.95473   0.00001   0.00812   0.00067   0.00879  -0.94594
   D29        1.14484  -0.00001   0.00761   0.00072   0.00832   1.15317
   D30       -3.02356  -0.00000   0.00844   0.00060   0.00904  -3.01452
   D31        1.09403   0.00002  -0.00066   0.00005  -0.00060   1.09343
   D32       -3.08541   0.00002  -0.00042   0.00019  -0.00023  -3.08563
   D33       -1.01117   0.00002  -0.00001  -0.00007  -0.00008  -1.01126
   D34       -1.09520  -0.00003   0.00266  -0.00285  -0.00019  -1.09538
   D35        1.00855  -0.00003   0.00290  -0.00271   0.00019   1.00874
   D36        3.08278  -0.00003   0.00331  -0.00297   0.00033   3.08311
         Item               Value     Threshold  Converged?
 Maximum Force            0.000231     0.000450     YES
 RMS     Force            0.000050     0.000300     YES
 Maximum Displacement     0.084847     0.001800     NO 
 RMS     Displacement     0.024361     0.001200     NO 
 Predicted change in Energy=-1.703845D-06
 GradGradGradGradGradGradGradGradGradGradGradGradGradGradGradGradGradGrad

                          Input orientation:                          
 ---------------------------------------------------------------------
 Center     Atomic      Atomic             Coordinates (Angstroms)
 Number     Number       Type             X           Y           Z
 ---------------------------------------------------------------------
      1          6           0        0.719275   -0.986134    0.208157
      2          1           0        0.622284   -1.154495    1.282952
      3          1           0        1.618611   -1.526578   -0.095569
      4          6           0       -0.458833   -1.612149   -0.531772
      5          1           0       -0.262959   -1.555178   -1.605590
      6          1           0       -0.518718   -2.686024   -0.275561
      7          7           0       -1.733364   -0.952104   -0.292567
      8          6           0       -2.153125   -1.045116    1.090897
      9          1           0       -3.120737   -0.558343    1.211214
     10          1           0       -2.249330   -2.090090    1.434069
     11          1           0       -1.444535   -0.536557    1.743093
     12          6           0       -2.755078   -1.476563   -1.175212
     13          1           0       -2.951159   -2.549979   -1.007915
     14          1           0       -3.689257   -0.934936   -1.025076
     15          1           0       -2.450945   -1.345820   -2.213903
     16          6           0        0.886800    0.502361   -0.072975
     17          1           0        0.009477    1.061547    0.250379
     18          1           0        1.761119    0.903073    0.440631
     19          1           0        1.011328    0.683624   -1.142288
 ---------------------------------------------------------------------
                    Distance matrix (angstroms):
                    1          2          3          4          5
     1  C    0.000000
     2  H    1.092216   0.000000
     3  H    1.092307   1.741101   0.000000
     4  C    1.525558   2.161361   2.124469   0.000000
     5  H    2.139690   3.047601   2.412733   1.093022   0.000000
     6  H    2.157831   2.465041   2.438213   1.105639   1.764427
     7  N    2.503461   2.841179   3.406547   1.455097   2.061509
     8  C    3.005560   2.784195   3.983151   2.413546   3.332256
     9  H    3.991844   3.790877   5.010646   3.351751   4.134605
    10  H    3.396204   3.023962   4.197417   2.701636   3.670331
    11  H    2.690766   2.205747   3.707248   2.702502   3.694237
    12  C    3.771652   4.189614   4.505250   2.388543   2.530230
    13  H    4.170915   4.468215   4.771008   2.705167   2.928014
    14  H    4.578061   4.895364   5.421022   3.337305   3.530045
    15  H    4.005751   4.659327   4.591437   2.620879   2.280605
    16  C    1.524046   2.157239   2.157001   2.548014   2.811462
    17  H    2.167623   2.520432   3.067146   2.824840   3.219641
    18  H    2.169928   2.498006   2.492193   3.492864   3.785090
    19  H    2.167276   3.067870   2.519803   2.793685   2.617382
                    6          7          8          9         10
     6  H    0.000000
     7  N    2.117105   0.000000
     8  C    2.689065   1.448731   0.000000
     9  H    3.675327   2.083557   1.089816   0.000000
    10  H    2.504594   2.131315   1.104081   1.776306   0.000000
    11  H    3.090681   2.097620   1.089078   1.758699   1.776699
    12  C    2.696938   1.448454   2.384060   2.582995   2.727736
    13  H    2.543939   2.132593   2.703051   2.986621   2.582121
    14  H    3.698703   2.088632   2.617095   2.337955   3.074925
    15  H    3.047428   2.088413   3.331789   3.577732   3.728577
    16  C    3.490319   3.004821   3.604224   4.339884   4.339044
    17  H    3.820980   2.717917   3.133902   3.653147   4.054152
    18  H    4.311868   4.023763   4.420361   5.153838   5.101926
    19  H    3.800893   3.306201   4.241393   4.914816   4.996299
                   11         12         13         14         15
    11  H    0.000000
    12  C    3.334312   0.000000
    13  H    3.727175   1.103928   0.000000
    14  H    3.586118   1.090225   1.775794   0.000000
    15  H    4.162401   1.090169   1.776125   1.765092   0.000000
    16  C    3.132504   4.288863   4.992077   4.890053   4.374916
    17  H    2.626077   4.014607   4.836505   4.392421   4.233411
    18  H    3.747687   5.354405   6.018922   5.935754   5.463108
    19  H    3.980644   4.342040   5.116205   4.972824   4.153834
                   16         17         18         19
    16  C    0.000000
    17  H    1.089469   0.000000
    18  H    1.090318   1.769056   0.000000
    19  H    1.091692   1.756716   1.765212   0.000000
 Stoichiometry    C5H13N
 Framework group  C1[X(C5H13N)]
 Deg. of freedom    51
 Full point group                 C1      NOp   1
 Largest Abelian subgroup         C1      NOp   1
 Largest concise Abelian subgroup C1      NOp   1
                         Standard orientation:                         
 ---------------------------------------------------------------------
 Center     Atomic      Atomic             Coordinates (Angstroms)
 Number     Number       Type             X           Y           Z
 ---------------------------------------------------------------------
      1          6           0        1.560301   -0.049997    0.619496
      2          1           0        1.542998    0.946091    1.067209
      3          1           0        2.182896   -0.659317    1.278464
      4          6           0        0.160360   -0.656145    0.628306
      5          1           0        0.232854   -1.699469    0.310629
      6          1           0       -0.224515   -0.664891    1.664758
      7          7           0       -0.780536    0.000415   -0.266652
      8          6           0       -1.036933    1.374984    0.112353
      9          1           0       -1.763452    1.811927   -0.572445
     10          1           0       -1.435566    1.463265    1.138166
     11          1           0       -0.125669    1.968018    0.049104
     12          6           0       -2.017537   -0.748730   -0.348081
     13          1           0       -2.540257   -0.812853    0.622130
     14          1           0       -2.690835   -0.277128   -1.064218
     15          1           0       -1.814923   -1.763463   -0.691205
     16          6           0        2.181686    0.014373   -0.770632
     17          1           0        1.588308    0.642240   -1.434431
     18          1           0        3.194942    0.414914   -0.729724
     19          1           0        2.229705   -0.979150   -1.220520
 ---------------------------------------------------------------------
 Rotational constants (GHZ):           5.8346698           2.1330489           1.9547753
 Standard basis: 6-311+G(2d,2p) (5D, 7F)
 There are   291 symmetry adapted cartesian basis functions of A   symmetry.
 There are   279 symmetry adapted basis functions of A   symmetry.
   279 basis functions,   395 primitive gaussians,   291 cartesian basis functions
    25 alpha electrons       25 beta electrons
       nuclear repulsion energy       264.7664938730 Hartrees.
 NAtoms=   19 NActive=   19 NUniq=   19 SFac= 1.00D+00 NAtFMM=   60 NAOKFM=F Big=F
 Integral buffers will be    131072 words long.
 Raffenetti 2 integral format.
 Two-electron integral symmetry is turned on.
 Nuclear repulsion after empirical dispersion term =      264.7551773050 Hartrees.
 One-electron integrals computed using PRISM.
 NBasis=   279 RedAO= T EigKep=  3.48D-05  NBF=   279
 NBsUse=   279 1.00D-06 EigRej= -1.00D+00 NBFU=   279
 Initial guess from the checkpoint file:  "dimethyl_aminopropyl.chk"
 B after Tr=     0.000000   -0.000000   -0.000000
         Rot=    0.999719   -0.023359   -0.000877    0.003842 Ang=  -2.71 deg.
 ExpMin= 4.38D-02 ExpMax= 6.29D+03 ExpMxC= 9.49D+02 IAcc=2 IRadAn=         4 AccDes= 0.00D+00
 Harris functional with IExCor= 4639 and IRadAn=       4 diagonalized for initial guess.
 HarFok:  IExCor= 4639 AccDes= 0.00D+00 IRadAn=         4 IDoV= 1 UseB2=F ITyADJ=14
 ICtDFT=  3500011 ScaDFX=  1.000000  1.000000  1.000000  1.000000
 FoFCou: FMM=F IPFlag=           0 FMFlag=      100000 FMFlg1=           0
         NFxFlg=           0 DoJE=T BraDBF=F KetDBF=T FulRan=T
         wScrn=  0.000000 ICntrl=       500 IOpCl=  0 I1Cent=   200000004 NGrid=           0
         NMat0=    1 NMatS0=      1 NMatT0=    0 NMatD0=    1 NMtDS0=    0 NMtDT0=    0
 Petite list used in FoFCou.
 Requested convergence on RMS density matrix=1.00D-08 within  32 cycles.
 Requested convergence on MAX density matrix=1.00D-06.
 Requested convergence on             energy=1.00D-06.
 No special actions if energy rises.
 SCF Done:  E(RwB97XD) =  -253.104334223     A.U. after    9 cycles
            NFock=  9  Conv=0.88D-08     -V/T= 2.0047
 QCSCF skips out because SCF is already converged.
 Calling FoFJK, ICntrl=      2127 FMM=F ISym2X=0 I1Cent= 0 IOpClX= 0 NMat=1 NMatS=1 NMatT=0.
 ***** Axes restored to original set *****
 -------------------------------------------------------------------
 Center     Atomic                   Forces (Hartrees/Bohr)
 Number     Number              X              Y              Z
 -------------------------------------------------------------------
      1        6          -0.000012488    0.000025843    0.000054214
      2        1          -0.000050170    0.000019672    0.000023455
      3        1           0.000002900    0.000018058   -0.000003896
      4        6           0.000041276   -0.000004830   -0.000074103
      5        1          -0.000006827   -0.000043205   -0.000028069
      6        1          -0.000018710    0.000081271    0.000012912
      7        7          -0.000038132   -0.000079754    0.000068302
      8        6          -0.000007365   -0.000080010    0.000019982
      9        1           0.000002045    0.000010171   -0.000003848
     10        1          -0.000010958    0.000028681    0.000004407
     11        1           0.000039168   -0.000022373    0.000030757
     12        6          -0.000000628    0.000020922   -0.000035321
     13        1           0.000011775    0.000026051   -0.000000488
     14        1           0.000014995    0.000015151    0.000001623
     15        1           0.000008135   -0.000007651   -0.000017383
     16        6           0.000045458    0.000001610   -0.000078080
     17        1           0.000030695    0.000016985   -0.000007312
     18        1          -0.000041495   -0.000014435    0.000003665
     19        1          -0.000009673   -0.000012157    0.000029183
 -------------------------------------------------------------------
 Cartesian Forces:  Max     0.000081271 RMS     0.000033477

 GradGradGradGradGradGradGradGradGradGradGradGradGradGradGradGradGradGrad
 Berny optimization.
 Using GEDIIS/GDIIS optimizer.
 FormGI is forming the generalized inverse of G from B-inverse, IUseBI=4.
 Internal  Forces:  Max     0.000122336 RMS     0.000034921
 Search for a local minimum.
 Step number  10 out of a maximum of   97
 All quantities printed in internal units (Hartrees-Bohrs-Radians)
 Mixed Optimization -- En-DIIS/RFO-DIIS
 Swapping is turned off.
 Update second derivatives using D2CorX and points    7    8    9   10
 DE=  4.18D-07 DEPred=-1.70D-06 R=-2.45D-01
 Trust test=-2.45D-01 RLast= 8.55D-02 DXMaxT set to 1.10D+00
 ITU= -1  1  1  1  1  1  1  1  1  0
     Eigenvalues ---    0.00194   0.00313   0.00407   0.00447   0.00567
     Eigenvalues ---    0.02233   0.03428   0.04411   0.04849   0.05380
     Eigenvalues ---    0.05403   0.05480   0.06898   0.06932   0.07243
     Eigenvalues ---    0.07293   0.08564   0.09418   0.12019   0.13046
     Eigenvalues ---    0.13812   0.15365   0.15940   0.15990   0.16008
     Eigenvalues ---    0.16013   0.16040   0.16053   0.16511   0.17155
     Eigenvalues ---    0.18282   0.21658   0.25780   0.28822   0.30549
     Eigenvalues ---    0.32611   0.33031   0.34570   0.34810   0.34890
     Eigenvalues ---    0.35003   0.35063   0.35090   0.35152   0.35185
     Eigenvalues ---    0.35250   0.35561   0.37120   0.37209   0.37335
     Eigenvalues ---    0.38389
 En-DIIS/RFO-DIIS/Sim-DIIS IScMMF=       -3 using points:    10    9    8    7    6    5
 RFO step:  Lambda=-7.28771752D-06.
 EnCoef did   100 forward-backward iterations
 EnCoef did   100 forward-backward iterations
 EnCoef did   100 forward-backward iterations
 EnCoef did     8 forward-backward iterations
 DidBck=T Rises=T En-DIIS coefs:    0.17861    0.53820    0.28319    0.00000    0.00000
                  En-DIIS coefs:    0.00000
 Iteration  1 RMS(Cart)=  0.01273032 RMS(Int)=  0.00004609
 Iteration  2 RMS(Cart)=  0.00006751 RMS(Int)=  0.00000030
 Iteration  3 RMS(Cart)=  0.00000000 RMS(Int)=  0.00000030
 Variable       Old X    -DE/DX   Delta X   Delta X   Delta X     New X
                                 (Linear)    (Quad)   (Total)
    R1        2.06399   0.00002  -0.00011   0.00014   0.00003   2.06402
    R2        2.06416  -0.00000  -0.00002   0.00003   0.00001   2.06417
    R3        2.88289   0.00000   0.00032  -0.00028   0.00004   2.88293
    R4        2.88003   0.00000   0.00122  -0.00124  -0.00003   2.88000
    R5        2.06551   0.00002   0.00017  -0.00020  -0.00003   2.06548
    R6        2.08936  -0.00007  -0.00024  -0.00004  -0.00029   2.08907
    R7        2.74973  -0.00004   0.00053  -0.00052   0.00000   2.74974
    R8        2.73770   0.00005   0.00094  -0.00095  -0.00001   2.73770
    R9        2.73718  -0.00001   0.00075  -0.00082  -0.00008   2.73710
   R10        2.05945   0.00000   0.00005  -0.00003   0.00002   2.05948
   R11        2.08641  -0.00002   0.00002  -0.00008  -0.00006   2.08635
   R12        2.05806   0.00003  -0.00009   0.00010   0.00001   2.05807
   R13        2.08612  -0.00003   0.00001  -0.00008  -0.00007   2.08606
   R14        2.06023  -0.00000   0.00001   0.00000   0.00001   2.06024
   R15        2.06012   0.00002  -0.00003   0.00002  -0.00001   2.06012
   R16        2.05880  -0.00002  -0.00006  -0.00002  -0.00007   2.05873
   R17        2.06040  -0.00004  -0.00005  -0.00004  -0.00009   2.06032
   R18        2.06300  -0.00003  -0.00004  -0.00000  -0.00004   2.06296
    A1        1.84468   0.00002  -0.00025   0.00056   0.00031   1.84499
    A2        1.92352  -0.00002   0.00026  -0.00036  -0.00010   1.92341
    A3        1.91966   0.00003  -0.00023   0.00018  -0.00005   1.91961
    A4        1.87331   0.00002   0.00022   0.00024   0.00046   1.87377
    A5        1.91924  -0.00004   0.00048  -0.00058  -0.00010   1.91914
    A6        1.97817   0.00000  -0.00045   0.00000  -0.00045   1.97772
    A7        1.89307   0.00002  -0.00018   0.00022   0.00005   1.89311
    A8        1.90498   0.00007   0.00047   0.00016   0.00063   1.90561
    A9        1.99385  -0.00012  -0.00027  -0.00056  -0.00083   1.99302
   A10        1.86292  -0.00002  -0.00019   0.00007  -0.00012   1.86280
   A11        1.87007   0.00008   0.00097  -0.00040   0.00057   1.87064
   A12        1.93375  -0.00003  -0.00078   0.00053  -0.00025   1.93350
   A13        1.96238  -0.00008  -0.00033  -0.00010  -0.00043   1.96195
   A14        1.93203   0.00005   0.00021   0.00075   0.00096   1.93299
   A15        1.93295   0.00004  -0.00022   0.00025   0.00003   1.93298
   A16        1.91135  -0.00001   0.00031  -0.00015   0.00016   1.91151
   A17        1.96366   0.00002  -0.00007  -0.00011  -0.00018   1.96348
   A18        1.93197   0.00001  -0.00022   0.00022  -0.00000   1.93197
   A19        1.88711  -0.00001   0.00022  -0.00012   0.00011   1.88722
   A20        1.87862   0.00001  -0.00002   0.00015   0.00012   1.87875
   A21        1.88864  -0.00002  -0.00022   0.00002  -0.00020   1.88845
   A22        1.96602  -0.00001  -0.00017   0.00026   0.00009   1.96611
   A23        1.91837  -0.00002   0.00001  -0.00030  -0.00029   1.91808
   A24        1.91812   0.00001   0.00030  -0.00022   0.00008   1.91820
   A25        1.88599   0.00002  -0.00019   0.00013  -0.00005   1.88594
   A26        1.88658  -0.00000   0.00020  -0.00006   0.00014   1.88672
   A27        1.88670   0.00001  -0.00016   0.00019   0.00003   1.88673
   A28        1.93695   0.00004  -0.00079   0.00050  -0.00029   1.93666
   A29        1.93927  -0.00002   0.00032  -0.00020   0.00012   1.93939
   A30        1.93412  -0.00001   0.00024  -0.00032  -0.00008   1.93404
   A31        1.89368  -0.00002   0.00011  -0.00019  -0.00008   1.89360
   A32        1.87271  -0.00001   0.00071  -0.00032   0.00040   1.87311
   A33        1.88484   0.00002  -0.00058   0.00053  -0.00005   1.88479
    D1       -3.00063  -0.00002  -0.01108   0.00137  -0.00971  -3.01035
    D2       -0.97720   0.00000  -0.01115   0.00166  -0.00949  -0.98669
    D3        1.19827  -0.00006  -0.01201   0.00208  -0.00993   1.18833
    D4       -0.99990  -0.00000  -0.01112   0.00198  -0.00914  -1.00905
    D5        1.02353   0.00002  -0.01120   0.00227  -0.00892   1.01461
    D6       -3.08419  -0.00005  -0.01205   0.00269  -0.00937  -3.09355
    D7        1.12271  -0.00004  -0.01065   0.00141  -0.00923   1.11347
    D8       -3.13705  -0.00002  -0.01072   0.00171  -0.00901   3.13713
    D9       -0.96158  -0.00009  -0.01158   0.00212  -0.00945  -0.97103
   D10       -1.08868   0.00001  -0.00583   0.00401  -0.00182  -1.09050
   D11        1.02002   0.00000  -0.00601   0.00397  -0.00204   1.01797
   D12        3.11564   0.00000  -0.00637   0.00429  -0.00208   3.11356
   D13       -3.11323  -0.00000  -0.00568   0.00357  -0.00211  -3.11534
   D14       -1.00454  -0.00001  -0.00585   0.00353  -0.00233  -1.00687
   D15        1.09109  -0.00001  -0.00621   0.00385  -0.00237   1.08872
   D16        1.07327   0.00000  -0.00600   0.00367  -0.00233   1.07094
   D17       -3.10122  -0.00001  -0.00618   0.00363  -0.00255  -3.10376
   D18       -1.00559  -0.00000  -0.00653   0.00395  -0.00258  -1.00817
   D19       -1.11663  -0.00003  -0.01079  -0.00145  -0.01223  -1.12887
   D20        2.99441  -0.00006  -0.01042  -0.00227  -0.01268   2.98173
   D21        3.06937  -0.00003  -0.01108  -0.00110  -0.01218   3.05719
   D22        0.89723  -0.00006  -0.01070  -0.00192  -0.01262   0.88460
   D23        1.04345  -0.00004  -0.01099  -0.00124  -0.01222   1.03123
   D24       -1.12869  -0.00007  -0.01062  -0.00206  -0.01267  -1.14136
   D25       -3.11757  -0.00003  -0.00558  -0.00058  -0.00617  -3.12374
   D26       -1.01847  -0.00003  -0.00513  -0.00091  -0.00604  -1.02450
   D27        1.09703  -0.00005  -0.00561  -0.00080  -0.00642   1.09062
   D28       -0.94594   0.00000  -0.00571   0.00051  -0.00520  -0.95114
   D29        1.15317   0.00000  -0.00526   0.00019  -0.00507   1.14810
   D30       -3.01452  -0.00001  -0.00574   0.00029  -0.00545  -3.01997
   D31        1.09343  -0.00001   0.00005   0.00023   0.00028   1.09371
   D32       -3.08563  -0.00001  -0.00029   0.00036   0.00007  -3.08556
   D33       -1.01126  -0.00001  -0.00030   0.00028  -0.00002  -1.01127
   D34       -1.09538   0.00002   0.00048  -0.00038   0.00011  -1.09528
   D35        1.00874   0.00003   0.00014  -0.00024  -0.00010   1.00864
   D36        3.08311   0.00003   0.00013  -0.00032  -0.00019   3.08292
         Item               Value     Threshold  Converged?
 Maximum Force            0.000122     0.000450     YES
 RMS     Force            0.000035     0.000300     YES
 Maximum Displacement     0.045234     0.001800     NO 
 RMS     Displacement     0.012727     0.001200     NO 
 Predicted change in Energy=-3.650689D-06
 GradGradGradGradGradGradGradGradGradGradGradGradGradGradGradGradGradGrad

                          Input orientation:                          
 ---------------------------------------------------------------------
 Center     Atomic      Atomic             Coordinates (Angstroms)
 Number     Number       Type             X           Y           Z
 ---------------------------------------------------------------------
      1          6           0        0.719171   -0.981165    0.211239
      2          1           0        0.618819   -1.138157    1.287459
      3          1           0        1.618317   -1.526284   -0.084601
      4          6           0       -0.458549   -1.611943   -0.525299
      5          1           0       -0.264285   -1.557676   -1.599532
      6          1           0       -0.516391   -2.685073   -0.266167
      7          7           0       -1.733726   -0.953418   -0.285336
      8          6           0       -2.157999   -1.057847    1.095932
      9          1           0       -3.122966   -0.566416    1.218646
     10          1           0       -2.261390   -2.105662    1.428070
     11          1           0       -1.448044   -0.560493    1.755251
     12          6           0       -2.753177   -1.469027   -1.175712
     13          1           0       -2.951168   -2.543552   -1.018314
     14          1           0       -3.687105   -0.927503   -1.023606
     15          1           0       -2.445723   -1.329552   -2.212284
     16          6           0        0.890205    0.504023   -0.084799
     17          1           0        0.012120    1.067563    0.228650
     18          1           0        1.762545    0.909027    0.428708
     19          1           0        1.020199    0.673695   -1.155341
 ---------------------------------------------------------------------
                    Distance matrix (angstroms):
                    1          2          3          4          5
     1  C    0.000000
     2  H    1.092230   0.000000
     3  H    1.092310   1.741318   0.000000
     4  C    1.525580   2.161316   2.124836   0.000000
     5  H    2.139730   3.048046   2.416649   1.093004   0.000000
     6  H    2.158201   2.468887   2.435721   1.105487   1.764211
     7  N    2.502811   2.835891   3.406562   1.455099   2.061916
     8  C    3.011091   2.784573   3.984176   2.413201   3.331892
     9  H    3.993608   3.785839   5.009947   3.351655   4.134825
    10  H    3.410120   3.041618   4.204282   2.703636   3.668118
    11  H    2.694023   2.196462   3.704103   2.699177   3.694621
    12  C    3.770788   4.188918   4.505969   2.389305   2.526274
    13  H    4.174236   4.476219   4.773558   2.706309   2.920463
    14  H    4.576352   4.891459   5.421049   3.337715   3.527677
    15  H    4.001424   4.655775   4.591531   2.621931   2.277318
    16  C    1.524032   2.157197   2.156918   2.547644   2.806754
    17  H    2.167373   2.520785   3.066926   2.823069   3.211001
    18  H    2.169965   2.497304   2.492996   3.492661   3.782383
    19  H    2.167192   3.067766   2.518757   2.794243   2.612704
                    6          7          8          9         10
     6  H    0.000000
     7  N    2.116813   0.000000
     8  C    2.682919   1.448728   0.000000
     9  H    3.672548   2.083679   1.089828   0.000000
    10  H    2.500235   2.131163   1.104049   1.776360   0.000000
    11  H    3.077002   2.097617   1.089081   1.758791   1.776549
    12  C    2.703562   1.448413   2.384045   2.585421   2.725223
    13  H    2.552233   2.132592   2.703049   2.990414   2.579213
    14  H    3.703538   2.088397   2.616791   2.340156   3.071065
    15  H    3.057307   2.088431   3.331801   3.579429   3.726728
    16  C    3.490235   3.008216   3.622859   4.353200   4.362543
    17  H    3.821837   2.719655   3.158949   3.671341   4.083726
    18  H    4.312071   4.025230   4.436716   5.164219   5.126318
    19  H    3.799087   3.314893   4.262324   4.933509   5.016739
                   11         12         13         14         15
    11  H    0.000000
    12  C    3.334568   0.000000
    13  H    3.726200   1.103893   0.000000
    14  H    3.587497   1.090232   1.775738   0.000000
    15  H    4.162709   1.090166   1.776185   1.765114   0.000000
    16  C    3.160124   4.284536   4.991524   4.886962   4.360803
    17  H    2.667050   4.006668   4.834889   4.385510   4.212518
    18  H    3.771882   5.349864   6.019408   5.931336   5.449367
    19  H    4.010859   4.339359   5.112848   4.973922   4.140379
                   16         17         18         19
    16  C    0.000000
    17  H    1.089431   0.000000
    18  H    1.090273   1.768939   0.000000
    19  H    1.091672   1.756925   1.765126   0.000000
 Stoichiometry    C5H13N
 Framework group  C1[X(C5H13N)]
 Deg. of freedom    51
 Full point group                 C1      NOp   1
 Largest Abelian subgroup         C1      NOp   1
 Largest concise Abelian subgroup C1      NOp   1
                         Standard orientation:                         
 ---------------------------------------------------------------------
 Center     Atomic      Atomic             Coordinates (Angstroms)
 Number     Number       Type             X           Y           Z
 ---------------------------------------------------------------------
      1          6           0        1.561343   -0.024671    0.618722
      2          1           0        1.539793    0.986682    1.030630
      3          1           0        2.184790   -0.608213    1.299848
      4          6           0        0.163241   -0.634558    0.645960
      5          1           0        0.238367   -1.685770    0.356186
      6          1           0       -0.220672   -0.616828    1.682492
      7          7           0       -0.780209   -0.004025   -0.264889
      8          6           0       -1.051555    1.374582    0.088135
      9          1           0       -1.774641    1.794017   -0.611113
     10          1           0       -1.461087    1.476704    1.108320
     11          1           0       -0.144480    1.973930    0.024144
     12          6           0       -2.009575   -0.766296   -0.339075
     13          1           0       -2.536791   -0.818037    0.629401
     14          1           0       -2.683430   -0.313752   -1.066900
     15          1           0       -1.795679   -1.784973   -0.663125
     16          6           0        2.184994   -0.007603   -0.771761
     17          1           0        1.589459    0.592682   -1.458679
     18          1           0        3.195986    0.399599   -0.743881
     19          1           0        2.239168   -1.016591   -1.184988
 ---------------------------------------------------------------------
 Rotational constants (GHZ):           5.8265528           2.1294212           1.9532564
 Standard basis: 6-311+G(2d,2p) (5D, 7F)
 There are   291 symmetry adapted cartesian basis functions of A   symmetry.
 There are   279 symmetry adapted basis functions of A   symmetry.
   279 basis functions,   395 primitive gaussians,   291 cartesian basis functions
    25 alpha electrons       25 beta electrons
       nuclear repulsion energy       264.6953551606 Hartrees.
 NAtoms=   19 NActive=   19 NUniq=   19 SFac= 1.00D+00 NAtFMM=   60 NAOKFM=F Big=F
 Integral buffers will be    131072 words long.
 Raffenetti 2 integral format.
 Two-electron integral symmetry is turned on.
 Nuclear repulsion after empirical dispersion term =      264.6840627880 Hartrees.
 One-electron integrals computed using PRISM.
 NBasis=   279 RedAO= T EigKep=  3.49D-05  NBF=   279
 NBsUse=   279 1.00D-06 EigRej= -1.00D+00 NBFU=   279
 Initial guess from the checkpoint file:  "dimethyl_aminopropyl.chk"
 B after Tr=     0.000000    0.000000    0.000000
         Rot=    0.999925    0.012091    0.000499   -0.002011 Ang=   1.41 deg.
 ExpMin= 4.38D-02 ExpMax= 6.29D+03 ExpMxC= 9.49D+02 IAcc=2 IRadAn=         4 AccDes= 0.00D+00
 Harris functional with IExCor= 4639 and IRadAn=       4 diagonalized for initial guess.
 HarFok:  IExCor= 4639 AccDes= 0.00D+00 IRadAn=         4 IDoV= 1 UseB2=F ITyADJ=14
 ICtDFT=  3500011 ScaDFX=  1.000000  1.000000  1.000000  1.000000
 FoFCou: FMM=F IPFlag=           0 FMFlag=      100000 FMFlg1=           0
         NFxFlg=           0 DoJE=T BraDBF=F KetDBF=T FulRan=T
         wScrn=  0.000000 ICntrl=       500 IOpCl=  0 I1Cent=   200000004 NGrid=           0
         NMat0=    1 NMatS0=      1 NMatT0=    0 NMatD0=    1 NMtDS0=    0 NMtDT0=    0
 Petite list used in FoFCou.
 Requested convergence on RMS density matrix=1.00D-08 within  32 cycles.
 Requested convergence on MAX density matrix=1.00D-06.
 Requested convergence on             energy=1.00D-06.
 No special actions if energy rises.
 SCF Done:  E(RwB97XD) =  -253.104338009     A.U. after    9 cycles
            NFock=  9  Conv=0.51D-08     -V/T= 2.0047
 QCSCF skips out because SCF is already converged.
 Calling FoFJK, ICntrl=      2127 FMM=F ISym2X=0 I1Cent= 0 IOpClX= 0 NMat=1 NMatS=1 NMatT=0.
 ***** Axes restored to original set *****
 -------------------------------------------------------------------
 Center     Atomic                   Forces (Hartrees/Bohr)
 Number     Number              X              Y              Z
 -------------------------------------------------------------------
      1        6          -0.000006747   -0.000007162    0.000013884
      2        1           0.000013329   -0.000006426   -0.000009497
      3        1           0.000003013   -0.000003163   -0.000003591
      4        6           0.000010038    0.000008005   -0.000006218
      5        1           0.000012207   -0.000002633   -0.000005251
      6        1           0.000000984    0.000005060    0.000004959
      7        7           0.000010977   -0.000004578    0.000000140
      8        6          -0.000008596    0.000008022    0.000007107
      9        1          -0.000003618    0.000001973    0.000005928
     10        1          -0.000000832   -0.000001084    0.000002045
     11        1          -0.000009980   -0.000000790   -0.000003080
     12        6          -0.000006109    0.000003467   -0.000000111
     13        1           0.000001688    0.000002129   -0.000000777
     14        1          -0.000001924   -0.000002012   -0.000003522
     15        1          -0.000000682   -0.000002133   -0.000003540
     16        6          -0.000004681    0.000004316   -0.000002563
     17        1           0.000000658    0.000004168   -0.000000700
     18        1          -0.000005510   -0.000005092    0.000003309
     19        1          -0.000004214   -0.000002068    0.000001478
 -------------------------------------------------------------------
 Cartesian Forces:  Max     0.000013884 RMS     0.000005649

 GradGradGradGradGradGradGradGradGradGradGradGradGradGradGradGradGradGrad
 Berny optimization.
 Using GEDIIS/GDIIS optimizer.
 FormGI is forming the generalized inverse of G from B-inverse, IUseBI=4.
 Internal  Forces:  Max     0.000020966 RMS     0.000006688
 Search for a local minimum.
 Step number  11 out of a maximum of   97
 All quantities printed in internal units (Hartrees-Bohrs-Radians)
 Mixed Optimization -- En-DIIS/RFO-DIIS
 Swapping is turned off.
 Update second derivatives using D2CorX and points    6    7    8    9   10
                                                     11
 DE= -3.79D-06 DEPred=-3.65D-06 R= 1.04D+00
 TightC=F SS=  1.41D+00  RLast= 4.43D-02 DXNew= 1.8529D+00 1.3302D-01
 Trust test= 1.04D+00 RLast= 4.43D-02 DXMaxT set to 1.10D+00
 ITU=  1 -1  1  1  1  1  1  1  1  1  0
     Eigenvalues ---    0.00202   0.00339   0.00397   0.00447   0.00552
     Eigenvalues ---    0.02254   0.03397   0.04423   0.04820   0.05386
     Eigenvalues ---    0.05401   0.05482   0.06896   0.06932   0.07247
     Eigenvalues ---    0.07295   0.08557   0.09347   0.12106   0.13023
     Eigenvalues ---    0.13776   0.15454   0.15893   0.15986   0.16008
     Eigenvalues ---    0.16019   0.16032   0.16061   0.16487   0.17201
     Eigenvalues ---    0.18345   0.21703   0.25663   0.28603   0.29760
     Eigenvalues ---    0.32262   0.33087   0.34439   0.34785   0.34884
     Eigenvalues ---    0.35003   0.35047   0.35085   0.35151   0.35178
     Eigenvalues ---    0.35219   0.35557   0.36650   0.37211   0.37281
     Eigenvalues ---    0.37751
 En-DIIS/RFO-DIIS/Sim-DIIS IScMMF=       -3 using points:    11   10    9    8    7    6    5
 RFO step:  Lambda=-7.42772025D-08.
 DidBck=F Rises=F RFO-DIIS coefs:    0.93952    0.12803   -0.00573   -0.06277    0.00023
                  RFO-DIIS coefs:    0.00770   -0.00697
 Iteration  1 RMS(Cart)=  0.00125434 RMS(Int)=  0.00000076
 Iteration  2 RMS(Cart)=  0.00000071 RMS(Int)=  0.00000056
 Variable       Old X    -DE/DX   Delta X   Delta X   Delta X     New X
                                 (Linear)    (Quad)   (Total)
    R1        2.06402  -0.00001   0.00004  -0.00006  -0.00003   2.06399
    R2        2.06417   0.00001   0.00000   0.00001   0.00002   2.06418
    R3        2.88293  -0.00001  -0.00010   0.00008  -0.00002   2.88291
    R4        2.88000  -0.00000  -0.00022   0.00025   0.00003   2.88003
    R5        2.06548   0.00001  -0.00002   0.00004   0.00002   2.06550
    R6        2.08907  -0.00000   0.00000  -0.00000  -0.00000   2.08907
    R7        2.74974   0.00002  -0.00002   0.00004   0.00002   2.74976
    R8        2.73770   0.00002  -0.00011   0.00018   0.00006   2.73776
    R9        2.73710   0.00001  -0.00007   0.00010   0.00003   2.73713
   R10        2.05948   0.00000  -0.00001   0.00002   0.00001   2.05949
   R11        2.08635   0.00000  -0.00002   0.00002  -0.00000   2.08635
   R12        2.05807  -0.00001   0.00001  -0.00003  -0.00001   2.05805
   R13        2.08606  -0.00000  -0.00002   0.00001  -0.00001   2.08604
   R14        2.06024   0.00000  -0.00000  -0.00000  -0.00000   2.06024
   R15        2.06012   0.00000  -0.00001   0.00002   0.00001   2.06013
   R16        2.05873   0.00000  -0.00001   0.00001   0.00000   2.05873
   R17        2.06032  -0.00001  -0.00000  -0.00001  -0.00002   2.06030
   R18        2.06296  -0.00000  -0.00000  -0.00001  -0.00001   2.06295
    A1        1.84499  -0.00001   0.00010  -0.00016  -0.00006   1.84493
    A2        1.92341   0.00001   0.00003   0.00005   0.00007   1.92349
    A3        1.91961   0.00000   0.00008   0.00001   0.00009   1.91970
    A4        1.87377   0.00000  -0.00009  -0.00002  -0.00011   1.87367
    A5        1.91914   0.00001  -0.00011   0.00010  -0.00001   1.91913
    A6        1.97772  -0.00002  -0.00000   0.00001   0.00000   1.97772
    A7        1.89311  -0.00001   0.00007  -0.00011  -0.00003   1.89308
    A8        1.90561  -0.00001  -0.00010   0.00002  -0.00007   1.90553
    A9        1.99302   0.00002  -0.00005   0.00013   0.00009   1.99311
   A10        1.86280   0.00000   0.00006  -0.00003   0.00002   1.86283
   A11        1.87064  -0.00000  -0.00003   0.00004   0.00001   1.87065
   A12        1.93350  -0.00000   0.00005  -0.00007  -0.00002   1.93349
   A13        1.96195   0.00002  -0.00001   0.00013   0.00012   1.96207
   A14        1.93299  -0.00001   0.00006  -0.00011  -0.00005   1.93294
   A15        1.93298  -0.00001   0.00004  -0.00001   0.00003   1.93300
   A16        1.91151   0.00001  -0.00008   0.00011   0.00003   1.91154
   A17        1.96348   0.00000   0.00000   0.00003   0.00003   1.96351
   A18        1.93197   0.00000  -0.00004   0.00005   0.00001   1.93198
   A19        1.88722  -0.00000   0.00002  -0.00004  -0.00002   1.88719
   A20        1.87875  -0.00001   0.00005  -0.00010  -0.00005   1.87870
   A21        1.88845  -0.00000   0.00006  -0.00006  -0.00001   1.88844
   A22        1.96611  -0.00000   0.00002  -0.00005  -0.00003   1.96608
   A23        1.91808   0.00001  -0.00003   0.00007   0.00003   1.91812
   A24        1.91820   0.00000  -0.00010   0.00012   0.00003   1.91823
   A25        1.88594  -0.00000   0.00007  -0.00007   0.00000   1.88594
   A26        1.88672  -0.00000   0.00000  -0.00003  -0.00003   1.88669
   A27        1.88673  -0.00000   0.00004  -0.00005  -0.00000   1.88673
   A28        1.93666   0.00001   0.00001   0.00010   0.00011   1.93677
   A29        1.93939  -0.00001  -0.00006  -0.00000  -0.00006   1.93934
   A30        1.93404  -0.00000  -0.00008   0.00005  -0.00003   1.93402
   A31        1.89360  -0.00000   0.00004  -0.00006  -0.00002   1.89358
   A32        1.87311  -0.00000  -0.00003  -0.00004  -0.00006   1.87305
   A33        1.88479   0.00001   0.00012  -0.00006   0.00006   1.88485
    D1       -3.01035   0.00001   0.00136   0.00019   0.00155  -3.00879
    D2       -0.98669   0.00000   0.00141   0.00011   0.00152  -0.98517
    D3        1.18833   0.00001   0.00137   0.00013   0.00151   1.18984
    D4       -1.00905   0.00001   0.00144   0.00002   0.00146  -1.00759
    D5        1.01461   0.00000   0.00150  -0.00007   0.00143   1.01603
    D6       -3.09355   0.00000   0.00146  -0.00004   0.00142  -3.09214
    D7        1.11347   0.00001   0.00124   0.00013   0.00137   1.11485
    D8        3.13713   0.00000   0.00130   0.00005   0.00134   3.13847
    D9       -0.97103   0.00001   0.00125   0.00007   0.00133  -0.96971
   D10       -1.09050  -0.00000   0.00022  -0.00003   0.00019  -1.09031
   D11        1.01797  -0.00000   0.00023  -0.00004   0.00020   1.01817
   D12        3.11356  -0.00000   0.00030  -0.00008   0.00022   3.11378
   D13       -3.11534  -0.00000   0.00012   0.00010   0.00022  -3.11513
   D14       -1.00687  -0.00000   0.00013   0.00009   0.00022  -1.00665
   D15        1.08872  -0.00000   0.00019   0.00005   0.00024   1.08896
   D16        1.07094   0.00000   0.00031   0.00005   0.00036   1.07131
   D17       -3.10376   0.00000   0.00032   0.00004   0.00037  -3.10340
   D18       -1.00817   0.00000   0.00039   0.00000   0.00039  -1.00779
   D19       -1.12887  -0.00000   0.00096  -0.00005   0.00091  -1.12796
   D20        2.98173   0.00000   0.00087  -0.00004   0.00083   2.98256
   D21        3.05719   0.00000   0.00091  -0.00002   0.00089   3.05808
   D22        0.88460   0.00000   0.00083  -0.00002   0.00081   0.88541
   D23        1.03123  -0.00000   0.00083   0.00003   0.00087   1.03209
   D24       -1.14136   0.00000   0.00075   0.00003   0.00078  -1.14058
   D25       -3.12374   0.00000   0.00041  -0.00016   0.00025  -3.12349
   D26       -1.02450   0.00000   0.00038  -0.00012   0.00027  -1.02423
   D27        1.09062   0.00000   0.00043  -0.00014   0.00029   1.09090
   D28       -0.95114  -0.00000   0.00051  -0.00022   0.00029  -0.95085
   D29        1.14810   0.00000   0.00048  -0.00017   0.00031   1.14840
   D30       -3.01997   0.00000   0.00052  -0.00019   0.00033  -3.01964
   D31        1.09371   0.00001  -0.00004   0.00024   0.00020   1.09391
   D32       -3.08556   0.00001   0.00004   0.00016   0.00021  -3.08536
   D33       -1.01127   0.00001   0.00002   0.00022   0.00024  -1.01103
   D34       -1.09528  -0.00001  -0.00009   0.00016   0.00007  -1.09521
   D35        1.00864  -0.00001  -0.00001   0.00008   0.00007   1.00871
   D36        3.08292  -0.00001  -0.00004   0.00014   0.00011   3.08303
         Item               Value     Threshold  Converged?
 Maximum Force            0.000021     0.000450     YES
 RMS     Force            0.000007     0.000300     YES
 Maximum Displacement     0.004598     0.001800     NO 
 RMS     Displacement     0.001254     0.001200     NO 
 Predicted change in Energy=-3.202291D-08
 GradGradGradGradGradGradGradGradGradGradGradGradGradGradGradGradGradGrad

                          Input orientation:                          
 ---------------------------------------------------------------------
 Center     Atomic      Atomic             Coordinates (Angstroms)
 Number     Number       Type             X           Y           Z
 ---------------------------------------------------------------------
      1          6           0        0.719326   -0.981670    0.210883
      2          1           0        0.619703   -1.139956    1.286968
      3          1           0        1.618504   -1.526138   -0.086096
      4          6           0       -0.458482   -1.612132   -0.525766
      5          1           0       -0.264062   -1.557902   -1.599984
      6          1           0       -0.516551   -2.685243   -0.266614
      7          7           0       -1.733583   -0.953381   -0.285960
      8          6           0       -2.157624   -1.056636    1.095501
      9          1           0       -3.122669   -0.565282    1.217958
     10          1           0       -2.260758   -2.104157    1.428646
     11          1           0       -1.447684   -0.558523    1.754253
     12          6           0       -2.753229   -1.469631   -1.175765
     13          1           0       -2.951314   -2.543989   -1.017391
     14          1           0       -3.687079   -0.927873   -1.024029
     15          1           0       -2.445902   -1.331138   -2.212512
     16          6           0        0.889637    0.503913   -0.083666
     17          1           0        0.011676    1.066924    0.231083
     18          1           0        1.762274    0.908578    0.429585
     19          1           0        1.018670    0.674777   -1.154131
 ---------------------------------------------------------------------
                    Distance matrix (angstroms):
                    1          2          3          4          5
     1  C    0.000000
     2  H    1.092217   0.000000
     3  H    1.092320   1.741277   0.000000
     4  C    1.525571   2.161351   2.124753   0.000000
     5  H    2.139704   3.047984   2.415971   1.093015   0.000000
     6  H    2.158138   2.468320   2.436098   1.105486   1.764234
     7  N    2.502881   2.836700   3.406535   1.455109   2.061940
     8  C    3.010816   2.785166   3.984438   2.413331   3.332039
     9  H    3.993558   3.786867   5.010242   3.351770   4.134940
    10  H    3.409373   3.040857   4.204429   2.703704   3.668486
    11  H    2.693878   2.197842   3.704683   2.699463   3.694675
    12  C    3.770880   4.189320   4.505842   2.389282   2.526599
    13  H    4.174098   4.475884   4.773527   2.706338   2.921147
    14  H    4.576495   4.892244   5.420964   3.337711   3.527847
    15  H    4.001705   4.656270   4.591195   2.621814   2.277508
    16  C    1.524048   2.157269   2.156933   2.547651   2.807369
    17  H    2.167468   2.520894   3.066997   2.823333   3.212250
    18  H    2.169933   2.497412   2.492877   3.492626   3.782686
    19  H    2.167184   3.067799   2.518834   2.794060   2.613244
                    6          7          8          9         10
     6  H    0.000000
     7  N    2.116810   0.000000
     8  C    2.683438   1.448760   0.000000
     9  H    3.672879   2.083735   1.089833   0.000000
    10  H    2.500765   2.131214   1.104048   1.776349   0.000000
    11  H    3.077962   2.097647   1.089075   1.758759   1.776539
    12  C    2.703145   1.448428   2.384105   2.585390   2.725455
    13  H    2.551801   2.132579   2.703049   2.990222   2.579422
    14  H    3.703279   2.088431   2.616909   2.340200   3.071424
    15  H    3.056553   2.088469   3.331877   3.579480   3.726912
    16  C    3.490208   3.007642   3.620987   4.351552   4.360517
    17  H    3.821712   2.719356   3.156356   3.669079   4.080915
    18  H    4.311994   4.024912   4.435213   5.162990   5.124401
    19  H    3.799254   3.313535   4.259986   4.931049   5.014764
                   11         12         13         14         15
    11  H    0.000000
    12  C    3.334601   0.000000
    13  H    3.726256   1.103886   0.000000
    14  H    3.587500   1.090230   1.775733   0.000000
    15  H    4.162764   1.090172   1.776165   1.765116   0.000000
    16  C    3.157498   4.284627   4.991438   4.886780   4.361791
    17  H    2.663054   4.007247   4.834944   4.385807   4.214445
    18  H    3.769743   5.350027   6.019291   5.931357   5.450299
    19  H    4.007821   4.338914   5.112722   4.972875   4.140910
                   16         17         18         19
    16  C    0.000000
    17  H    1.089433   0.000000
    18  H    1.090265   1.768918   0.000000
    19  H    1.091667   1.756882   1.765153   0.000000
 Stoichiometry    C5H13N
 Framework group  C1[X(C5H13N)]
 Deg. of freedom    51
 Full point group                 C1      NOp   1
 Largest Abelian subgroup         C1      NOp   1
 Largest concise Abelian subgroup C1      NOp   1
                         Standard orientation:                         
 ---------------------------------------------------------------------
 Center     Atomic      Atomic             Coordinates (Angstroms)
 Number     Number       Type             X           Y           Z
 ---------------------------------------------------------------------
      1          6           0        1.561367   -0.027215    0.618826
      2          1           0        1.540527    0.982565    1.034576
      3          1           0        2.184800   -0.613625    1.297513
      4          6           0        0.163032   -0.636615    0.644444
      5          1           0        0.237819   -1.687168    0.352164
      6          1           0       -0.220913   -0.621202    1.681000
      7          7           0       -0.780177   -0.003579   -0.264931
      8          6           0       -1.050273    1.374673    0.090565
      9          1           0       -1.773427    1.795870   -0.607559
     10          1           0       -1.459145    1.475433    1.111150
     11          1           0       -0.142789    1.973441    0.027044
     12          6           0       -2.010197   -0.764726   -0.340103
     13          1           0       -2.537197   -0.817642    0.628419
     14          1           0       -2.683874   -0.310438   -1.067003
     15          1           0       -1.797236   -1.783056   -0.665874
     16          6           0        2.184434   -0.005336   -0.771869
     17          1           0        1.589125    0.597970   -1.456334
     18          1           0        3.195730    0.401006   -0.742825
     19          1           0        2.237642   -1.012792   -1.188929
 ---------------------------------------------------------------------
 Rotational constants (GHZ):           5.8265296           2.1298371           1.9535111
 Standard basis: 6-311+G(2d,2p) (5D, 7F)
 There are   291 symmetry adapted cartesian basis functions of A   symmetry.
 There are   279 symmetry adapted basis functions of A   symmetry.
   279 basis functions,   395 primitive gaussians,   291 cartesian basis functions
    25 alpha electrons       25 beta electrons
       nuclear repulsion energy       264.7006762634 Hartrees.
 NAtoms=   19 NActive=   19 NUniq=   19 SFac= 1.00D+00 NAtFMM=   60 NAOKFM=F Big=F
 Integral buffers will be    131072 words long.
 Raffenetti 2 integral format.
 Two-electron integral symmetry is turned on.
 Nuclear repulsion after empirical dispersion term =      264.6893814923 Hartrees.
 One-electron integrals computed using PRISM.
 NBasis=   279 RedAO= T EigKep=  3.49D-05  NBF=   279
 NBsUse=   279 1.00D-06 EigRej= -1.00D+00 NBFU=   279
 Initial guess from the checkpoint file:  "dimethyl_aminopropyl.chk"
 B after Tr=    -0.000000    0.000000   -0.000000
         Rot=    0.999999   -0.001198   -0.000061    0.000178 Ang=  -0.14 deg.
 Requested convergence on RMS density matrix=1.00D-08 within  32 cycles.
 Requested convergence on MAX density matrix=1.00D-06.
 Requested convergence on             energy=1.00D-06.
 No special actions if energy rises.
 SCF Done:  E(RwB97XD) =  -253.104338004     A.U. after    7 cycles
            NFock=  7  Conv=0.69D-08     -V/T= 2.0047
 QCSCF skips out because SCF is already converged.
 Calling FoFJK, ICntrl=      2127 FMM=F ISym2X=0 I1Cent= 0 IOpClX= 0 NMat=1 NMatS=1 NMatT=0.
 ***** Axes restored to original set *****
 -------------------------------------------------------------------
 Center     Atomic                   Forces (Hartrees/Bohr)
 Number     Number              X              Y              Z
 -------------------------------------------------------------------
      1        6          -0.000001869    0.000001531    0.000002895
      2        1          -0.000000363    0.000002895    0.000001849
      3        1           0.000001244    0.000003518    0.000000499
      4        6          -0.000003313    0.000002464   -0.000000575
      5        1           0.000000470   -0.000001801    0.000000115
      6        1           0.000002600    0.000001344    0.000000799
      7        7          -0.000000712   -0.000000322    0.000003871
      8        6           0.000001051   -0.000004257   -0.000010510
      9        1          -0.000001060    0.000000750   -0.000003426
     10        1          -0.000000635   -0.000000706   -0.000000437
     11        1           0.000002432    0.000000353   -0.000001229
     12        6           0.000000373    0.000004011    0.000005205
     13        1          -0.000000049   -0.000001818   -0.000001524
     14        1          -0.000001460    0.000000317   -0.000001516
     15        1           0.000001535    0.000000652    0.000001143
     16        6           0.000000196   -0.000005324   -0.000001172
     17        1           0.000000098   -0.000002218    0.000000349
     18        1           0.000000248   -0.000000669    0.000002340
     19        1          -0.000000788   -0.000000718    0.000001324
 -------------------------------------------------------------------
 Cartesian Forces:  Max     0.000010510 RMS     0.000002439

 GradGradGradGradGradGradGradGradGradGradGradGradGradGradGradGradGradGrad
 Berny optimization.
 Using GEDIIS/GDIIS optimizer.
 FormGI is forming the generalized inverse of G from B-inverse, IUseBI=4.
 Internal  Forces:  Max     0.000013840 RMS     0.000002669
 Search for a local minimum.
 Step number  12 out of a maximum of   97
 All quantities printed in internal units (Hartrees-Bohrs-Radians)
 Mixed Optimization -- En-DIIS/RFO-DIIS
 Swapping is turned off.
 Update second derivatives using D2CorX and points    6    7    8    9   10
                                                     11   12
 DE=  4.79D-09 DEPred=-3.20D-08 R=-1.50D-01
 Trust test=-1.50D-01 RLast= 4.94D-03 DXMaxT set to 5.51D-01
 ITU= -1  1 -1  1  1  1  1  1  1  1  1  0
     Eigenvalues ---    0.00193   0.00329   0.00395   0.00442   0.00549
     Eigenvalues ---    0.02311   0.03355   0.04417   0.04805   0.05390
     Eigenvalues ---    0.05400   0.05480   0.06896   0.06932   0.07250
     Eigenvalues ---    0.07297   0.08607   0.09360   0.12115   0.13018
     Eigenvalues ---    0.13771   0.15355   0.15860   0.15979   0.16005
     Eigenvalues ---    0.16021   0.16051   0.16080   0.16497   0.17273
     Eigenvalues ---    0.18558   0.21844   0.25477   0.28807   0.29981
     Eigenvalues ---    0.32323   0.33196   0.34275   0.34763   0.34904
     Eigenvalues ---    0.35006   0.35042   0.35088   0.35156   0.35187
     Eigenvalues ---    0.35227   0.35552   0.36881   0.37246   0.37305
     Eigenvalues ---    0.37715
 En-DIIS/RFO-DIIS/Sim-DIIS IScMMF=       -3 using points:    12   11   10    9    8    7    6    5
 RFO step:  Lambda=-2.37091686D-09.
 DIIS inversion failure, remove point   8.
 DIIS inversion failure, remove point   7.
 DIIS inversion failure, remove point   6.
 RFO-DIIS uses    5 points instead of    8
 DidBck=F Rises=F RFO-DIIS coefs:    1.04987   -0.04503   -0.00753    0.00807   -0.00537
                  RFO-DIIS coefs:    0.00000    0.00000    0.00000
 Iteration  1 RMS(Cart)=  0.00022436 RMS(Int)=  0.00000002
 Iteration  2 RMS(Cart)=  0.00000002 RMS(Int)=  0.00000001
 Variable       Old X    -DE/DX   Delta X   Delta X   Delta X     New X
                                 (Linear)    (Quad)   (Total)
    R1        2.06399   0.00000   0.00000  -0.00000   0.00000   2.06399
    R2        2.06418  -0.00000   0.00000  -0.00000  -0.00000   2.06418
    R3        2.88291   0.00000  -0.00001   0.00002   0.00001   2.88292
    R4        2.88003  -0.00001  -0.00002  -0.00001  -0.00003   2.88000
    R5        2.06550   0.00000   0.00000  -0.00000  -0.00000   2.06550
    R6        2.08907  -0.00000  -0.00000  -0.00000  -0.00000   2.08906
    R7        2.74976  -0.00000  -0.00001   0.00000  -0.00000   2.74975
    R8        2.73776  -0.00001  -0.00002  -0.00003  -0.00004   2.73772
    R9        2.73713  -0.00000  -0.00001  -0.00000  -0.00001   2.73712
   R10        2.05949   0.00000   0.00000   0.00000   0.00000   2.05949
   R11        2.08635   0.00000   0.00000   0.00000   0.00000   2.08635
   R12        2.05805   0.00000   0.00000   0.00000   0.00000   2.05806
   R13        2.08604   0.00000   0.00000   0.00000   0.00001   2.08605
   R14        2.06024   0.00000   0.00000   0.00000   0.00001   2.06024
   R15        2.06013  -0.00000   0.00000  -0.00000  -0.00000   2.06012
   R16        2.05873  -0.00000   0.00000  -0.00000  -0.00000   2.05873
   R17        2.06030   0.00000  -0.00000   0.00000   0.00000   2.06030
   R18        2.06295  -0.00000   0.00000  -0.00000  -0.00000   2.06295
    A1        1.84493   0.00000   0.00001  -0.00000   0.00001   1.84494
    A2        1.92349   0.00000  -0.00001   0.00003   0.00002   1.92351
    A3        1.91970  -0.00000   0.00000  -0.00002  -0.00001   1.91969
    A4        1.87367   0.00000   0.00001   0.00002   0.00003   1.87369
    A5        1.91913  -0.00000  -0.00000  -0.00002  -0.00002   1.91911
    A6        1.97772  -0.00000  -0.00002  -0.00001  -0.00002   1.97770
    A7        1.89308   0.00000   0.00001  -0.00000   0.00001   1.89308
    A8        1.90553  -0.00000   0.00000  -0.00001  -0.00001   1.90553
    A9        1.99311  -0.00001  -0.00003   0.00000  -0.00003   1.99308
   A10        1.86283  -0.00000  -0.00000  -0.00001  -0.00001   1.86282
   A11        1.87065   0.00000   0.00002  -0.00000   0.00002   1.87067
   A12        1.93349   0.00000   0.00001   0.00001   0.00002   1.93351
   A13        1.96207  -0.00000  -0.00000  -0.00002  -0.00002   1.96205
   A14        1.93294   0.00001   0.00003   0.00003   0.00006   1.93300
   A15        1.93300  -0.00000   0.00001  -0.00003  -0.00002   1.93298
   A16        1.91154  -0.00000   0.00000  -0.00002  -0.00001   1.91153
   A17        1.96351   0.00000   0.00000   0.00000   0.00001   1.96351
   A18        1.93198  -0.00000  -0.00000  -0.00002  -0.00002   1.93196
   A19        1.88719   0.00000  -0.00000   0.00001   0.00001   1.88720
   A20        1.87870   0.00000   0.00000   0.00001   0.00001   1.87871
   A21        1.88844   0.00000  -0.00001   0.00001   0.00000   1.88844
   A22        1.96608   0.00000   0.00001   0.00001   0.00002   1.96610
   A23        1.91812   0.00000  -0.00000   0.00001   0.00001   1.91813
   A24        1.91823  -0.00000   0.00000  -0.00002  -0.00002   1.91822
   A25        1.88594  -0.00000  -0.00000  -0.00000  -0.00000   1.88594
   A26        1.88669   0.00000  -0.00000  -0.00000  -0.00000   1.88669
   A27        1.88673   0.00000  -0.00000  -0.00000  -0.00000   1.88672
   A28        1.93677  -0.00000   0.00000  -0.00002  -0.00002   1.93674
   A29        1.93934  -0.00000  -0.00000   0.00000   0.00000   1.93934
   A30        1.93402  -0.00000  -0.00000   0.00000   0.00000   1.93402
   A31        1.89358   0.00000  -0.00001   0.00001   0.00001   1.89358
   A32        1.87305   0.00000   0.00000   0.00000   0.00000   1.87305
   A33        1.88485   0.00000   0.00000   0.00001   0.00001   1.88486
    D1       -3.00879  -0.00000  -0.00009   0.00001  -0.00009  -3.00888
    D2       -0.98517  -0.00000  -0.00009  -0.00000  -0.00010  -0.98527
    D3        1.18984  -0.00000  -0.00011   0.00001  -0.00010   1.18974
    D4       -1.00759   0.00000  -0.00008   0.00003  -0.00004  -1.00763
    D5        1.01603   0.00000  -0.00007   0.00002  -0.00005   1.01598
    D6       -3.09214   0.00000  -0.00009   0.00003  -0.00005  -3.09219
    D7        1.11485  -0.00000  -0.00008   0.00001  -0.00007   1.11478
    D8        3.13847  -0.00000  -0.00008  -0.00000  -0.00008   3.13839
    D9       -0.96971  -0.00000  -0.00009   0.00001  -0.00008  -0.96978
   D10       -1.09031  -0.00000   0.00002  -0.00003  -0.00001  -1.09032
   D11        1.01817  -0.00000   0.00002  -0.00003  -0.00001   1.01816
   D12        3.11378   0.00000   0.00002  -0.00002   0.00000   3.11378
   D13       -3.11513   0.00000   0.00001  -0.00001   0.00000  -3.11513
   D14       -1.00665   0.00000   0.00000  -0.00001  -0.00001  -1.00665
   D15        1.08896   0.00000   0.00001   0.00001   0.00001   1.08897
   D16        1.07131   0.00000   0.00000  -0.00001  -0.00000   1.07130
   D17       -3.10340  -0.00000  -0.00000  -0.00001  -0.00001  -3.10341
   D18       -1.00779   0.00000   0.00000   0.00001   0.00001  -1.00778
   D19       -1.12796  -0.00000  -0.00023  -0.00002  -0.00025  -1.12821
   D20        2.98256   0.00000  -0.00027   0.00001  -0.00025   2.98231
   D21        3.05808  -0.00000  -0.00024  -0.00002  -0.00026   3.05783
   D22        0.88541   0.00000  -0.00027   0.00001  -0.00026   0.88516
   D23        1.03209  -0.00000  -0.00025  -0.00002  -0.00027   1.03182
   D24       -1.14058  -0.00000  -0.00028   0.00002  -0.00027  -1.14084
   D25       -3.12349  -0.00000  -0.00011  -0.00003  -0.00014  -3.12363
   D26       -1.02423  -0.00000  -0.00011  -0.00002  -0.00013  -1.02436
   D27        1.09090  -0.00000  -0.00011  -0.00003  -0.00014   1.09077
   D28       -0.95085   0.00000  -0.00006  -0.00003  -0.00010  -0.95095
   D29        1.14840   0.00000  -0.00006  -0.00003  -0.00009   1.14831
   D30       -3.01964   0.00000  -0.00007  -0.00003  -0.00009  -3.01974
   D31        1.09391  -0.00000   0.00002  -0.00010  -0.00008   1.09383
   D32       -3.08536  -0.00000   0.00002  -0.00009  -0.00007  -3.08542
   D33       -1.01103  -0.00000   0.00002  -0.00009  -0.00007  -1.01111
   D34       -1.09521   0.00000  -0.00000  -0.00007  -0.00007  -1.09528
   D35        1.00871   0.00000  -0.00000  -0.00006  -0.00006   1.00865
   D36        3.08303   0.00000  -0.00000  -0.00007  -0.00007   3.08296
         Item               Value     Threshold  Converged?
 Maximum Force            0.000014     0.000450     YES
 RMS     Force            0.000003     0.000300     YES
 Maximum Displacement     0.000813     0.001800     YES
 RMS     Displacement     0.000224     0.001200     YES
 Predicted change in Energy=-2.604238D-09
 Optimization completed.
    -- Stationary point found.
                           ----------------------------
                           !   Optimized Parameters   !
                           ! (Angstroms and Degrees)  !
 --------------------------                            --------------------------
 ! Name  Definition              Value          Derivative Info.                !
 --------------------------------------------------------------------------------
 ! R1    R(1,2)                  1.0922         -DE/DX =    0.0                 !
 ! R2    R(1,3)                  1.0923         -DE/DX =    0.0                 !
 ! R3    R(1,4)                  1.5256         -DE/DX =    0.0                 !
 ! R4    R(1,16)                 1.524          -DE/DX =    0.0                 !
 ! R5    R(4,5)                  1.093          -DE/DX =    0.0                 !
 ! R6    R(4,6)                  1.1055         -DE/DX =    0.0                 !
 ! R7    R(4,7)                  1.4551         -DE/DX =    0.0                 !
 ! R8    R(7,8)                  1.4488         -DE/DX =    0.0                 !
 ! R9    R(7,12)                 1.4484         -DE/DX =    0.0                 !
 ! R10   R(8,9)                  1.0898         -DE/DX =    0.0                 !
 ! R11   R(8,10)                 1.104          -DE/DX =    0.0                 !
 ! R12   R(8,11)                 1.0891         -DE/DX =    0.0                 !
 ! R13   R(12,13)                1.1039         -DE/DX =    0.0                 !
 ! R14   R(12,14)                1.0902         -DE/DX =    0.0                 !
 ! R15   R(12,15)                1.0902         -DE/DX =    0.0                 !
 ! R16   R(16,17)                1.0894         -DE/DX =    0.0                 !
 ! R17   R(16,18)                1.0903         -DE/DX =    0.0                 !
 ! R18   R(16,19)                1.0917         -DE/DX =    0.0                 !
 ! A1    A(2,1,3)              105.7066         -DE/DX =    0.0                 !
 ! A2    A(2,1,4)              110.2078         -DE/DX =    0.0                 !
 ! A3    A(2,1,16)             109.9909         -DE/DX =    0.0                 !
 ! A4    A(3,1,4)              107.3531         -DE/DX =    0.0                 !
 ! A5    A(3,1,16)             109.9582         -DE/DX =    0.0                 !
 ! A6    A(4,1,16)             113.3149         -DE/DX =    0.0                 !
 ! A7    A(1,4,5)              108.4654         -DE/DX =    0.0                 !
 ! A8    A(1,4,6)              109.1789         -DE/DX =    0.0                 !
 ! A9    A(1,4,7)              114.1965         -DE/DX =    0.0                 !
 ! A10   A(5,4,6)              106.7321         -DE/DX =    0.0                 !
 ! A11   A(5,4,7)              107.1802         -DE/DX =    0.0                 !
 ! A12   A(6,4,7)              110.7808         -DE/DX =    0.0                 !
 ! A13   A(4,7,8)              112.4183         -DE/DX =    0.0                 !
 ! A14   A(4,7,12)             110.7494         -DE/DX =    0.0                 !
 ! A15   A(8,7,12)             110.7529         -DE/DX =    0.0                 !
 ! A16   A(7,8,9)              109.5233         -DE/DX =    0.0                 !
 ! A17   A(7,8,10)             112.5007         -DE/DX =    0.0                 !
 ! A18   A(7,8,11)             110.6941         -DE/DX =    0.0                 !
 ! A19   A(9,8,10)             108.1282         -DE/DX =    0.0                 !
 ! A20   A(9,8,11)             107.6415         -DE/DX =    0.0                 !
 ! A21   A(10,8,11)            108.1996         -DE/DX =    0.0                 !
 ! A22   A(7,12,13)            112.6482         -DE/DX =    0.0                 !
 ! A23   A(7,12,14)            109.8999         -DE/DX =    0.0                 !
 ! A24   A(7,12,15)            109.9066         -DE/DX =    0.0                 !
 ! A25   A(13,12,14)           108.0566         -DE/DX =    0.0                 !
 ! A26   A(13,12,15)           108.0992         -DE/DX =    0.0                 !
 ! A27   A(14,12,15)           108.1014         -DE/DX =    0.0                 !
 ! A28   A(1,16,17)            110.9685         -DE/DX =    0.0                 !
 ! A29   A(1,16,18)            111.1158         -DE/DX =    0.0                 !
 ! A30   A(1,16,19)            110.8112         -DE/DX =    0.0                 !
 ! A31   A(17,16,18)           108.4939         -DE/DX =    0.0                 !
 ! A32   A(17,16,19)           107.3176         -DE/DX =    0.0                 !
 ! A33   A(18,16,19)           107.994          -DE/DX =    0.0                 !
 ! D1    D(2,1,4,5)           -172.3911         -DE/DX =    0.0                 !
 ! D2    D(2,1,4,6)            -56.4462         -DE/DX =    0.0                 !
 ! D3    D(2,1,4,7)             68.1728         -DE/DX =    0.0                 !
 ! D4    D(3,1,4,5)            -57.7305         -DE/DX =    0.0                 !
 ! D5    D(3,1,4,6)             58.2145         -DE/DX =    0.0                 !
 ! D6    D(3,1,4,7)           -177.1665         -DE/DX =    0.0                 !
 ! D7    D(16,1,4,5)            63.876          -DE/DX =    0.0                 !
 ! D8    D(16,1,4,6)           179.821          -DE/DX =    0.0                 !
 ! D9    D(16,1,4,7)           -55.56           -DE/DX =    0.0                 !
 ! D10   D(2,1,16,17)          -62.4702         -DE/DX =    0.0                 !
 ! D11   D(2,1,16,18)           58.337          -DE/DX =    0.0                 !
 ! D12   D(2,1,16,19)          178.4065         -DE/DX =    0.0                 !
 ! D13   D(3,1,16,17)         -178.4837         -DE/DX =    0.0                 !
 ! D14   D(3,1,16,18)          -57.6765         -DE/DX =    0.0                 !
 ! D15   D(3,1,16,19)           62.393          -DE/DX =    0.0                 !
 ! D16   D(4,1,16,17)           61.3813         -DE/DX =    0.0                 !
 ! D17   D(4,1,16,18)         -177.8116         -DE/DX =    0.0                 !
 ! D18   D(4,1,16,19)          -57.742          -DE/DX =    0.0                 !
 ! D19   D(1,4,7,8)            -64.6271         -DE/DX =    0.0                 !
 ! D20   D(1,4,7,12)           170.8881         -DE/DX =    0.0                 !
 ! D21   D(5,4,7,8)            175.2152         -DE/DX =    0.0                 !
 ! D22   D(5,4,7,12)            50.7304         -DE/DX =    0.0                 !
 ! D23   D(6,4,7,8)             59.1346         -DE/DX =    0.0                 !
 ! D24   D(6,4,7,12)           -65.3503         -DE/DX =    0.0                 !
 ! D25   D(4,7,8,9)           -178.9627         -DE/DX =    0.0                 !
 ! D26   D(4,7,8,10)           -58.6843         -DE/DX =    0.0                 !
 ! D27   D(4,7,8,11)            62.5042         -DE/DX =    0.0                 !
 ! D28   D(12,7,8,9)           -54.4798         -DE/DX =    0.0                 !
 ! D29   D(12,7,8,10)           65.7986         -DE/DX =    0.0                 !
 ! D30   D(12,7,8,11)         -173.0129         -DE/DX =    0.0                 !
 ! D31   D(4,7,12,13)           62.6765         -DE/DX =    0.0                 !
 ! D32   D(4,7,12,14)         -176.7778         -DE/DX =    0.0                 !
 ! D33   D(4,7,12,15)          -57.928          -DE/DX =    0.0                 !
 ! D34   D(8,7,12,13)          -62.7509         -DE/DX =    0.0                 !
 ! D35   D(8,7,12,14)           57.7948         -DE/DX =    0.0                 !
 ! D36   D(8,7,12,15)          176.6446         -DE/DX =    0.0                 !
 --------------------------------------------------------------------------------
 GradGradGradGradGradGradGradGradGradGradGradGradGradGradGradGradGradGrad

                          Input orientation:                          
 ---------------------------------------------------------------------
 Center     Atomic      Atomic             Coordinates (Angstroms)
 Number     Number       Type             X           Y           Z
 ---------------------------------------------------------------------
      1          6           0        0.719326   -0.981670    0.210883
      2          1           0        0.619703   -1.139956    1.286968
      3          1           0        1.618504   -1.526138   -0.086096
      4          6           0       -0.458482   -1.612132   -0.525766
      5          1           0       -0.264062   -1.557902   -1.599984
      6          1           0       -0.516551   -2.685243   -0.266614
      7          7           0       -1.733583   -0.953381   -0.285960
      8          6           0       -2.157624   -1.056636    1.095501
      9          1           0       -3.122669   -0.565282    1.217958
     10          1           0       -2.260758   -2.104157    1.428646
     11          1           0       -1.447684   -0.558523    1.754253
     12          6           0       -2.753229   -1.469631   -1.175765
     13          1           0       -2.951314   -2.543989   -1.017391
     14          1           0       -3.687079   -0.927873   -1.024029
     15          1           0       -2.445902   -1.331138   -2.212512
     16          6           0        0.889637    0.503913   -0.083666
     17          1           0        0.011676    1.066924    0.231083
     18          1           0        1.762274    0.908578    0.429585
     19          1           0        1.018670    0.674777   -1.154131
 ---------------------------------------------------------------------
                    Distance matrix (angstroms):
                    1          2          3          4          5
     1  C    0.000000
     2  H    1.092217   0.000000
     3  H    1.092320   1.741277   0.000000
     4  C    1.525571   2.161351   2.124753   0.000000
     5  H    2.139704   3.047984   2.415971   1.093015   0.000000
     6  H    2.158138   2.468320   2.436098   1.105486   1.764234
     7  N    2.502881   2.836700   3.406535   1.455109   2.061940
     8  C    3.010816   2.785166   3.984438   2.413331   3.332039
     9  H    3.993558   3.786867   5.010242   3.351770   4.134940
    10  H    3.409373   3.040857   4.204429   2.703704   3.668486
    11  H    2.693878   2.197842   3.704683   2.699463   3.694675
    12  C    3.770880   4.189320   4.505842   2.389282   2.526599
    13  H    4.174098   4.475884   4.773527   2.706338   2.921147
    14  H    4.576495   4.892244   5.420964   3.337711   3.527847
    15  H    4.001705   4.656270   4.591195   2.621814   2.277508
    16  C    1.524048   2.157269   2.156933   2.547651   2.807369
    17  H    2.167468   2.520894   3.066997   2.823333   3.212250
    18  H    2.169933   2.497412   2.492877   3.492626   3.782686
    19  H    2.167184   3.067799   2.518834   2.794060   2.613244
                    6          7          8          9         10
     6  H    0.000000
     7  N    2.116810   0.000000
     8  C    2.683438   1.448760   0.000000
     9  H    3.672879   2.083735   1.089833   0.000000
    10  H    2.500765   2.131214   1.104048   1.776349   0.000000
    11  H    3.077962   2.097647   1.089075   1.758759   1.776539
    12  C    2.703145   1.448428   2.384105   2.585390   2.725455
    13  H    2.551801   2.132579   2.703049   2.990222   2.579422
    14  H    3.703279   2.088431   2.616909   2.340200   3.071424
    15  H    3.056553   2.088469   3.331877   3.579480   3.726912
    16  C    3.490208   3.007642   3.620987   4.351552   4.360517
    17  H    3.821712   2.719356   3.156356   3.669079   4.080915
    18  H    4.311994   4.024912   4.435213   5.162990   5.124401
    19  H    3.799254   3.313535   4.259986   4.931049   5.014764
                   11         12         13         14         15
    11  H    0.000000
    12  C    3.334601   0.000000
    13  H    3.726256   1.103886   0.000000
    14  H    3.587500   1.090230   1.775733   0.000000
    15  H    4.162764   1.090172   1.776165   1.765116   0.000000
    16  C    3.157498   4.284627   4.991438   4.886780   4.361791
    17  H    2.663054   4.007247   4.834944   4.385807   4.214445
    18  H    3.769743   5.350027   6.019291   5.931357   5.450299
    19  H    4.007821   4.338914   5.112722   4.972875   4.140910
                   16         17         18         19
    16  C    0.000000
    17  H    1.089433   0.000000
    18  H    1.090265   1.768918   0.000000
    19  H    1.091667   1.756882   1.765153   0.000000
 Stoichiometry    C5H13N
 Framework group  C1[X(C5H13N)]
 Deg. of freedom    51
 Full point group                 C1      NOp   1
 Largest Abelian subgroup         C1      NOp   1
 Largest concise Abelian subgroup C1      NOp   1
                         Standard orientation:                         
 ---------------------------------------------------------------------
 Center     Atomic      Atomic             Coordinates (Angstroms)
 Number     Number       Type             X           Y           Z
 ---------------------------------------------------------------------
      1          6           0        1.561367   -0.027215    0.618826
      2          1           0        1.540527    0.982565    1.034576
      3          1           0        2.184800   -0.613625    1.297513
      4          6           0        0.163032   -0.636615    0.644444
      5          1           0        0.237819   -1.687168    0.352164
      6          1           0       -0.220913   -0.621202    1.681000
      7          7           0       -0.780177   -0.003579   -0.264931
      8          6           0       -1.050273    1.374673    0.090565
      9          1           0       -1.773427    1.795870   -0.607559
     10          1           0       -1.459145    1.475433    1.111150
     11          1           0       -0.142789    1.973441    0.027044
     12          6           0       -2.010197   -0.764726   -0.340103
     13          1           0       -2.537197   -0.817642    0.628419
     14          1           0       -2.683874   -0.310438   -1.067003
     15          1           0       -1.797236   -1.783056   -0.665874
     16          6           0        2.184434   -0.005336   -0.771869
     17          1           0        1.589125    0.597970   -1.456334
     18          1           0        3.195730    0.401006   -0.742825
     19          1           0        2.237642   -1.012792   -1.188929
 ---------------------------------------------------------------------
 Rotational constants (GHZ):           5.8265296           2.1298371           1.9535111

 **********************************************************************

            Population analysis using the SCF density.

 **********************************************************************

 Orbital symmetries:
       Occupied  (A) (A) (A) (A) (A) (A) (A) (A) (A) (A) (A) (A)
                 (A) (A) (A) (A) (A) (A) (A) (A) (A) (A) (A) (A)
                 (A)
       Virtual   (A) (A) (A) (A) (A) (A) (A) (A) (A) (A) (A) (A)
                 (A) (A) (A) (A) (A) (A) (A) (A) (A) (A) (A) (A)
                 (A) (A) (A) (A) (A) (A) (A) (A) (A) (A) (A) (A)
                 (A) (A) (A) (A) (A) (A) (A) (A) (A) (A) (A) (A)
                 (A) (A) (A) (A) (A) (A) (A) (A) (A) (A) (A) (A)
                 (A) (A) (A) (A) (A) (A) (A) (A) (A) (A) (A) (A)
                 (A) (A) (A) (A) (A) (A) (A) (A) (A) (A) (A) (A)
                 (A) (A) (A) (A) (A) (A) (A) (A) (A) (A) (A) (A)
                 (A) (A) (A) (A) (A) (A) (A) (A) (A) (A) (A) (A)
                 (A) (A) (A) (A) (A) (A) (A) (A) (A) (A) (A) (A)
                 (A) (A) (A) (A) (A) (A) (A) (A) (A) (A) (A) (A)
                 (A) (A) (A) (A) (A) (A) (A) (A) (A) (A) (A) (A)
                 (A) (A) (A) (A) (A) (A) (A) (A) (A) (A) (A) (A)
                 (A) (A) (A) (A) (A) (A) (A) (A) (A) (A) (A) (A)
                 (A) (A) (A) (A) (A) (A) (A) (A) (A) (A) (A) (A)
                 (A) (A) (A) (A) (A) (A) (A) (A) (A) (A) (A) (A)
                 (A) (A) (A) (A) (A) (A) (A) (A) (A) (A) (A) (A)
                 (A) (A) (A) (A) (A) (A) (A) (A) (A) (A) (A) (A)
                 (A) (A) (A) (A) (A) (A) (A) (A) (A) (A) (A) (A)
                 (A) (A) (A) (A) (A) (A) (A) (A) (A) (A) (A) (A)
                 (A) (A) (A) (A) (A) (A) (A) (A) (A) (A) (A) (A)
                 (A) (A)
 The electronic state is 1-A.
 Alpha  occ. eigenvalues --  -14.42021 -10.29808 -10.29292 -10.29290 -10.27346
 Alpha  occ. eigenvalues --  -10.25999  -1.02604  -0.87604  -0.80276  -0.78513
 Alpha  occ. eigenvalues --   -0.71397  -0.65436  -0.57236  -0.56390  -0.54395
 Alpha  occ. eigenvalues --   -0.51438  -0.50036  -0.47704  -0.46638  -0.44860
 Alpha  occ. eigenvalues --   -0.44510  -0.42589  -0.40985  -0.40736  -0.29486
 Alpha virt. eigenvalues --    0.06421   0.07694   0.08037   0.08241   0.10336
 Alpha virt. eigenvalues --    0.10865   0.11011   0.11531   0.12145   0.13449
 Alpha virt. eigenvalues --    0.14181   0.14754   0.15257   0.15328   0.16626
 Alpha virt. eigenvalues --    0.17633   0.18141   0.19547   0.20622   0.21319
 Alpha virt. eigenvalues --    0.23244   0.24249   0.25170   0.25589   0.26616
 Alpha virt. eigenvalues --    0.27330   0.28036   0.28940   0.29253   0.30879
 Alpha virt. eigenvalues --    0.31280   0.32113   0.32250   0.33160   0.33382
 Alpha virt. eigenvalues --    0.34129   0.34940   0.35730   0.37358   0.38006
 Alpha virt. eigenvalues --    0.40717   0.42189   0.46198   0.47417   0.48517
 Alpha virt. eigenvalues --    0.50135   0.52150   0.52756   0.54442   0.56634
 Alpha virt. eigenvalues --    0.57187   0.58521   0.59438   0.59678   0.61000
 Alpha virt. eigenvalues --    0.61833   0.63453   0.63633   0.64440   0.64826
 Alpha virt. eigenvalues --    0.65283   0.66461   0.67437   0.68938   0.69952
 Alpha virt. eigenvalues --    0.70518   0.72469   0.73478   0.74060   0.75254
 Alpha virt. eigenvalues --    0.75708   0.76696   0.77532   0.78797   0.79708
 Alpha virt. eigenvalues --    0.84374   0.86392   0.88268   0.89463   0.93530
 Alpha virt. eigenvalues --    0.93910   0.96134   0.97737   0.98692   1.01455
 Alpha virt. eigenvalues --    1.03270   1.05774   1.07356   1.08992   1.09968
 Alpha virt. eigenvalues --    1.11462   1.12916   1.15099   1.17746   1.20328
 Alpha virt. eigenvalues --    1.21080   1.21331   1.22106   1.22949   1.24231
 Alpha virt. eigenvalues --    1.26166   1.26754   1.27679   1.28185   1.29875
 Alpha virt. eigenvalues --    1.31099   1.32598   1.33751   1.34062   1.36876
 Alpha virt. eigenvalues --    1.37998   1.38301   1.39157   1.41207   1.42153
 Alpha virt. eigenvalues --    1.44536   1.44999   1.45378   1.46521   1.48392
 Alpha virt. eigenvalues --    1.49146   1.49377   1.50714   1.51785   1.54431
 Alpha virt. eigenvalues --    1.55238   1.56305   1.58170   1.59495   1.60242
 Alpha virt. eigenvalues --    1.61524   1.63867   1.65971   1.66167   1.67116
 Alpha virt. eigenvalues --    1.68290   1.71306   1.71922   1.75014   1.77535
 Alpha virt. eigenvalues --    1.79409   1.83063   1.88829   1.95000   1.96983
 Alpha virt. eigenvalues --    2.03432   2.12643   2.17384   2.71514   2.75511
 Alpha virt. eigenvalues --    2.79612   2.80734   2.84935   2.89073   2.94874
 Alpha virt. eigenvalues --    2.97178   2.98963   3.02981   3.11153   3.12486
 Alpha virt. eigenvalues --    3.16981   3.17657   3.25707   3.27642   3.29360
 Alpha virt. eigenvalues --    3.31217   3.33210   3.35924   3.39025   3.40073
 Alpha virt. eigenvalues --    3.43034   3.46562   3.47277   3.48814   3.50707
 Alpha virt. eigenvalues --    3.52152   3.53632   3.56004   3.57112   3.59081
 Alpha virt. eigenvalues --    3.62085   3.63954   3.65077   3.65945   3.66775
 Alpha virt. eigenvalues --    3.69005   3.70239   3.72844   3.73554   3.76164
 Alpha virt. eigenvalues --    3.77798   3.78155   3.80695   3.82188   3.83953
 Alpha virt. eigenvalues --    3.87601   3.90896   3.92780   3.94822   3.97265
 Alpha virt. eigenvalues --    3.99437   4.00468   4.02564   4.07983   4.08569
 Alpha virt. eigenvalues --    4.09527   4.11924   4.12633   4.15369   4.16574
 Alpha virt. eigenvalues --    4.18009   4.19803   4.20231   4.21141   4.23613
 Alpha virt. eigenvalues --    4.24361   4.25619   4.26294   4.27310   4.29721
 Alpha virt. eigenvalues --    4.31764   4.33419   4.36881   4.37542   4.38374
 Alpha virt. eigenvalues --    4.42205   4.44266   4.44746   4.48045   4.52456
 Alpha virt. eigenvalues --    4.63203   4.86131   5.00633   5.08061   5.11387
 Alpha virt. eigenvalues --    5.11801   5.13990   5.17168   5.18513   5.21542
 Alpha virt. eigenvalues --    5.23944   5.25185   5.28225   5.41743   5.44151
 Alpha virt. eigenvalues --    5.57482   5.70207   5.75234  24.01690  24.06331
 Alpha virt. eigenvalues --   24.16397  24.17965  24.23660  35.67598
          Condensed to atoms (all electrons):
               1          2          3          4          5          6
     1  C    5.075306   0.488770   0.447241   0.206008  -0.025652  -0.023563
     2  H    0.488770   0.542946  -0.028136  -0.037683   0.005181  -0.008391
     3  H    0.447241  -0.028136   0.535944  -0.046203  -0.006914  -0.004039
     4  C    0.206008  -0.037683  -0.046203   5.035791   0.464507   0.431309
     5  H   -0.025652   0.005181  -0.006914   0.464507   0.542784  -0.030612
     6  H   -0.023563  -0.008391  -0.004039   0.431309  -0.030612   0.551690
     7  N   -0.058331  -0.004466   0.007284   0.223150  -0.062604  -0.036804
     8  C    0.013669  -0.005766   0.000949  -0.073897  -0.002594   0.000025
     9  H    0.001049   0.000172   0.000026   0.007055  -0.000161  -0.000632
    10  H   -0.011254  -0.000491  -0.000084   0.004449  -0.000287   0.010454
    11  H    0.010834  -0.004668   0.000452  -0.004334  -0.000226  -0.002537
    12  C   -0.025718  -0.000112  -0.000474  -0.034885  -0.000844  -0.002255
    13  H   -0.000005  -0.000090  -0.000030  -0.008556  -0.003186   0.009870
    14  H    0.003205   0.000001   0.000017   0.006406   0.000323  -0.000597
    15  H   -0.009963   0.000038   0.000020   0.001410   0.005575  -0.001900
    16  C    0.187315  -0.054627  -0.013710   0.020359  -0.003798   0.000239
    17  H   -0.004459  -0.006559   0.005021  -0.031033  -0.000137  -0.000418
    18  H   -0.061316  -0.003367  -0.004738   0.031876  -0.000256  -0.000118
    19  H   -0.007556   0.004741  -0.006461  -0.014337   0.001024   0.000146
               7          8          9         10         11         12
     1  C   -0.058331   0.013669   0.001049  -0.011254   0.010834  -0.025718
     2  H   -0.004466  -0.005766   0.000172  -0.000491  -0.004668  -0.000112
     3  H    0.007284   0.000949   0.000026  -0.000084   0.000452  -0.000474
     4  C    0.223150  -0.073897   0.007055   0.004449  -0.004334  -0.034885
     5  H   -0.062604  -0.002594  -0.000161  -0.000287  -0.000226  -0.000844
     6  H   -0.036804   0.000025  -0.000632   0.010454  -0.002537  -0.002255
     7  N    6.902803   0.248637  -0.048929  -0.041447  -0.051826   0.229218
     8  C    0.248637   4.839932   0.432700   0.426149   0.431545  -0.045856
     9  H   -0.048929   0.432700   0.555082  -0.032591  -0.019217  -0.001581
    10  H   -0.041447   0.426149  -0.032591   0.579581  -0.035925  -0.004957
    11  H   -0.051826   0.431545  -0.019217  -0.035925   0.564862   0.003759
    12  C    0.229218  -0.045856  -0.001581  -0.004957   0.003759   4.806384
    13  H   -0.031546   0.002522  -0.003366   0.012356  -0.000918   0.418376
    14  H   -0.051468  -0.003949   0.005750  -0.002178   0.000225   0.429798
    15  H   -0.052806   0.000367   0.000369  -0.000590  -0.000228   0.445020
    16  C   -0.019085   0.003215  -0.002216   0.002382  -0.003132  -0.006853
    17  H   -0.005385   0.002794   0.000107  -0.000296   0.002812  -0.001767
    18  H    0.001802   0.000029   0.000005  -0.000001  -0.000034   0.000717
    19  H   -0.001946  -0.001026   0.000006   0.000011  -0.000157  -0.000938
              13         14         15         16         17         18
     1  C   -0.000005   0.003205  -0.009963   0.187315  -0.004459  -0.061316
     2  H   -0.000090   0.000001   0.000038  -0.054627  -0.006559  -0.003367
     3  H   -0.000030   0.000017   0.000020  -0.013710   0.005021  -0.004738
     4  C   -0.008556   0.006406   0.001410   0.020359  -0.031033   0.031876
     5  H   -0.003186   0.000323   0.005575  -0.003798  -0.000137  -0.000256
     6  H    0.009870  -0.000597  -0.001900   0.000239  -0.000418  -0.000118
     7  N   -0.031546  -0.051468  -0.052806  -0.019085  -0.005385   0.001802
     8  C    0.002522  -0.003949   0.000367   0.003215   0.002794   0.000029
     9  H   -0.003366   0.005750   0.000369  -0.002216   0.000107   0.000005
    10  H    0.012356  -0.002178  -0.000590   0.002382  -0.000296  -0.000001
    11  H   -0.000918   0.000225  -0.000228  -0.003132   0.002812  -0.000034
    12  C    0.418376   0.429798   0.445020  -0.006853  -0.001767   0.000717
    13  H    0.591090  -0.036297  -0.038087  -0.002022  -0.000038   0.000002
    14  H   -0.036297   0.563998  -0.015895   0.000200   0.000064  -0.000001
    15  H   -0.038087  -0.015895   0.560135   0.004306   0.000064  -0.000004
    16  C   -0.002022   0.000200   0.004306   4.980684   0.432677   0.427685
    17  H   -0.000038   0.000064   0.000064   0.432677   0.544303  -0.024593
    18  H    0.000002  -0.000001  -0.000004   0.427685  -0.024593   0.545825
    19  H    0.000015  -0.000008  -0.000052   0.417887  -0.028526  -0.022824
              19
     1  C   -0.007556
     2  H    0.004741
     3  H   -0.006461
     4  C   -0.014337
     5  H    0.001024
     6  H    0.000146
     7  N   -0.001946
     8  C   -0.001026
     9  H    0.000006
    10  H    0.000011
    11  H   -0.000157
    12  C   -0.000938
    13  H    0.000015
    14  H   -0.000008
    15  H   -0.000052
    16  C    0.417887
    17  H   -0.028526
    18  H   -0.022824
    19  H    0.558170
 Mulliken charges:
               1
     1  C   -0.205582
     2  H    0.112506
     3  H    0.113834
     4  C   -0.181393
     5  H    0.117875
     6  H    0.108133
     7  N   -0.146251
     8  C   -0.269443
     9  H    0.106373
    10  H    0.094720
    11  H    0.108714
    12  C   -0.207033
    13  H    0.089911
    14  H    0.100407
    15  H    0.102221
    16  C   -0.371505
    17  H    0.115370
    18  H    0.109310
    19  H    0.101832
 Sum of Mulliken charges =  -0.00000
 Mulliken charges with hydrogens summed into heavy atoms:
               1
     1  C    0.020759
     4  C    0.044616
     7  N   -0.146251
     8  C    0.040364
    12  C    0.085506
    16  C   -0.044994
 Electronic spatial extent (au):  <R**2>=            752.5672
 Charge=              0.0000 electrons
 Dipole moment (field-independent basis, Debye):
    X=             -0.2462    Y=              0.0024    Z=              0.5356  Tot=              0.5895
 Quadrupole moment (field-independent basis, Debye-Ang):
   XX=            -40.0350   YY=            -39.4846   ZZ=            -42.5954
   XY=             -0.2228   XZ=              1.0248   YZ=             -0.0674
 Traceless Quadrupole moment (field-independent basis, Debye-Ang):
   XX=              0.6700   YY=              1.2204   ZZ=             -1.8904
   XY=             -0.2228   XZ=              1.0248   YZ=             -0.0674
 Octapole moment (field-independent basis, Debye-Ang**2):
  XXX=             -2.8969  YYY=             -0.9674  ZZZ=              0.0480  XYY=             -0.3877
  XXY=              0.5200  XXZ=             -1.9375  XZZ=             -1.2970  YZZ=              0.1727
  YYZ=             -1.8893  XYZ=              0.1352
 Hexadecapole moment (field-independent basis, Debye-Ang**3):
 XXXX=           -668.6492 YYYY=           -219.6621 ZZZZ=           -164.4281 XXXY=             -0.2175
 XXXZ=             11.8249 YYYX=             -0.1779 YYYZ=              1.8493 ZZZX=              3.5395
 ZZZY=             -1.0758 XXYY=           -147.9975 XXZZ=           -137.9504 YYZZ=            -64.1553
 XXYZ=             -1.9743 YYXZ=              3.3587 ZZXY=             -1.8895
 N-N= 2.646893814923D+02 E-N=-1.116140955980D+03  KE= 2.519216991213D+02
 1\1\GINC-CCLEARMO\FOpt\RwB97XD\6-311+G(2d,2p)\C5H13N1\TROUPPER\03-Oct-
 2026\0\\# opt freq wb97xd/6-311+g(2d,2p) scf=xqc\\opt freq\\0,1\C,0.71
 93261874,-0.9816701924,0.2108831285\H,0.6197029212,-1.1399559003,1.286
 9676802\H,1.618504023,-1.5261375005,-0.0860962407\C,-0.458481663,-1.61
 21321138,-0.5257661592\H,-0.2640617728,-1.5579023845,-1.599983505\H,-0
 .5165512163,-2.6852432686,-0.2666138512\N,-1.7335827012,-0.953381397,-
 0.2859601826\C,-2.1576242791,-1.0566356425,1.0955007065\H,-3.122669220
 4,-0.5652822186,1.217958255\H,-2.2607583242,-2.1041565492,1.4286462889
 \H,-1.447684256,-0.5585233519,1.7542531066\C,-2.7532285937,-1.46963092
 61,-1.1757645994\H,-2.9513135356,-2.5439889086,-1.0173911572\H,-3.6870
 786675,-0.9278725322,-1.0240285181\H,-2.4459023148,-1.3311381243,-2.21
 25123383\C,0.8896371463,0.5039130551,-0.0836664658\H,0.0116755788,1.06
 69240771,0.2310831988\H,1.7622742969,0.9085780209,0.4295854656\H,1.018
 6704311,0.6747771172,-1.1541306526\\Version=EM64M-G16RevA.03\State=1-A
 \HF=-253.104338\RMSD=6.904e-09\RMSF=2.439e-06\Dipole=-0.0289616,-0.224
 9673,0.0484105\Quadrupole=0.8364463,-1.5442808,0.7078345,-0.1210327,-0
 .1639721,0.5473581\PG=C01 [X(C5H13N1)]\\@


 NOT WHAT WE DID SHALL BE THE TEST
 WHEN ACT AND WILL ARE DONE,
 BUT WHAT OUR LORD INFERS WE WOULD-
 HAD WE DIVINER BEEN.
           EMILY DICKINSON  POEMS NO. CLXXV
 Job cpu time:       0 days  4 hours  9 minutes 58.7 seconds.
 Elapsed time:       0 days  0 hours 11 minutes 30.8 seconds.
 File lengths (MBytes):  RWF=     52 Int=      0 D2E=      0 Chk=      7 Scr=      1
 Normal termination of Gaussian 16 at Sat Oct  3 17:46:48 2026.
 Link1:  Proceeding to internal job step number  2.
 ----------------------------------------------------------------------
 #N Geom=AllCheck Guess=TCheck SCRF=Check GenChk RwB97XD/6-311+G(2d,2p)
  Freq
 ----------------------------------------------------------------------
 1/10=4,29=7,30=1,38=1,40=1/1,3;
 2/12=2,40=1/2;
 3/5=4,6=6,7=212,11=2,14=-4,25=1,30=1,70=2,71=2,74=-58,116=1,140=1/1,2,3;
 4/5=101/1;
 5/5=2,8=3,13=1,38=6,98=1/2,8;
 8/6=4,10=90,11=11/1;
 11/6=1,8=1,9=11,15=111,16=1/1,2,10;
 10/6=1/2;
 6/7=2,8=2,9=2,10=2,28=1/1;
 7/8=1,10=1,25=1/1,2,3,16;
 1/10=4,30=1/3;
 99//99;
 Structure from the checkpoint file:  "dimethyl_aminopropyl.chk"
 --------
 opt freq
 --------
 Charge =  0 Multiplicity = 1
 Redundant internal coordinates found in file.  (old form).
 C,0,0.7193261874,-0.9816701924,0.2108831285
 H,0,0.6197029212,-1.1399559003,1.2869676802
 H,0,1.618504023,-1.5261375005,-0.0860962407
 C,0,-0.458481663,-1.6121321138,-0.5257661592
 H,0,-0.2640617728,-1.5579023845,-1.599983505
 H,0,-0.5165512163,-2.6852432686,-0.2666138512
 N,0,-1.7335827012,-0.953381397,-0.2859601826
 C,0,-2.1576242791,-1.0566356425,1.0955007065
 H,0,-3.1226692204,-0.5652822186,1.217958255
 H,0,-2.2607583242,-2.1041565492,1.4286462889
 H,0,-1.447684256,-0.5585233519,1.7542531066
 C,0,-2.7532285937,-1.4696309261,-1.1757645994
 H,0,-2.9513135356,-2.5439889086,-1.0173911572
 H,0,-3.6870786675,-0.9278725322,-1.0240285181
 H,0,-2.4459023148,-1.3311381243,-2.2125123383
 C,0,0.8896371463,0.5039130551,-0.0836664658
 H,0,0.0116755788,1.0669240771,0.2310831988
 H,0,1.7622742969,0.9085780209,0.4295854656
 H,0,1.0186704311,0.6747771172,-1.1541306526
 Recover connectivity data from disk.

 GradGradGradGradGradGradGradGradGradGradGradGradGradGradGradGradGradGrad
 Berny optimization.
 Initialization pass.
                           ----------------------------
                           !    Initial Parameters    !
                           ! (Angstroms and Degrees)  !
 --------------------------                            --------------------------
 ! Name  Definition              Value          Derivative Info.                !
 --------------------------------------------------------------------------------
 ! R1    R(1,2)                  1.0922         calculate D2E/DX2 analytically  !
 ! R2    R(1,3)                  1.0923         calculate D2E/DX2 analytically  !
 ! R3    R(1,4)                  1.5256         calculate D2E/DX2 analytically  !
 ! R4    R(1,16)                 1.524          calculate D2E/DX2 analytically  !
 ! R5    R(4,5)                  1.093          calculate D2E/DX2 analytically  !
 ! R6    R(4,6)                  1.1055         calculate D2E/DX2 analytically  !
 ! R7    R(4,7)                  1.4551         calculate D2E/DX2 analytically  !
 ! R8    R(7,8)                  1.4488         calculate D2E/DX2 analytically  !
 ! R9    R(7,12)                 1.4484         calculate D2E/DX2 analytically  !
 ! R10   R(8,9)                  1.0898         calculate D2E/DX2 analytically  !
 ! R11   R(8,10)                 1.104          calculate D2E/DX2 analytically  !
 ! R12   R(8,11)                 1.0891         calculate D2E/DX2 analytically  !
 ! R13   R(12,13)                1.1039         calculate D2E/DX2 analytically  !
 ! R14   R(12,14)                1.0902         calculate D2E/DX2 analytically  !
 ! R15   R(12,15)                1.0902         calculate D2E/DX2 analytically  !
 ! R16   R(16,17)                1.0894         calculate D2E/DX2 analytically  !
 ! R17   R(16,18)                1.0903         calculate D2E/DX2 analytically  !
 ! R18   R(16,19)                1.0917         calculate D2E/DX2 analytically  !
 ! A1    A(2,1,3)              105.7066         calculate D2E/DX2 analytically  !
 ! A2    A(2,1,4)              110.2078         calculate D2E/DX2 analytically  !
 ! A3    A(2,1,16)             109.9909         calculate D2E/DX2 analytically  !
 ! A4    A(3,1,4)              107.3531         calculate D2E/DX2 analytically  !
 ! A5    A(3,1,16)             109.9582         calculate D2E/DX2 analytically  !
 ! A6    A(4,1,16)             113.3149         calculate D2E/DX2 analytically  !
 ! A7    A(1,4,5)              108.4654         calculate D2E/DX2 analytically  !
 ! A8    A(1,4,6)              109.1789         calculate D2E/DX2 analytically  !
 ! A9    A(1,4,7)              114.1965         calculate D2E/DX2 analytically  !
 ! A10   A(5,4,6)              106.7321         calculate D2E/DX2 analytically  !
 ! A11   A(5,4,7)              107.1802         calculate D2E/DX2 analytically  !
 ! A12   A(6,4,7)              110.7808         calculate D2E/DX2 analytically  !
 ! A13   A(4,7,8)              112.4183         calculate D2E/DX2 analytically  !
 ! A14   A(4,7,12)             110.7494         calculate D2E/DX2 analytically  !
 ! A15   A(8,7,12)             110.7529         calculate D2E/DX2 analytically  !
 ! A16   A(7,8,9)              109.5233         calculate D2E/DX2 analytically  !
 ! A17   A(7,8,10)             112.5007         calculate D2E/DX2 analytically  !
 ! A18   A(7,8,11)             110.6941         calculate D2E/DX2 analytically  !
 ! A19   A(9,8,10)             108.1282         calculate D2E/DX2 analytically  !
 ! A20   A(9,8,11)             107.6415         calculate D2E/DX2 analytically  !
 ! A21   A(10,8,11)            108.1996         calculate D2E/DX2 analytically  !
 ! A22   A(7,12,13)            112.6482         calculate D2E/DX2 analytically  !
 ! A23   A(7,12,14)            109.8999         calculate D2E/DX2 analytically  !
 ! A24   A(7,12,15)            109.9066         calculate D2E/DX2 analytically  !
 ! A25   A(13,12,14)           108.0566         calculate D2E/DX2 analytically  !
 ! A26   A(13,12,15)           108.0992         calculate D2E/DX2 analytically  !
 ! A27   A(14,12,15)           108.1014         calculate D2E/DX2 analytically  !
 ! A28   A(1,16,17)            110.9685         calculate D2E/DX2 analytically  !
 ! A29   A(1,16,18)            111.1158         calculate D2E/DX2 analytically  !
 ! A30   A(1,16,19)            110.8112         calculate D2E/DX2 analytically  !
 ! A31   A(17,16,18)           108.4939         calculate D2E/DX2 analytically  !
 ! A32   A(17,16,19)           107.3176         calculate D2E/DX2 analytically  !
 ! A33   A(18,16,19)           107.994          calculate D2E/DX2 analytically  !
 ! D1    D(2,1,4,5)           -172.3911         calculate D2E/DX2 analytically  !
 ! D2    D(2,1,4,6)            -56.4462         calculate D2E/DX2 analytically  !
 ! D3    D(2,1,4,7)             68.1728         calculate D2E/DX2 analytically  !
 ! D4    D(3,1,4,5)            -57.7305         calculate D2E/DX2 analytically  !
 ! D5    D(3,1,4,6)             58.2145         calculate D2E/DX2 analytically  !
 ! D6    D(3,1,4,7)           -177.1665         calculate D2E/DX2 analytically  !
 ! D7    D(16,1,4,5)            63.876          calculate D2E/DX2 analytically  !
 ! D8    D(16,1,4,6)           179.821          calculate D2E/DX2 analytically  !
 ! D9    D(16,1,4,7)           -55.56           calculate D2E/DX2 analytically  !
 ! D10   D(2,1,16,17)          -62.4702         calculate D2E/DX2 analytically  !
 ! D11   D(2,1,16,18)           58.337          calculate D2E/DX2 analytically  !
 ! D12   D(2,1,16,19)          178.4065         calculate D2E/DX2 analytically  !
 ! D13   D(3,1,16,17)         -178.4837         calculate D2E/DX2 analytically  !
 ! D14   D(3,1,16,18)          -57.6765         calculate D2E/DX2 analytically  !
 ! D15   D(3,1,16,19)           62.393          calculate D2E/DX2 analytically  !
 ! D16   D(4,1,16,17)           61.3813         calculate D2E/DX2 analytically  !
 ! D17   D(4,1,16,18)         -177.8116         calculate D2E/DX2 analytically  !
 ! D18   D(4,1,16,19)          -57.742          calculate D2E/DX2 analytically  !
 ! D19   D(1,4,7,8)            -64.6271         calculate D2E/DX2 analytically  !
 ! D20   D(1,4,7,12)           170.8881         calculate D2E/DX2 analytically  !
 ! D21   D(5,4,7,8)            175.2152         calculate D2E/DX2 analytically  !
 ! D22   D(5,4,7,12)            50.7304         calculate D2E/DX2 analytically  !
 ! D23   D(6,4,7,8)             59.1346         calculate D2E/DX2 analytically  !
 ! D24   D(6,4,7,12)           -65.3503         calculate D2E/DX2 analytically  !
 ! D25   D(4,7,8,9)           -178.9627         calculate D2E/DX2 analytically  !
 ! D26   D(4,7,8,10)           -58.6843         calculate D2E/DX2 analytically  !
 ! D27   D(4,7,8,11)            62.5042         calculate D2E/DX2 analytically  !
 ! D28   D(12,7,8,9)           -54.4798         calculate D2E/DX2 analytically  !
 ! D29   D(12,7,8,10)           65.7986         calculate D2E/DX2 analytically  !
 ! D30   D(12,7,8,11)         -173.0129         calculate D2E/DX2 analytically  !
 ! D31   D(4,7,12,13)           62.6765         calculate D2E/DX2 analytically  !
 ! D32   D(4,7,12,14)         -176.7778         calculate D2E/DX2 analytically  !
 ! D33   D(4,7,12,15)          -57.928          calculate D2E/DX2 analytically  !
 ! D34   D(8,7,12,13)          -62.7509         calculate D2E/DX2 analytically  !
 ! D35   D(8,7,12,14)           57.7948         calculate D2E/DX2 analytically  !
 ! D36   D(8,7,12,15)          176.6446         calculate D2E/DX2 analytically  !
 --------------------------------------------------------------------------------
 Trust Radius=3.00D-01 FncErr=1.00D-07 GrdErr=1.00D-07 EigMax=2.50D+02 EigMin=1.00D-04
 Number of steps in this run=      2 maximum allowed number of steps=      2.
 GradGradGradGradGradGradGradGradGradGradGradGradGradGradGradGradGradGrad

                          Input orientation:                          
 ---------------------------------------------------------------------
 Center     Atomic      Atomic             Coordinates (Angstroms)
 Number     Number       Type             X           Y           Z
 ---------------------------------------------------------------------
      1          6           0        0.719326   -0.981670    0.210883
      2          1           0        0.619703   -1.139956    1.286968
      3          1           0        1.618504   -1.526138   -0.086096
      4          6           0       -0.458482   -1.612132   -0.525766
      5          1           0       -0.264062   -1.557902   -1.599984
      6          1           0       -0.516551   -2.685243   -0.266614
      7          7           0       -1.733583   -0.953381   -0.285960
      8          6           0       -2.157624   -1.056636    1.095501
      9          1           0       -3.122669   -0.565282    1.217958
     10          1           0       -2.260758   -2.104157    1.428646
     11          1           0       -1.447684   -0.558523    1.754253
     12          6           0       -2.753229   -1.469631   -1.175765
     13          1           0       -2.951314   -2.543989   -1.017391
     14          1           0       -3.687079   -0.927873   -1.024029
     15          1           0       -2.445902   -1.331138   -2.212512
     16          6           0        0.889637    0.503913   -0.083666
     17          1           0        0.011676    1.066924    0.231083
     18          1           0        1.762274    0.908578    0.429585
     19          1           0        1.018670    0.674777   -1.154131
 ---------------------------------------------------------------------
                    Distance matrix (angstroms):
                    1          2          3          4          5
     1  C    0.000000
     2  H    1.092217   0.000000
     3  H    1.092320   1.741277   0.000000
     4  C    1.525571   2.161351   2.124753   0.000000
     5  H    2.139704   3.047984   2.415971   1.093015   0.000000
     6  H    2.158138   2.468320   2.436098   1.105486   1.764234
     7  N    2.502881   2.836700   3.406535   1.455109   2.061940
     8  C    3.010816   2.785166   3.984438   2.413331   3.332039
     9  H    3.993558   3.786867   5.010242   3.351770   4.134940
    10  H    3.409373   3.040857   4.204429   2.703704   3.668486
    11  H    2.693878   2.197842   3.704683   2.699463   3.694675
    12  C    3.770880   4.189320   4.505842   2.389282   2.526599
    13  H    4.174098   4.475884   4.773527   2.706338   2.921147
    14  H    4.576495   4.892244   5.420964   3.337711   3.527847
    15  H    4.001705   4.656270   4.591195   2.621814   2.277508
    16  C    1.524048   2.157269   2.156933   2.547651   2.807369
    17  H    2.167468   2.520894   3.066997   2.823333   3.212250
    18  H    2.169933   2.497412   2.492877   3.492626   3.782686
    19  H    2.167184   3.067799   2.518834   2.794060   2.613244
                    6          7          8          9         10
     6  H    0.000000
     7  N    2.116810   0.000000
     8  C    2.683438   1.448760   0.000000
     9  H    3.672879   2.083735   1.089833   0.000000
    10  H    2.500765   2.131214   1.104048   1.776349   0.000000
    11  H    3.077962   2.097647   1.089075   1.758759   1.776539
    12  C    2.703145   1.448428   2.384105   2.585390   2.725455
    13  H    2.551801   2.132579   2.703049   2.990222   2.579422
    14  H    3.703279   2.088431   2.616909   2.340200   3.071424
    15  H    3.056553   2.088469   3.331877   3.579480   3.726912
    16  C    3.490208   3.007642   3.620987   4.351552   4.360517
    17  H    3.821712   2.719356   3.156356   3.669079   4.080915
    18  H    4.311994   4.024912   4.435213   5.162990   5.124401
    19  H    3.799254   3.313535   4.259986   4.931049   5.014764
                   11         12         13         14         15
    11  H    0.000000
    12  C    3.334601   0.000000
    13  H    3.726256   1.103886   0.000000
    14  H    3.587500   1.090230   1.775733   0.000000
    15  H    4.162764   1.090172   1.776165   1.765116   0.000000
    16  C    3.157498   4.284627   4.991438   4.886780   4.361791
    17  H    2.663054   4.007247   4.834944   4.385807   4.214445
    18  H    3.769743   5.350027   6.019291   5.931357   5.450299
    19  H    4.007821   4.338914   5.112722   4.972875   4.140910
                   16         17         18         19
    16  C    0.000000
    17  H    1.089433   0.000000
    18  H    1.090265   1.768918   0.000000
    19  H    1.091667   1.756882   1.765153   0.000000
 Stoichiometry    C5H13N
 Framework group  C1[X(C5H13N)]
 Deg. of freedom    51
 Full point group                 C1      NOp   1
 Largest Abelian subgroup         C1      NOp   1
 Largest concise Abelian subgroup C1      NOp   1
                         Standard orientation:                         
 ---------------------------------------------------------------------
 Center     Atomic      Atomic             Coordinates (Angstroms)
 Number     Number       Type             X           Y           Z
 ---------------------------------------------------------------------
      1          6           0        1.561367   -0.027215    0.618826
      2          1           0        1.540527    0.982565    1.034576
      3          1           0        2.184800   -0.613625    1.297513
      4          6           0        0.163032   -0.636615    0.644444
      5          1           0        0.237819   -1.687168    0.352164
      6          1           0       -0.220913   -0.621202    1.681000
      7          7           0       -0.780177   -0.003579   -0.264931
      8          6           0       -1.050273    1.374673    0.090565
      9          1           0       -1.773427    1.795870   -0.607559
     10          1           0       -1.459145    1.475433    1.111150
     11          1           0       -0.142789    1.973441    0.027044
     12          6           0       -2.010197   -0.764726   -0.340103
     13          1           0       -2.537197   -0.817642    0.628419
     14          1           0       -2.683874   -0.310438   -1.067003
     15          1           0       -1.797236   -1.783056   -0.665874
     16          6           0        2.184434   -0.005336   -0.771869
     17          1           0        1.589125    0.597970   -1.456334
     18          1           0        3.195730    0.401006   -0.742825
     19          1           0        2.237642   -1.012792   -1.188929
 ---------------------------------------------------------------------
 Rotational constants (GHZ):           5.8265296           2.1298371           1.9535111
 Standard basis: 6-311+G(2d,2p) (5D, 7F)
 There are   291 symmetry adapted cartesian basis functions of A   symmetry.
 There are   279 symmetry adapted basis functions of A   symmetry.
   279 basis functions,   395 primitive gaussians,   291 cartesian basis functions
    25 alpha electrons       25 beta electrons
       nuclear repulsion energy       264.7006762634 Hartrees.
 NAtoms=   19 NActive=   19 NUniq=   19 SFac= 1.00D+00 NAtFMM=   60 NAOKFM=F Big=F
 Integral buffers will be    131072 words long.
 Raffenetti 2 integral format.
 Two-electron integral symmetry is turned on.
 Nuclear repulsion after empirical dispersion term =      264.6893814923 Hartrees.
 One-electron integrals computed using PRISM.
 NBasis=   279 RedAO= T EigKep=  3.49D-05  NBF=   279
 NBsUse=   279 1.00D-06 EigRej= -1.00D+00 NBFU=   279
 Initial guess from the checkpoint file:  "dimethyl_aminopropyl.chk"
 B after Tr=     0.000000   -0.000000    0.000000
         Rot=    1.000000    0.000000   -0.000000   -0.000000 Ang=   0.00 deg.
 Requested convergence on RMS density matrix=1.00D-08 within  32 cycles.
 Requested convergence on MAX density matrix=1.00D-06.
 Requested convergence on             energy=1.00D-06.
 No special actions if energy rises.
 SCF Done:  E(RwB97XD) =  -253.104338004     A.U. after    1 cycles
            NFock=  1  Conv=0.21D-08     -V/T= 2.0047
 QCSCF skips out because SCF is already converged.
 DoSCS=F DFT=T ScalE2(SS,OS)=  1.000000  1.000000
 Range of M.O.s used for correlation:     1   279
 NBasis=   279 NAE=    25 NBE=    25 NFC=     0 NFV=     0
 NROrb=    279 NOA=    25 NOB=    25 NVA=   254 NVB=   254

 **** Warning!!: The largest alpha MO coefficient is  0.43417413D+02

 Symmetrizing basis deriv contribution to polar:
 IMax=3 JMax=2 DiffMx= 0.00D+00
 G2DrvN: will do    20 centers at a time, making    1 passes.
 Calling FoFCou, ICntrl=  3107 FMM=F I1Cent=   0 AccDes= 0.00D+00.
 End of G2Drv F.D. properties file   721 does not exist.
 End of G2Drv F.D. properties file   722 does not exist.
 End of G2Drv F.D. properties file   788 does not exist.
          IDoAtm=1111111111111111111
          Differentiating once with respect to electric field.
                with respect to dipole field.
          Differentiating once with respect to nuclear coordinates.
 Keep R1 ints in memory in canonical form, NReq=1550320661.
          There are    60 degrees of freedom in the 1st order CPHF.  IDoFFX=6 NUNeed=     3.
     57 vectors produced by pass  0 Test12= 1.06D-14 1.67D-09 XBig12= 2.67D+01 1.09D+00.
 AX will form    57 AO Fock derivatives at one time.
     57 vectors produced by pass  1 Test12= 1.06D-14 1.67D-09 XBig12= 1.98D+00 2.66D-01.
     57 vectors produced by pass  2 Test12= 1.06D-14 1.67D-09 XBig12= 6.04D-02 5.81D-02.
     57 vectors produced by pass  3 Test12= 1.06D-14 1.67D-09 XBig12= 6.18D-04 6.40D-03.
     57 vectors produced by pass  4 Test12= 1.06D-14 1.67D-09 XBig12= 4.04D-06 3.45D-04.
     57 vectors produced by pass  5 Test12= 1.06D-14 1.67D-09 XBig12= 2.34D-08 1.99D-05.
     46 vectors produced by pass  6 Test12= 1.06D-14 1.67D-09 XBig12= 1.39D-10 1.22D-06.
      5 vectors produced by pass  7 Test12= 1.06D-14 1.67D-09 XBig12= 7.11D-13 9.32D-08.
      3 vectors produced by pass  8 Test12= 1.06D-14 1.67D-09 XBig12= 3.28D-15 5.79D-09.
 InvSVY:  IOpt=1 It=  1 EMax= 6.22D-15
 Solved reduced A of dimension   396 with    60 vectors.
 Isotropic polarizability for W=    0.000000       72.43 Bohr**3.
 End of Minotr F.D. properties file   721 does not exist.
 End of Minotr F.D. properties file   722 does not exist.
 End of Minotr F.D. properties file   788 does not exist.

 **********************************************************************

            Population analysis using the SCF density.

 **********************************************************************

 Orbital symmetries:
       Occupied  (A) (A) (A) (A) (A) (A) (A) (A) (A) (A) (A) (A)
                 (A) (A) (A) (A) (A) (A) (A) (A) (A) (A) (A) (A)
                 (A)
       Virtual   (A) (A) (A) (A) (A) (A) (A) (A) (A) (A) (A) (A)
                 (A) (A) (A) (A) (A) (A) (A) (A) (A) (A) (A) (A)
                 (A) (A) (A) (A) (A) (A) (A) (A) (A) (A) (A) (A)
                 (A) (A) (A) (A) (A) (A) (A) (A) (A) (A) (A) (A)
                 (A) (A) (A) (A) (A) (A) (A) (A) (A) (A) (A) (A)
                 (A) (A) (A) (A) (A) (A) (A) (A) (A) (A) (A) (A)
                 (A) (A) (A) (A) (A) (A) (A) (A) (A) (A) (A) (A)
                 (A) (A) (A) (A) (A) (A) (A) (A) (A) (A) (A) (A)
                 (A) (A) (A) (A) (A) (A) (A) (A) (A) (A) (A) (A)
                 (A) (A) (A) (A) (A) (A) (A) (A) (A) (A) (A) (A)
                 (A) (A) (A) (A) (A) (A) (A) (A) (A) (A) (A) (A)
                 (A) (A) (A) (A) (A) (A) (A) (A) (A) (A) (A) (A)
                 (A) (A) (A) (A) (A) (A) (A) (A) (A) (A) (A) (A)
                 (A) (A) (A) (A) (A) (A) (A) (A) (A) (A) (A) (A)
                 (A) (A) (A) (A) (A) (A) (A) (A) (A) (A) (A) (A)
                 (A) (A) (A) (A) (A) (A) (A) (A) (A) (A) (A) (A)
                 (A) (A) (A) (A) (A) (A) (A) (A) (A) (A) (A) (A)
                 (A) (A) (A) (A) (A) (A) (A) (A) (A) (A) (A) (A)
                 (A) (A) (A) (A) (A) (A) (A) (A) (A) (A) (A) (A)
                 (A) (A) (A) (A) (A) (A) (A) (A) (A) (A) (A) (A)
                 (A) (A) (A) (A) (A) (A) (A) (A) (A) (A) (A) (A)
                 (A) (A)
 The electronic state is 1-A.
 Alpha  occ. eigenvalues --  -14.42021 -10.29808 -10.29292 -10.29290 -10.27346
 Alpha  occ. eigenvalues --  -10.25999  -1.02604  -0.87604  -0.80277  -0.78513
 Alpha  occ. eigenvalues --   -0.71397  -0.65436  -0.57236  -0.56390  -0.54395
 Alpha  occ. eigenvalues --   -0.51438  -0.50036  -0.47704  -0.46638  -0.44860
 Alpha  occ. eigenvalues --   -0.44510  -0.42589  -0.40985  -0.40736  -0.29486
 Alpha virt. eigenvalues --    0.06421   0.07694   0.08037   0.08241   0.10336
 Alpha virt. eigenvalues --    0.10865   0.11011   0.11531   0.12145   0.13449
 Alpha virt. eigenvalues --    0.14181   0.14754   0.15257   0.15328   0.16626
 Alpha virt. eigenvalues --    0.17633   0.18141   0.19547   0.20622   0.21319
 Alpha virt. eigenvalues --    0.23244   0.24249   0.25170   0.25589   0.26616
 Alpha virt. eigenvalues --    0.27330   0.28036   0.28940   0.29253   0.30879
 Alpha virt. eigenvalues --    0.31280   0.32113   0.32250   0.33160   0.33382
 Alpha virt. eigenvalues --    0.34129   0.34940   0.35730   0.37358   0.38006
 Alpha virt. eigenvalues --    0.40717   0.42189   0.46198   0.47417   0.48517
 Alpha virt. eigenvalues --    0.50135   0.52150   0.52756   0.54442   0.56634
 Alpha virt. eigenvalues --    0.57187   0.58521   0.59438   0.59678   0.61000
 Alpha virt. eigenvalues --    0.61833   0.63453   0.63633   0.64440   0.64826
 Alpha virt. eigenvalues --    0.65283   0.66461   0.67437   0.68938   0.69952
 Alpha virt. eigenvalues --    0.70518   0.72469   0.73478   0.74060   0.75254
 Alpha virt. eigenvalues --    0.75708   0.76696   0.77532   0.78797   0.79708
 Alpha virt. eigenvalues --    0.84374   0.86392   0.88268   0.89463   0.93530
 Alpha virt. eigenvalues --    0.93910   0.96134   0.97737   0.98692   1.01455
 Alpha virt. eigenvalues --    1.03270   1.05774   1.07356   1.08992   1.09968
 Alpha virt. eigenvalues --    1.11462   1.12916   1.15099   1.17746   1.20328
 Alpha virt. eigenvalues --    1.21080   1.21331   1.22106   1.22949   1.24231
 Alpha virt. eigenvalues --    1.26166   1.26754   1.27679   1.28185   1.29875
 Alpha virt. eigenvalues --    1.31099   1.32598   1.33751   1.34062   1.36876
 Alpha virt. eigenvalues --    1.37998   1.38301   1.39157   1.41207   1.42153
 Alpha virt. eigenvalues --    1.44536   1.44999   1.45378   1.46521   1.48392
 Alpha virt. eigenvalues --    1.49146   1.49377   1.50714   1.51785   1.54431
 Alpha virt. eigenvalues --    1.55238   1.56305   1.58170   1.59495   1.60242
 Alpha virt. eigenvalues --    1.61524   1.63867   1.65971   1.66167   1.67116
 Alpha virt. eigenvalues --    1.68290   1.71306   1.71922   1.75014   1.77535
 Alpha virt. eigenvalues --    1.79409   1.83063   1.88829   1.95000   1.96983
 Alpha virt. eigenvalues --    2.03432   2.12643   2.17384   2.71514   2.75511
 Alpha virt. eigenvalues --    2.79612   2.80734   2.84935   2.89073   2.94874
 Alpha virt. eigenvalues --    2.97178   2.98963   3.02981   3.11153   3.12486
 Alpha virt. eigenvalues --    3.16981   3.17657   3.25707   3.27642   3.29360
 Alpha virt. eigenvalues --    3.31217   3.33210   3.35924   3.39025   3.40073
 Alpha virt. eigenvalues --    3.43034   3.46562   3.47277   3.48814   3.50707
 Alpha virt. eigenvalues --    3.52152   3.53632   3.56004   3.57112   3.59081
 Alpha virt. eigenvalues --    3.62085   3.63954   3.65077   3.65945   3.66775
 Alpha virt. eigenvalues --    3.69005   3.70239   3.72844   3.73554   3.76164
 Alpha virt. eigenvalues --    3.77798   3.78155   3.80695   3.82188   3.83953
 Alpha virt. eigenvalues --    3.87601   3.90896   3.92780   3.94822   3.97265
 Alpha virt. eigenvalues --    3.99437   4.00468   4.02564   4.07983   4.08569
 Alpha virt. eigenvalues --    4.09527   4.11924   4.12633   4.15369   4.16574
 Alpha virt. eigenvalues --    4.18009   4.19803   4.20231   4.21141   4.23613
 Alpha virt. eigenvalues --    4.24361   4.25619   4.26294   4.27310   4.29721
 Alpha virt. eigenvalues --    4.31764   4.33419   4.36881   4.37542   4.38374
 Alpha virt. eigenvalues --    4.42205   4.44266   4.44746   4.48045   4.52456
 Alpha virt. eigenvalues --    4.63203   4.86131   5.00633   5.08061   5.11387
 Alpha virt. eigenvalues --    5.11801   5.13990   5.17168   5.18513   5.21542
 Alpha virt. eigenvalues --    5.23944   5.25185   5.28225   5.41743   5.44151
 Alpha virt. eigenvalues --    5.57482   5.70207   5.75234  24.01690  24.06331
 Alpha virt. eigenvalues --   24.16397  24.17965  24.23660  35.67598
          Condensed to atoms (all electrons):
               1          2          3          4          5          6
     1  C    5.075306   0.488770   0.447241   0.206008  -0.025652  -0.023563
     2  H    0.488770   0.542945  -0.028136  -0.037683   0.005181  -0.008391
     3  H    0.447241  -0.028136   0.535943  -0.046203  -0.006914  -0.004039
     4  C    0.206008  -0.037683  -0.046203   5.035791   0.464507   0.431309
     5  H   -0.025652   0.005181  -0.006914   0.464507   0.542784  -0.030612
     6  H   -0.023563  -0.008391  -0.004039   0.431309  -0.030612   0.551690
     7  N   -0.058331  -0.004466   0.007284   0.223150  -0.062604  -0.036804
     8  C    0.013669  -0.005766   0.000949  -0.073897  -0.002594   0.000025
     9  H    0.001049   0.000172   0.000026   0.007055  -0.000161  -0.000632
    10  H   -0.011254  -0.000491  -0.000084   0.004449  -0.000287   0.010454
    11  H    0.010834  -0.004668   0.000452  -0.004334  -0.000226  -0.002537
    12  C   -0.025718  -0.000112  -0.000474  -0.034885  -0.000844  -0.002255
    13  H   -0.000005  -0.000090  -0.000030  -0.008556  -0.003186   0.009870
    14  H    0.003205   0.000001   0.000017   0.006406   0.000323  -0.000597
    15  H   -0.009963   0.000038   0.000020   0.001410   0.005575  -0.001900
    16  C    0.187315  -0.054627  -0.013710   0.020359  -0.003798   0.000239
    17  H   -0.004459  -0.006559   0.005021  -0.031033  -0.000137  -0.000418
    18  H   -0.061316  -0.003367  -0.004738   0.031876  -0.000256  -0.000118
    19  H   -0.007556   0.004741  -0.006461  -0.014337   0.001024   0.000146
               7          8          9         10         11         12
     1  C   -0.058331   0.013669   0.001049  -0.011254   0.010834  -0.025718
     2  H   -0.004466  -0.005766   0.000172  -0.000491  -0.004668  -0.000112
     3  H    0.007284   0.000949   0.000026  -0.000084   0.000452  -0.000474
     4  C    0.223150  -0.073897   0.007055   0.004449  -0.004334  -0.034885
     5  H   -0.062604  -0.002594  -0.000161  -0.000287  -0.000226  -0.000844
     6  H   -0.036804   0.000025  -0.000632   0.010454  -0.002537  -0.002255
     7  N    6.902803   0.248637  -0.048929  -0.041447  -0.051826   0.229218
     8  C    0.248637   4.839932   0.432700   0.426149   0.431545  -0.045856
     9  H   -0.048929   0.432700   0.555082  -0.032591  -0.019217  -0.001581
    10  H   -0.041447   0.426149  -0.032591   0.579581  -0.035925  -0.004957
    11  H   -0.051826   0.431545  -0.019217  -0.035925   0.564862   0.003759
    12  C    0.229218  -0.045856  -0.001581  -0.004957   0.003759   4.806384
    13  H   -0.031546   0.002522  -0.003366   0.012356  -0.000918   0.418376
    14  H   -0.051468  -0.003949   0.005750  -0.002178   0.000225   0.429798
    15  H   -0.052806   0.000367   0.000369  -0.000590  -0.000228   0.445020
    16  C   -0.019085   0.003215  -0.002216   0.002382  -0.003132  -0.006853
    17  H   -0.005385   0.002794   0.000107  -0.000296   0.002812  -0.001767
    18  H    0.001802   0.000029   0.000005  -0.000001  -0.000034   0.000717
    19  H   -0.001946  -0.001026   0.000006   0.000011  -0.000157  -0.000938
              13         14         15         16         17         18
     1  C   -0.000005   0.003205  -0.009963   0.187315  -0.004459  -0.061316
     2  H   -0.000090   0.000001   0.000038  -0.054627  -0.006559  -0.003367
     3  H   -0.000030   0.000017   0.000020  -0.013710   0.005021  -0.004738
     4  C   -0.008556   0.006406   0.001410   0.020359  -0.031033   0.031876
     5  H   -0.003186   0.000323   0.005575  -0.003798  -0.000137  -0.000256
     6  H    0.009870  -0.000597  -0.001900   0.000239  -0.000418  -0.000118
     7  N   -0.031546  -0.051468  -0.052806  -0.019085  -0.005385   0.001802
     8  C    0.002522  -0.003949   0.000367   0.003215   0.002794   0.000029
     9  H   -0.003366   0.005750   0.000369  -0.002216   0.000107   0.000005
    10  H    0.012356  -0.002178  -0.000590   0.002382  -0.000296  -0.000001
    11  H   -0.000918   0.000225  -0.000228  -0.003132   0.002812  -0.000034
    12  C    0.418376   0.429798   0.445020  -0.006853  -0.001767   0.000717
    13  H    0.591090  -0.036297  -0.038087  -0.002022  -0.000038   0.000002
    14  H   -0.036297   0.563998  -0.015895   0.000200   0.000064  -0.000001
    15  H   -0.038087  -0.015895   0.560135   0.004306   0.000064  -0.000004
    16  C   -0.002022   0.000200   0.004306   4.980684   0.432677   0.427685
    17  H   -0.000038   0.000064   0.000064   0.432677   0.544303  -0.024593
    18  H    0.000002  -0.000001  -0.000004   0.427685  -0.024593   0.545825
    19  H    0.000015  -0.000008  -0.000052   0.417887  -0.028526  -0.022824
              19
     1  C   -0.007556
     2  H    0.004741
     3  H   -0.006461
     4  C   -0.014337
     5  H    0.001024
     6  H    0.000146
     7  N   -0.001946
     8  C   -0.001026
     9  H    0.000006
    10  H    0.000011
    11  H   -0.000157
    12  C   -0.000938
    13  H    0.000015
    14  H   -0.000008
    15  H   -0.000052
    16  C    0.417887
    17  H   -0.028526
    18  H   -0.022824
    19  H    0.558170
 Mulliken charges:
               1
     1  C   -0.205582
     2  H    0.112507
     3  H    0.113834
     4  C   -0.181393
     5  H    0.117875
     6  H    0.108133
     7  N   -0.146251
     8  C   -0.269443
     9  H    0.106373
    10  H    0.094721
    11  H    0.108714
    12  C   -0.207033
    13  H    0.089911
    14  H    0.100407
    15  H    0.102221
    16  C   -0.371505
    17  H    0.115370
    18  H    0.109310
    19  H    0.101832
 Sum of Mulliken charges =  -0.00000
 Mulliken charges with hydrogens summed into heavy atoms:
               1
     1  C    0.020759
     4  C    0.044615
     7  N   -0.146251
     8  C    0.040364
    12  C    0.085506
    16  C   -0.044994
 APT charges:
               1
     1  C    0.084631
     2  H   -0.037296
     3  H   -0.040464
     4  C    0.367841
     5  H   -0.036245
     6  H   -0.103784
     7  N   -0.672740
     8  C    0.317481
     9  H   -0.015878
    10  H   -0.078818
    11  H   -0.012213
    12  C    0.350106
    13  H   -0.084878
    14  H   -0.023376
    15  H   -0.016462
    16  C    0.047273
    17  H    0.001641
    18  H   -0.027492
    19  H   -0.019325
 Sum of APT charges =  -0.00000
 APT charges with hydrogens summed into heavy atoms:
               1
     1  C    0.006871
     4  C    0.227811
     7  N   -0.672740
     8  C    0.210572
    12  C    0.225389
    16  C    0.002096
 Electronic spatial extent (au):  <R**2>=            752.5672
 Charge=              0.0000 electrons
 Dipole moment (field-independent basis, Debye):
    X=             -0.2462    Y=              0.0024    Z=              0.5356  Tot=              0.5895
 Quadrupole moment (field-independent basis, Debye-Ang):
   XX=            -40.0350   YY=            -39.4846   ZZ=            -42.5954
   XY=             -0.2228   XZ=              1.0248   YZ=             -0.0674
 Traceless Quadrupole moment (field-independent basis, Debye-Ang):
   XX=              0.6700   YY=              1.2204   ZZ=             -1.8904
   XY=             -0.2228   XZ=              1.0248   YZ=             -0.0674
 Octapole moment (field-independent basis, Debye-Ang**2):
  XXX=             -2.8969  YYY=             -0.9674  ZZZ=              0.0480  XYY=             -0.3877
  XXY=              0.5200  XXZ=             -1.9375  XZZ=             -1.2970  YZZ=              0.1727
  YYZ=             -1.8893  XYZ=              0.1352
 Hexadecapole moment (field-independent basis, Debye-Ang**3):
 XXXX=           -668.6492 YYYY=           -219.6621 ZZZZ=           -164.4281 XXXY=             -0.2175
 XXXZ=             11.8249 YYYX=             -0.1779 YYYZ=              1.8493 ZZZX=              3.5394
 ZZZY=             -1.0758 XXYY=           -147.9975 XXZZ=           -137.9504 YYZZ=            -64.1553
 XXYZ=             -1.9743 YYXZ=              3.3587 ZZXY=             -1.8895
 N-N= 2.646893814923D+02 E-N=-1.116140957260D+03  KE= 2.519216995259D+02
  Exact polarizability:  79.644   0.408  69.395  -0.603  -0.029  68.257
 Approx polarizability:  75.332  -0.080  74.993   0.076   0.081  74.818
 Calling FoFJK, ICntrl=    100127 FMM=F ISym2X=0 I1Cent= 0 IOpClX= 0 NMat=1 NMatS=1 NMatT=0.
 Full mass-weighted force constant matrix:
 Low frequencies ---   -0.0008   -0.0008   -0.0007    7.3196    9.4814   11.6266
 Low frequencies ---   70.1282  135.0390  205.9107
 Diagonal vibrational polarizability:
        3.7995275       2.0909152       3.8868947
 Harmonic frequencies (cm**-1), IR intensities (KM/Mole), Raman scattering
 activities (A**4/AMU), depolarization ratios for plane and unpolarized
 incident light, reduced masses (AMU), force constants (mDyne/A),
 and normal coordinates:
                      1                      2                      3
                      A                      A                      A
 Frequencies --     70.1081               135.0355               205.9040
 Red. masses --      2.5050                 2.0041                 1.2338
 Frc consts  --      0.0073                 0.0215                 0.0308
 IR Inten    --      0.1653                 0.4350                 0.3569
  Atom  AN      X      Y      Z        X      Y      Z        X      Y      Z
     1   6    -0.03  -0.06   0.04    -0.03   0.05  -0.03    -0.02   0.02   0.01
     2   1    -0.05  -0.13   0.22    -0.15   0.09  -0.12    -0.08   0.04  -0.04
     3   1    -0.01  -0.16  -0.06    -0.09   0.15   0.11     0.03   0.09   0.02
     4   6    -0.01  -0.10  -0.03     0.01  -0.03  -0.14     0.00  -0.04   0.03
     5   1     0.01  -0.08  -0.08     0.07   0.00  -0.25     0.02  -0.03   0.02
     6   1    -0.04  -0.15  -0.04    -0.00  -0.17  -0.14    -0.00  -0.05   0.03
     7   7    -0.00  -0.08  -0.03    -0.06   0.01  -0.05     0.02  -0.02   0.03
     8   6     0.16  -0.02  -0.15    -0.03  -0.00   0.03     0.07  -0.01   0.02
     9   1     0.12  -0.03  -0.11    -0.18  -0.02   0.18    -0.00  -0.02   0.09
    10   1     0.27   0.13  -0.11     0.17  -0.04   0.11     0.18   0.03   0.06
    11   1     0.20  -0.10  -0.31    -0.07   0.03  -0.14     0.06  -0.01  -0.10
    12   6    -0.08   0.03   0.12    -0.08   0.02   0.10     0.01   0.02  -0.06
    13   1    -0.03   0.19   0.16     0.06   0.01   0.17    -0.09   0.07  -0.11
    14   1    -0.08   0.01   0.11    -0.18   0.03   0.20     0.09   0.02  -0.14
    15   1    -0.20  -0.03   0.23    -0.13   0.02   0.05     0.01   0.01  -0.00
    16   6    -0.04   0.20   0.04     0.18  -0.04   0.07    -0.08   0.00  -0.02
    17   1    -0.04   0.32   0.15     0.18  -0.26  -0.12    -0.39  -0.42  -0.12
    18   1    -0.04   0.19   0.12     0.10   0.16   0.17    -0.26   0.47  -0.15
    19   1    -0.04   0.28  -0.14     0.45  -0.10   0.23     0.37  -0.07   0.21
                      4                      5                      6
                      A                      A                      A
 Frequencies --    243.7797               261.0856               315.3817
 Red. masses --      1.1189                 1.1126                 1.6667
 Frc consts  --      0.0392                 0.0447                 0.0977
 IR Inten    --      0.2293                 0.3571                 0.3035
  Atom  AN      X      Y      Z        X      Y      Z        X      Y      Z
     1   6    -0.03   0.05   0.01     0.02  -0.00  -0.02    -0.07   0.16   0.00
     2   1    -0.07   0.07  -0.05     0.02  -0.01  -0.02    -0.23   0.22  -0.16
     3   1    -0.02   0.11   0.04     0.02  -0.00  -0.02    -0.01   0.36   0.12
     4   6    -0.00   0.00   0.00     0.01  -0.01  -0.00     0.03  -0.06  -0.03
     5   1     0.04   0.00  -0.00     0.02  -0.01  -0.01     0.18  -0.02  -0.12
     6   1    -0.02  -0.01  -0.00     0.05  -0.02   0.01    -0.01  -0.19  -0.04
     7   7     0.01  -0.01  -0.00    -0.01  -0.01   0.01     0.03  -0.05  -0.01
     8   6     0.04  -0.01   0.04    -0.04  -0.02   0.03     0.09  -0.06   0.04
     9   1    -0.32  -0.12   0.34     0.03  -0.00  -0.03     0.34   0.10  -0.13
    10   1     0.50   0.01   0.22    -0.15  -0.07  -0.01    -0.18  -0.12  -0.07
    11   1    -0.04   0.08  -0.42    -0.04  -0.01   0.15     0.17  -0.15   0.36
    12   6     0.01  -0.01  -0.04    -0.04   0.04  -0.00    -0.02   0.04  -0.00
    13   1    -0.08   0.06  -0.09    -0.32   0.51  -0.13     0.01   0.05   0.02
    14   1     0.08  -0.08  -0.15     0.21  -0.24  -0.40    -0.02   0.13   0.04
    15   1     0.05  -0.04   0.07    -0.02  -0.12   0.51    -0.12   0.03  -0.05
    16   6    -0.03  -0.02   0.01     0.05   0.01  -0.01    -0.06  -0.03   0.01
    17   1     0.11   0.15   0.03     0.07   0.03  -0.02     0.07   0.05  -0.04
    18   1     0.07  -0.26   0.01     0.05   0.00   0.02     0.03  -0.25  -0.03
    19   1    -0.28  -0.02  -0.04     0.05   0.02  -0.03    -0.29  -0.07   0.08
                      7                      8                      9
                      A                      A                      A
 Frequencies --    353.5747               396.2559               445.0332
 Red. masses --      2.5288                 1.8904                 2.0416
 Frc consts  --      0.1863                 0.1749                 0.2382
 IR Inten    --      3.3728                 3.2544                 0.2157
  Atom  AN      X      Y      Z        X      Y      Z        X      Y      Z
     1   6     0.01   0.03  -0.09    -0.01  -0.01   0.02     0.09   0.00   0.05
     2   1    -0.02   0.05  -0.14    -0.09  -0.00   0.01     0.03   0.02   0.02
     3   1     0.05   0.11  -0.05     0.01   0.03   0.04     0.14   0.05   0.04
     4   6    -0.00  -0.02   0.11     0.05  -0.10  -0.07     0.10  -0.06   0.03
     5   1    -0.04  -0.05   0.19     0.15   0.02  -0.47     0.14  -0.04  -0.04
     6   1     0.18   0.06   0.18     0.11  -0.53  -0.05     0.08  -0.13   0.02
     7   7    -0.10  -0.07   0.19    -0.04   0.07   0.15     0.08  -0.04   0.02
     8   6     0.04  -0.01  -0.02    -0.04   0.12  -0.06    -0.15  -0.07  -0.06
     9   1     0.10  -0.03  -0.10     0.01  -0.02  -0.20    -0.32  -0.34  -0.04
    10   1     0.06   0.25  -0.04    -0.11   0.36  -0.12    -0.12  -0.09  -0.05
    11   1     0.11  -0.12  -0.14    -0.03   0.11  -0.15    -0.32   0.17  -0.19
    12   6    -0.13  -0.00  -0.10     0.06  -0.04   0.01    -0.04   0.16  -0.01
    13   1    -0.28  -0.24  -0.20    -0.07  -0.11  -0.06    -0.00   0.17   0.01
    14   1     0.01   0.23  -0.08     0.10  -0.14  -0.09     0.02   0.44   0.10
    15   1    -0.14   0.08  -0.37     0.23  -0.02   0.05    -0.32   0.16  -0.18
    16   6     0.14   0.04  -0.05    -0.04  -0.03   0.02    -0.02  -0.01   0.01
    17   1     0.28   0.12  -0.10    -0.04  -0.02   0.03    -0.09  -0.01   0.07
    18   1     0.16   0.00   0.12    -0.02  -0.08  -0.04    -0.01  -0.03  -0.12
    19   1     0.17   0.07  -0.10    -0.11  -0.04   0.03    -0.09  -0.01   0.01
                     10                     11                     12
                      A                      A                      A
 Frequencies --    534.7309               765.3528               857.2527
 Red. masses --      2.4461                 1.4256                 2.1687
 Frc consts  --      0.4121                 0.4920                 0.9390
 IR Inten    --      1.0333                 7.0248                 9.4260
  Atom  AN      X      Y      Z        X      Y      Z        X      Y      Z
     1   6     0.19   0.07   0.12     0.09  -0.06   0.04     0.02   0.06   0.06
     2   1     0.41   0.00   0.28    -0.26   0.11  -0.39     0.04  -0.06   0.34
     3   1     0.06  -0.22  -0.01     0.15   0.41   0.38     0.27  -0.06  -0.28
     4   6     0.08   0.11  -0.08     0.02  -0.07   0.02    -0.03  -0.14   0.15
     5   1     0.24   0.15  -0.16    -0.12  -0.11   0.14     0.05  -0.12   0.06
     6   1     0.07  -0.04  -0.08     0.00   0.10   0.01    -0.18  -0.23   0.08
     7   7    -0.12  -0.02  -0.03    -0.01   0.02  -0.06     0.04   0.00  -0.10
     8   6     0.03  -0.01   0.01    -0.01   0.08   0.01    -0.02   0.14   0.02
     9   1     0.09   0.16   0.05     0.01   0.14   0.03    -0.05   0.15   0.05
    10   1     0.10   0.02   0.03    -0.00   0.05   0.01    -0.02   0.04   0.01
    11   1     0.15  -0.19   0.02     0.00   0.07   0.04    -0.04   0.18   0.05
    12   6    -0.15  -0.07  -0.05    -0.06  -0.04  -0.01    -0.07  -0.05  -0.02
    13   1    -0.20  -0.09  -0.08    -0.02  -0.04   0.00     0.05  -0.01   0.04
    14   1    -0.11  -0.05  -0.08    -0.11  -0.11  -0.01    -0.18  -0.14   0.02
    15   1    -0.13  -0.06  -0.07    -0.02  -0.04   0.02    -0.07  -0.07   0.04
    16   6    -0.02  -0.02   0.04     0.02  -0.01   0.00     0.03   0.05  -0.09
    17   1    -0.22  -0.12   0.12    -0.20   0.12   0.31     0.22  -0.13  -0.40
    18   1    -0.01  -0.05  -0.31    -0.02   0.11  -0.15     0.12  -0.16  -0.08
    19   1    -0.19  -0.08   0.16    -0.03   0.11  -0.29    -0.02  -0.12   0.29
                     13                     14                     15
                      A                      A                      A
 Frequencies --    902.5902               936.6690              1027.9184
 Red. masses --      2.2144                 1.3379                 1.8429
 Frc consts  --      1.0629                 0.6916                 1.1473
 IR Inten    --      3.9648                 2.5347                24.7275
  Atom  AN      X      Y      Z        X      Y      Z        X      Y      Z
     1   6    -0.03  -0.03  -0.13    -0.02  -0.01  -0.02     0.11  -0.01  -0.04
     2   1    -0.15  -0.11   0.04     0.29   0.08  -0.22     0.05   0.04  -0.15
     3   1     0.06  -0.06  -0.24     0.01  -0.01  -0.04     0.48   0.21  -0.20
     4   6     0.18  -0.02  -0.06     0.04   0.06   0.09    -0.00  -0.05   0.04
     5   1    -0.01  -0.14   0.30     0.34   0.17  -0.23    -0.14  -0.04  -0.03
     6   1     0.43   0.41   0.02    -0.07  -0.34   0.05    -0.04  -0.05   0.02
     7   7     0.04  -0.02  -0.02     0.04  -0.01  -0.04    -0.11   0.06  -0.02
     8   6    -0.01   0.10   0.02     0.00   0.03  -0.00    -0.04  -0.10  -0.05
     9   1    -0.01   0.05  -0.00    -0.02   0.07   0.04     0.02   0.17   0.05
    10   1    -0.05   0.09   0.00     0.02  -0.03   0.01     0.11  -0.08   0.02
    11   1    -0.05   0.17   0.04    -0.00   0.04   0.03     0.12  -0.34  -0.05
    12   6    -0.07  -0.05  -0.01    -0.05  -0.04  -0.01     0.05   0.09  -0.01
    13   1    -0.10  -0.03  -0.03    -0.01   0.02   0.00     0.13  -0.03   0.04
    14   1    -0.02  -0.00  -0.02    -0.05   0.01   0.02    -0.11  -0.15  -0.01
    15   1    -0.12  -0.05  -0.04    -0.12  -0.05  -0.01     0.32   0.13   0.06
    16   6    -0.11   0.01   0.14    -0.06  -0.06  -0.00    -0.08   0.01   0.06
    17   1     0.07  -0.04  -0.05     0.11   0.16   0.05     0.14   0.02  -0.12
    18   1    -0.08  -0.08   0.35    -0.15   0.13   0.47    -0.06  -0.06   0.34
    19   1    -0.06  -0.06   0.32     0.27   0.09  -0.31     0.06  -0.03   0.18
                     16                     17                     18
                      A                      A                      A
 Frequencies --   1076.8155              1106.4100              1113.0649
 Red. masses --      1.4875                 2.1743                 1.5446
 Frc consts  --      1.0162                 1.5682                 1.1275
 IR Inten    --     11.7836                 8.5181                 5.5717
  Atom  AN      X      Y      Z        X      Y      Z        X      Y      Z
     1   6    -0.02  -0.01   0.01    -0.08  -0.07   0.18     0.09  -0.03   0.06
     2   1    -0.04  -0.02   0.03    -0.41  -0.10   0.22    -0.06   0.04  -0.11
     3   1    -0.04  -0.00   0.03    -0.04   0.05   0.25     0.35   0.19   0.00
     4   6     0.02  -0.01   0.01     0.16   0.04  -0.01    -0.08   0.05  -0.09
     5   1     0.04  -0.01   0.03     0.08   0.02   0.06    -0.27   0.03  -0.08
     6   1     0.03  -0.01   0.01     0.14   0.15  -0.02    -0.31   0.09  -0.17
     7   7    -0.04  -0.07  -0.02    -0.03   0.05  -0.01     0.05  -0.00   0.03
     8   6    -0.11   0.06  -0.00    -0.01  -0.04  -0.05     0.02   0.01   0.04
     9   1     0.04   0.51   0.10    -0.02   0.16   0.08     0.04  -0.18  -0.09
    10   1     0.18   0.18   0.10     0.07  -0.19   0.00    -0.07   0.14  -0.01
    11   1     0.19  -0.41  -0.05     0.03  -0.10   0.06    -0.04   0.09  -0.05
    12   6     0.12  -0.02   0.01    -0.03   0.03   0.05     0.00  -0.08   0.04
    13   1     0.06   0.26  -0.01    -0.23  -0.19  -0.07    -0.20   0.04  -0.07
    14   1     0.29   0.32   0.07     0.07  -0.04  -0.10     0.28   0.24  -0.01
    15   1    -0.35  -0.11  -0.04     0.22   0.13  -0.09    -0.28  -0.10  -0.10
    16   6     0.01   0.00  -0.01    -0.03  -0.00  -0.15    -0.07   0.02  -0.03
    17   1    -0.01  -0.01  -0.00     0.25   0.03  -0.36     0.20   0.02  -0.24
    18   1     0.01   0.00  -0.04    -0.01  -0.05   0.16    -0.03  -0.08   0.25
    19   1    -0.01   0.00  -0.02     0.20  -0.01  -0.12     0.12  -0.03   0.11
                     19                     20                     21
                      A                      A                      A
 Frequencies --   1124.2544              1139.2958              1196.0846
 Red. masses --      1.3349                 1.6328                 1.6679
 Frc consts  --      0.9941                 1.2487                 1.4059
 IR Inten    --      2.7105                11.9137                17.7665
  Atom  AN      X      Y      Z        X      Y      Z        X      Y      Z
     1   6    -0.01   0.04   0.06    -0.02  -0.10  -0.02     0.03   0.04   0.05
     2   1     0.08   0.03   0.08    -0.34  -0.09  -0.04     0.06   0.04   0.08
     3   1    -0.06  -0.06   0.03     0.04   0.11   0.09    -0.01  -0.01   0.04
     4   6     0.04  -0.03  -0.04     0.03   0.10   0.06    -0.01  -0.03  -0.07
     5   1     0.13  -0.10   0.22    -0.15   0.19  -0.30    -0.11  -0.08   0.10
     6   1    -0.07   0.18  -0.08     0.21  -0.17   0.13     0.10   0.12  -0.01
     7   7    -0.02   0.01  -0.01     0.05   0.08   0.03    -0.05  -0.03   0.12
     8   6    -0.02  -0.03   0.10    -0.00  -0.07   0.01     0.05   0.05  -0.08
     9   1     0.16  -0.26  -0.23     0.07  -0.03  -0.04    -0.18   0.12   0.19
    10   1    -0.10   0.54   0.01     0.04   0.08   0.02     0.02  -0.43  -0.03
    11   1     0.04  -0.15  -0.27     0.05  -0.15  -0.08    -0.07   0.26   0.26
    12   6     0.01   0.03  -0.07    -0.04  -0.06  -0.09     0.04  -0.01  -0.10
    13   1     0.28   0.13   0.09     0.29   0.24   0.10     0.37   0.25   0.12
    14   1    -0.25  -0.13   0.07    -0.28  -0.04   0.14    -0.25  -0.03   0.16
    15   1    -0.00  -0.04   0.14    -0.29  -0.18   0.14    -0.21  -0.15   0.18
    16   6    -0.02  -0.03  -0.04     0.01   0.06   0.00    -0.03  -0.03  -0.03
    17   1     0.08   0.07  -0.04    -0.01  -0.10  -0.12     0.10   0.08  -0.05
    18   1    -0.05   0.04   0.13     0.08  -0.10  -0.12    -0.06   0.03   0.15
    19   1     0.13   0.02  -0.16    -0.11  -0.04   0.22     0.13   0.01  -0.11
                     22                     23                     24
                      A                      A                      A
 Frequencies --   1255.5422              1306.6763              1329.7672
 Red. masses --      1.9282                 1.6039                 1.4302
 Frc consts  --      1.7909                 1.6135                 1.4900
 IR Inten    --     10.2859                 9.4353                 8.1068
  Atom  AN      X      Y      Z        X      Y      Z        X      Y      Z
     1   6    -0.02   0.13   0.00     0.05   0.01   0.01     0.06   0.03   0.01
     2   1    -0.03  -0.02   0.37     0.33   0.12  -0.22    -0.00   0.01   0.09
     3   1     0.10  -0.06  -0.27    -0.43  -0.10   0.36    -0.23  -0.04   0.22
     4   6     0.01  -0.07   0.00    -0.05  -0.03  -0.04    -0.04  -0.01   0.04
     5   1    -0.51  -0.07  -0.11    -0.25  -0.06  -0.02    -0.32   0.03  -0.18
     6   1     0.15   0.07   0.05     0.18  -0.00   0.05     0.65  -0.14   0.30
     7   7     0.09   0.15   0.01     0.14  -0.03   0.04    -0.08  -0.02  -0.10
     8   6    -0.03  -0.07  -0.03    -0.08   0.01  -0.02     0.05   0.01   0.05
     9   1     0.05   0.10  -0.01     0.04   0.23  -0.01     0.00  -0.21  -0.04
    10   1     0.12  -0.03   0.03     0.20   0.05   0.08    -0.17   0.03  -0.06
    11   1     0.06  -0.20  -0.03     0.09  -0.23   0.02    -0.05   0.14  -0.11
    12   6    -0.05  -0.07   0.02    -0.07   0.03   0.00     0.05  -0.00   0.02
    13   1    -0.15   0.01  -0.04     0.01  -0.17   0.02    -0.01   0.07  -0.01
    14   1     0.06   0.05   0.00    -0.11  -0.16  -0.07     0.13   0.07  -0.01
    15   1    -0.17  -0.06  -0.07     0.14   0.06   0.04    -0.02   0.02  -0.08
    16   6     0.02  -0.10   0.01    -0.05   0.04  -0.02    -0.04  -0.01  -0.02
    17   1    -0.04   0.12   0.25     0.09   0.01  -0.17     0.09   0.07  -0.06
    18   1    -0.10   0.19   0.03     0.00  -0.08   0.09    -0.04  -0.00   0.09
    19   1     0.07   0.05  -0.34     0.05  -0.02   0.16     0.10  -0.01   0.00
                     25                     26                     27
                      A                      A                      A
 Frequencies --   1333.0314              1388.9576              1421.3865
 Red. masses --      1.8559                 1.3477                 1.4088
 Frc consts  --      1.9431                 1.5318                 1.6770
 IR Inten    --     15.8408                 5.3148                 4.8034
  Atom  AN      X      Y      Z        X      Y      Z        X      Y      Z
     1   6    -0.03  -0.02   0.00    -0.11  -0.04   0.10     0.08   0.00  -0.05
     2   1     0.49   0.13  -0.34     0.40   0.13  -0.27    -0.32  -0.09   0.16
     3   1    -0.32  -0.09   0.22     0.43   0.13  -0.26    -0.09  -0.03   0.08
     4   6     0.05  -0.10   0.03    -0.03   0.01  -0.05    -0.10  -0.02  -0.01
     5   1     0.18  -0.14   0.21     0.01  -0.00   0.00     0.55  -0.00   0.12
     6   1    -0.10   0.08  -0.04     0.45   0.05   0.13     0.11   0.07   0.07
     7   7    -0.06   0.18  -0.01     0.01  -0.01  -0.01     0.03   0.05   0.01
     8   6     0.04  -0.06  -0.03    -0.01   0.01   0.01    -0.01  -0.01  -0.01
     9   1    -0.04  -0.10   0.02     0.00  -0.04  -0.03     0.02   0.01  -0.03
    10   1    -0.04  -0.10  -0.04     0.01  -0.04   0.01     0.05  -0.05   0.02
    11   1    -0.01   0.02   0.01     0.03  -0.05  -0.02     0.03  -0.07   0.00
    12   6     0.03  -0.08   0.02    -0.01   0.00   0.00    -0.02  -0.03   0.01
    13   1    -0.15   0.20  -0.07     0.04  -0.01   0.02    -0.01   0.07   0.01
    14   1     0.10   0.17   0.10     0.02  -0.01  -0.03     0.05   0.09   0.02
    15   1    -0.25  -0.09  -0.11     0.04   0.01  -0.00     0.06   0.00  -0.02
    16   6    -0.01   0.06  -0.00     0.01   0.01   0.05    -0.06  -0.02   0.09
    17   1    -0.00  -0.07  -0.13     0.12  -0.12  -0.17     0.31   0.00  -0.23
    18   1     0.06  -0.10  -0.03     0.04  -0.02  -0.32    -0.02  -0.07  -0.36
    19   1    -0.04  -0.01   0.16     0.01   0.10  -0.20     0.26   0.14  -0.27
                     28                     29                     30
                      A                      A                      A
 Frequencies --   1430.5895              1452.1553              1481.4513
 Red. masses --      1.3246                 1.1738                 1.1856
 Frc consts  --      1.5972                 1.4584                 1.5331
 IR Inten    --     12.1249                 0.8363                 0.8484
  Atom  AN      X      Y      Z        X      Y      Z        X      Y      Z
     1   6     0.01  -0.01   0.02    -0.00   0.00   0.01    -0.00   0.00  -0.02
     2   1    -0.06  -0.02   0.05     0.00   0.04  -0.08     0.04  -0.03   0.06
     3   1     0.15   0.07  -0.04    -0.01  -0.07  -0.05    -0.04   0.05   0.06
     4   6    -0.11  -0.01  -0.04     0.01  -0.00   0.00     0.05   0.03  -0.01
     5   1     0.46  -0.02   0.16    -0.06  -0.01  -0.00    -0.21  -0.08   0.25
     6   1     0.36   0.04   0.14     0.00  -0.01  -0.00    -0.12  -0.32  -0.05
     7   7     0.03   0.04   0.00    -0.00  -0.01  -0.00    -0.01  -0.00   0.00
     8   6    -0.02   0.00  -0.01     0.02  -0.09  -0.02    -0.01   0.07   0.02
     9   1     0.02  -0.05  -0.07     0.03   0.37   0.23     0.00  -0.25  -0.19
    10   1     0.09  -0.08   0.04    -0.04   0.42  -0.07     0.02  -0.34   0.06
    11   1     0.04  -0.09   0.02    -0.23   0.33   0.09     0.16  -0.21  -0.11
    12   6    -0.03  -0.03   0.01    -0.07  -0.04  -0.01    -0.07  -0.05  -0.02
    13   1     0.05   0.10   0.04     0.27   0.19   0.17     0.21   0.23   0.14
    14   1     0.09   0.11  -0.01     0.24   0.28  -0.08     0.18   0.30  -0.02
    15   1     0.11   0.02  -0.04     0.37   0.06  -0.00     0.40   0.05   0.00
    16   6     0.04  -0.00  -0.09    -0.00   0.00   0.00     0.00  -0.00   0.01
    17   1    -0.28   0.09   0.29     0.01   0.01   0.01     0.05  -0.05  -0.08
    18   1    -0.00   0.04   0.41     0.01  -0.02  -0.03    -0.03   0.07  -0.01
    19   1    -0.14  -0.16   0.29     0.03  -0.00   0.01    -0.09   0.03  -0.06
                     31                     32                     33
                      A                      A                      A
 Frequencies --   1491.7361              1496.5646              1501.3680
 Red. masses --      1.0547                 1.0537                 1.0476
 Frc consts  --      1.3827                 1.3905                 1.3913
 IR Inten    --      5.5985                 5.1504                 4.2797
  Atom  AN      X      Y      Z        X      Y      Z        X      Y      Z
     1   6     0.01   0.01   0.03    -0.00   0.00  -0.01     0.01  -0.02  -0.00
     2   1    -0.16   0.10  -0.23     0.09  -0.03   0.09     0.04  -0.03   0.01
     3   1    -0.03  -0.24  -0.16    -0.00   0.09   0.07    -0.00   0.06   0.08
     4   6    -0.00   0.02  -0.01    -0.01  -0.03   0.02    -0.01   0.01  -0.01
     5   1    -0.03  -0.04   0.17     0.05   0.05  -0.24     0.05  -0.03   0.11
     6   1     0.04  -0.18   0.01    -0.00   0.26  -0.00     0.03  -0.08   0.00
     7   7    -0.00   0.00  -0.00     0.01   0.00  -0.00     0.01   0.01  -0.00
     8   6    -0.02  -0.02   0.03     0.02   0.01   0.01     0.02  -0.01  -0.01
     9   1     0.36   0.23  -0.22    -0.07   0.05   0.11    -0.15   0.04   0.19
    10   1     0.13  -0.21   0.08    -0.26  -0.10  -0.09    -0.19   0.11  -0.09
    11   1    -0.19   0.24  -0.27     0.07  -0.11  -0.22     0.05  -0.07  -0.01
    12   6     0.03  -0.00  -0.02    -0.02   0.00  -0.04     0.00   0.01  -0.01
    13   1    -0.23  -0.08  -0.14    -0.03  -0.33  -0.04    -0.04  -0.13  -0.03
    14   1    -0.15   0.17   0.25     0.08   0.39   0.14    -0.01   0.04   0.02
    15   1     0.07  -0.07   0.23     0.12  -0.14   0.51    -0.05  -0.05   0.13
    16   6    -0.00  -0.01  -0.00     0.00   0.01  -0.00     0.02  -0.04   0.00
    17   1     0.07   0.10   0.03    -0.13  -0.14  -0.02     0.36   0.16  -0.14
    18   1    -0.03   0.07  -0.05     0.05  -0.13   0.10    -0.23   0.59  -0.07
    19   1     0.00  -0.04   0.09     0.02   0.05  -0.10    -0.44  -0.10   0.13
                     34                     35                     36
                      A                      A                      A
 Frequencies --   1506.2924              1511.5631              1515.2277
 Red. masses --      1.0532                 1.0516                 1.0843
 Frc consts  --      1.4080                 1.4156                 1.4668
 IR Inten    --     14.2821                 7.2934                15.4274
  Atom  AN      X      Y      Z        X      Y      Z        X      Y      Z
     1   6    -0.01  -0.01  -0.03    -0.02  -0.00   0.01     0.00   0.01   0.00
     2   1     0.18  -0.10   0.23    -0.03   0.05  -0.13    -0.05   0.00   0.02
     3   1     0.05   0.25   0.16     0.01  -0.09  -0.11     0.03   0.00  -0.04
     4   6    -0.00   0.01  -0.00     0.02  -0.00   0.01    -0.01   0.05  -0.04
     5   1    -0.04   0.01  -0.02    -0.04   0.02  -0.07    -0.07  -0.11   0.46
     6   1     0.03  -0.01   0.00    -0.03   0.05  -0.01     0.07  -0.46   0.01
     7   7    -0.00  -0.02  -0.02    -0.00  -0.00  -0.01     0.03   0.01  -0.00
     8   6    -0.02  -0.01  -0.02     0.00   0.02  -0.01     0.03  -0.02  -0.01
     9   1    -0.02  -0.13  -0.07    -0.18  -0.20   0.04    -0.23   0.08   0.31
    10   1     0.30   0.24   0.09     0.00   0.06  -0.01    -0.31   0.16  -0.16
    11   1    -0.04   0.08   0.37     0.13  -0.16   0.18     0.09  -0.14  -0.04
    12   6     0.03  -0.02  -0.02    -0.01  -0.01  -0.01     0.02   0.00   0.00
    13   1    -0.33   0.17  -0.19    -0.01  -0.04  -0.01    -0.18  -0.03  -0.10
    14   1    -0.26   0.17   0.36     0.01   0.14   0.06    -0.14  -0.03   0.11
    15   1     0.25   0.01   0.09     0.09  -0.03   0.13    -0.03  -0.01   0.03
    16   6     0.00  -0.00   0.00    -0.03  -0.02  -0.02    -0.01   0.01   0.00
    17   1    -0.00  -0.05  -0.04     0.14   0.48   0.28    -0.15  -0.08   0.06
    18   1    -0.01   0.01   0.02     0.01  -0.05  -0.33     0.09  -0.23   0.04
    19   1    -0.04   0.02  -0.05     0.39  -0.14   0.37     0.17   0.05  -0.07
                     37                     38                     39
                      A                      A                      A
 Frequencies --   1519.4623              1524.9519              2914.4196
 Red. masses --      1.0711                 1.0699                 1.0723
 Frc consts  --      1.4570                 1.4659                 5.3662
 IR Inten    --      9.8475                 8.2302                63.1199
  Atom  AN      X      Y      Z        X      Y      Z        X      Y      Z
     1   6     0.02   0.01   0.03     0.03   0.02   0.04     0.00  -0.00   0.00
     2   1    -0.17   0.11  -0.23    -0.28   0.13  -0.28     0.00  -0.03  -0.01
     3   1    -0.05  -0.25  -0.15    -0.08  -0.35  -0.20    -0.02   0.02  -0.02
     4   6    -0.00  -0.02   0.01     0.00   0.00   0.01     0.03   0.01  -0.07
     5   1     0.01   0.06  -0.26    -0.03  -0.01   0.03     0.02  -0.11  -0.05
     6   1    -0.03   0.25  -0.01     0.04  -0.06   0.03    -0.34   0.03   0.91
     7   7     0.02  -0.03   0.01    -0.02   0.01  -0.02    -0.00   0.00  -0.00
     8   6     0.01   0.03   0.01    -0.00   0.01  -0.03    -0.00   0.00   0.01
     9   1    -0.14   0.01   0.14    -0.15  -0.28  -0.03     0.01  -0.00   0.01
    10   1    -0.24  -0.04  -0.08     0.22   0.19   0.06     0.03   0.00  -0.08
    11   1     0.12  -0.17  -0.13     0.08  -0.08   0.42    -0.02  -0.01   0.00
    12   6     0.00  -0.03   0.01    -0.00   0.01  -0.01    -0.01  -0.00   0.01
    13   1    -0.21   0.42  -0.08     0.06  -0.21   0.01     0.06   0.00  -0.14
    14   1    -0.24  -0.03   0.22     0.11   0.12  -0.04     0.01  -0.01   0.02
    15   1     0.28   0.12  -0.24    -0.07  -0.08   0.20    -0.01   0.03   0.01
    16   6     0.01   0.00   0.00     0.02   0.01   0.01    -0.00   0.00   0.00
    17   1    -0.01  -0.07  -0.05    -0.06  -0.21  -0.12     0.00  -0.00   0.00
    18   1    -0.02   0.06   0.07     0.00   0.02   0.14    -0.00  -0.00  -0.00
    19   1    -0.12   0.01  -0.05    -0.17   0.07  -0.17    -0.00   0.00   0.00
                     40                     41                     42
                      A                      A                      A
 Frequencies --   2930.3646              2937.8728              3051.3466
 Red. masses --      1.0605                 1.0613                 1.0369
 Frc consts  --      5.3657                 5.3972                 5.6884
 IR Inten    --     46.7417               173.7524                30.8197
  Atom  AN      X      Y      Z        X      Y      Z        X      Y      Z
     1   6    -0.00   0.00   0.00     0.00   0.00   0.00    -0.01   0.00  -0.01
     2   1     0.00  -0.00  -0.00     0.00  -0.01  -0.01    -0.00   0.05   0.01
     3   1    -0.00  -0.00   0.00    -0.01   0.01  -0.01     0.07  -0.07   0.07
     4   6    -0.00   0.00   0.00     0.00   0.00  -0.01    -0.00   0.00   0.00
     5   1    -0.00  -0.00   0.00     0.00  -0.00  -0.00     0.00  -0.02  -0.01
     6   1     0.01  -0.00  -0.04    -0.05  -0.00   0.17     0.00   0.00   0.00
     7   7    -0.00  -0.00  -0.00     0.00  -0.00  -0.00    -0.00   0.00   0.00
     8   6     0.02  -0.01  -0.05     0.02  -0.01  -0.04     0.00   0.00  -0.00
     9   1    -0.07   0.05  -0.09    -0.05   0.03  -0.07     0.00  -0.00   0.00
    10   1    -0.27   0.05   0.68    -0.24   0.06   0.59    -0.00   0.00   0.00
    11   1     0.09   0.06  -0.02     0.07   0.05  -0.02    -0.02  -0.01   0.00
    12   6    -0.03  -0.00   0.04     0.03   0.01  -0.04     0.00   0.00   0.00
    13   1     0.29   0.02  -0.57    -0.34  -0.03   0.63     0.00   0.00  -0.00
    14   1     0.06  -0.04   0.08    -0.05   0.04  -0.08    -0.00   0.00  -0.00
    15   1    -0.03   0.09   0.04     0.02  -0.09  -0.05     0.00  -0.00  -0.00
    16   6     0.00   0.00  -0.00     0.00   0.00   0.00     0.02  -0.01  -0.04
    17   1    -0.00  -0.00   0.00    -0.00   0.00  -0.00     0.26  -0.26   0.28
    18   1    -0.00  -0.00  -0.00    -0.00  -0.00   0.00    -0.52  -0.22  -0.03
    19   1    -0.00   0.00   0.00    -0.00   0.00   0.00    -0.03   0.62   0.25
                     43                     44                     45
                      A                      A                      A
 Frequencies --   3055.3337              3063.1167              3081.0151
 Red. masses --      1.0662                 1.0833                 1.0707
 Frc consts  --      5.8643                 5.9888                 5.9882
 IR Inten    --     18.2592                25.3856                32.9949
  Atom  AN      X      Y      Z        X      Y      Z        X      Y      Z
     1   6    -0.02  -0.03  -0.05    -0.03   0.01  -0.03    -0.00   0.01  -0.00
     2   1    -0.03   0.67   0.26    -0.01   0.12   0.04     0.00  -0.05  -0.02
     3   1     0.29  -0.28   0.30     0.31  -0.30   0.33     0.03  -0.03   0.04
     4   6    -0.00   0.04   0.01     0.01  -0.06  -0.03     0.00  -0.00   0.00
     5   1     0.03  -0.42  -0.12    -0.06   0.78   0.22    -0.00   0.01   0.00
     6   1    -0.00   0.01   0.00    -0.04  -0.01   0.10     0.00  -0.00  -0.01
     7   7    -0.00   0.00   0.00     0.00  -0.00  -0.00     0.00  -0.00  -0.00
     8   6     0.00   0.00  -0.00     0.00  -0.00   0.00    -0.00  -0.00   0.01
     9   1     0.03  -0.01   0.03    -0.02   0.01  -0.02    -0.04   0.02  -0.04
    10   1    -0.01   0.00   0.02     0.00   0.00  -0.00     0.01  -0.00  -0.02
    11   1    -0.06  -0.04   0.00     0.00  -0.00   0.00     0.04   0.02  -0.00
    12   6     0.00  -0.00  -0.00    -0.00   0.00   0.00    -0.02  -0.03  -0.07
    13   1    -0.01  -0.00   0.01     0.01   0.00  -0.02    -0.09  -0.01   0.15
    14   1     0.01  -0.01   0.01    -0.01   0.01  -0.00     0.43  -0.31   0.46
    15   1    -0.00   0.01   0.00     0.01  -0.04  -0.01    -0.14   0.63   0.19
    16   6     0.00   0.01   0.01     0.00  -0.00   0.01     0.00  -0.00   0.00
    17   1    -0.03   0.04  -0.04    -0.04   0.04  -0.05    -0.01   0.01  -0.01
    18   1    -0.02  -0.01  -0.00    -0.01  -0.00  -0.00     0.00   0.00   0.00
    19   1     0.01  -0.12  -0.05     0.00  -0.03  -0.01    -0.00   0.01   0.00
                     46                     47                     48
                      A                      A                      A
 Frequencies --   3088.1048              3092.4265              3119.6352
 Red. masses --      1.0944                 1.0759                 1.1015
 Frc consts  --      6.1489                 6.0620                 6.3160
 IR Inten    --     15.8279                39.7027                38.9189
  Atom  AN      X      Y      Z        X      Y      Z        X      Y      Z
     1   6     0.03  -0.07   0.01    -0.01   0.03  -0.00     0.00  -0.02  -0.00
     2   1    -0.01   0.49   0.20     0.01  -0.28  -0.11    -0.01   0.21   0.09
     3   1    -0.34   0.31  -0.36     0.13  -0.12   0.14    -0.06   0.05  -0.07
     4   6     0.00  -0.03  -0.01    -0.00   0.01   0.00     0.00  -0.00  -0.00
     5   1    -0.02   0.32   0.09     0.00  -0.08  -0.02    -0.00   0.05   0.01
     6   1    -0.01  -0.00   0.02     0.01  -0.00  -0.02    -0.00   0.00   0.01
     7   7    -0.00  -0.00  -0.00    -0.00   0.00  -0.00     0.00   0.00  -0.00
     8   6     0.01   0.02  -0.02     0.00   0.05  -0.05     0.01  -0.00   0.00
     9   1     0.19  -0.10   0.18     0.48  -0.26   0.46    -0.04   0.02  -0.04
    10   1    -0.03   0.01   0.07    -0.06   0.02   0.14     0.00   0.00  -0.00
    11   1    -0.26  -0.16   0.01    -0.45  -0.28   0.02    -0.03  -0.02   0.00
    12   6    -0.00  -0.00  -0.01    -0.00  -0.00  -0.00    -0.00   0.01  -0.00
    13   1    -0.00  -0.00   0.01     0.00  -0.00  -0.00    -0.00   0.00   0.00
    14   1     0.05  -0.04   0.06     0.01  -0.01   0.01     0.03  -0.02   0.04
    15   1    -0.01   0.05   0.02    -0.01   0.05   0.02     0.01  -0.05  -0.02
    16   6    -0.00   0.02  -0.01    -0.00  -0.01   0.00    -0.04  -0.08  -0.01
    17   1     0.12  -0.11   0.13    -0.05   0.05  -0.06    -0.11   0.08  -0.12
    18   1    -0.09  -0.03  -0.00     0.08   0.03   0.00     0.61   0.23   0.02
    19   1     0.00  -0.14  -0.05    -0.00   0.08   0.03    -0.04   0.62   0.25
                     49                     50                     51
                      A                      A                      A
 Frequencies --   3126.7919              3134.7762              3135.3507
 Red. masses --      1.1037                 1.1026                 1.1018
 Frc consts  --      6.3576                 6.3836                 6.3815
 IR Inten    --     29.0640                 8.5676                52.1634
  Atom  AN      X      Y      Z        X      Y      Z        X      Y      Z
     1   6     0.00  -0.00  -0.00     0.01  -0.01   0.00    -0.01   0.01  -0.01
     2   1    -0.00   0.04   0.02    -0.00   0.11   0.04    -0.00  -0.01  -0.01
     3   1    -0.01   0.01  -0.01    -0.07   0.07  -0.08     0.06  -0.06   0.07
     4   6     0.00  -0.00  -0.00     0.00  -0.00  -0.00     0.00   0.00  -0.00
     5   1    -0.00   0.04   0.01    -0.00   0.03   0.01     0.00  -0.01  -0.00
     6   1    -0.00  -0.00   0.00    -0.00  -0.00   0.01    -0.00   0.00   0.00
     7   7     0.00  -0.00   0.00    -0.00   0.00  -0.00    -0.00  -0.00  -0.00
     8   6    -0.01  -0.00  -0.00    -0.07  -0.01  -0.02    -0.05  -0.01  -0.02
     9   1     0.04  -0.02   0.04     0.32  -0.19   0.32     0.24  -0.14   0.24
    10   1    -0.00  -0.00  -0.00    -0.01  -0.00  -0.02    -0.01  -0.00  -0.01
    11   1     0.09   0.06  -0.01     0.51   0.33  -0.04     0.40   0.25  -0.03
    12   6     0.05  -0.08   0.02    -0.00   0.01  -0.00    -0.00   0.01  -0.00
    13   1     0.01  -0.02   0.01     0.00   0.00  -0.00    -0.00   0.00  -0.00
    14   1    -0.41   0.28  -0.46     0.04  -0.03   0.05     0.04  -0.02   0.04
    15   1    -0.14   0.66   0.22     0.01  -0.06  -0.02     0.01  -0.06  -0.02
    16   6    -0.00  -0.00  -0.00     0.04  -0.03   0.02    -0.06   0.03  -0.03
    17   1     0.00  -0.00   0.00    -0.27   0.28  -0.31     0.36  -0.37   0.42
    18   1     0.05   0.02   0.00    -0.24  -0.11  -0.01     0.36   0.16   0.01
    19   1    -0.00   0.04   0.02     0.00   0.13   0.06    -0.01  -0.12  -0.06

 -------------------
 - Thermochemistry -
 -------------------
 Temperature   298.150 Kelvin.  Pressure   1.00000 Atm.
 Atom     1 has atomic number  6 and mass  12.00000
 Atom     2 has atomic number  1 and mass   1.00783
 Atom     3 has atomic number  1 and mass   1.00783
 Atom     4 has atomic number  6 and mass  12.00000
 Atom     5 has atomic number  1 and mass   1.00783
 Atom     6 has atomic number  1 and mass   1.00783
 Atom     7 has atomic number  7 and mass  14.00307
 Atom     8 has atomic number  6 and mass  12.00000
 Atom     9 has atomic number  1 and mass   1.00783
 Atom    10 has atomic number  1 and mass   1.00783
 Atom    11 has atomic number  1 and mass   1.00783
 Atom    12 has atomic number  6 and mass  12.00000
 Atom    13 has atomic number  1 and mass   1.00783
 Atom    14 has atomic number  1 and mass   1.00783
 Atom    15 has atomic number  1 and mass   1.00783
 Atom    16 has atomic number  6 and mass  12.00000
 Atom    17 has atomic number  1 and mass   1.00783
 Atom    18 has atomic number  1 and mass   1.00783
 Atom    19 has atomic number  1 and mass   1.00783
 Molecular mass:    87.10480 amu.
 Principal axes and moments of inertia in atomic units:
                           1         2         3
     Eigenvalues --   309.74548 847.36114 923.84485
           X            0.99997   0.00252  -0.00741
           Y           -0.00244   0.99994   0.01032
           Z            0.00744  -0.01030   0.99992
 This molecule is an asymmetric top.
 Rotational symmetry number  1.
 Rotational temperatures (Kelvin)      0.27963     0.10222     0.09375
 Rotational constants (GHZ):           5.82653     2.12984     1.95351
 Zero-point vibrational energy     468959.3 (Joules/Mol)
                                  112.08397 (Kcal/Mol)
 Warning -- explicit consideration of  10 degrees of freedom as
           vibrations may cause significant error
 Vibrational temperatures:    100.87   194.29   296.25   350.74   375.64
          (Kelvin)            453.76   508.72   570.12   640.30   769.36
                             1101.17  1233.40  1298.63  1347.66  1478.95
                             1549.30  1591.88  1601.45  1617.55  1639.19
                             1720.90  1806.45  1880.02  1913.24  1917.93
                             1998.40  2045.06  2058.30  2089.33  2131.48
                             2146.28  2153.22  2160.13  2167.22  2174.80
                             2180.07  2186.17  2194.07  4193.20  4216.14
                             4226.94  4390.21  4395.94  4407.14  4432.89
                             4443.09  4449.31  4488.46  4498.76  4510.24
                             4511.07
 
 Zero-point correction=                           0.178617 (Hartree/Particle)
 Thermal correction to Energy=                    0.186507
 Thermal correction to Enthalpy=                  0.187451
 Thermal correction to Gibbs Free Energy=         0.147048
 Sum of electronic and zero-point Energies=           -252.925721
 Sum of electronic and thermal Energies=              -252.917831
 Sum of electronic and thermal Enthalpies=            -252.916887
 Sum of electronic and thermal Free Energies=         -252.957290
 
                     E (Thermal)             CV                S
                      KCal/Mol        Cal/Mol-Kelvin    Cal/Mol-Kelvin
 Total                  117.035             28.197             85.035
 Electronic               0.000              0.000              0.000
 Translational            0.889              2.981             39.306
 Rotational               0.889              2.981             26.986
 Vibrational            115.257             22.236             18.743
 Vibration     1          0.598              1.968              4.150
 Vibration     2          0.613              1.918              2.873
 Vibration     3          0.640              1.831              2.080
 Vibration     4          0.659              1.773              1.775
 Vibration     5          0.669              1.744              1.655
 Vibration     6          0.703              1.644              1.334
 Vibration     7          0.730              1.568              1.150
 Vibration     8          0.763              1.478              0.977
 Vibration     9          0.804              1.372              0.811
 Vibration    10          0.890              1.173              0.577
                       Q            Log10(Q)             Ln(Q)
 Total Bot       0.230449D-67        -67.637425       -155.740927
 Total V=0       0.331663D+15         14.520697         33.435141
 Vib (Bot)       0.409144D-80        -80.388124       -185.100496
 Vib (Bot)    1  0.294174D+01          0.468604          1.079000
 Vib (Bot)    2  0.150777D+01          0.178336          0.410635
 Vib (Bot)    3  0.966175D+00         -0.014944         -0.034411
 Vib (Bot)    4  0.802941D+00         -0.095317         -0.219474
 Vib (Bot)    5  0.743540D+00         -0.128696         -0.296333
 Vib (Bot)    6  0.597683D+00         -0.223529         -0.514694
 Vib (Bot)    7  0.520597D+00         -0.283499         -0.652780
 Vib (Bot)    8  0.451030D+00         -0.345795         -0.796222
 Vib (Bot)    9  0.386884D+00         -0.412419         -0.949630
 Vib (Bot)   10  0.297763D+00         -0.526129         -1.211458
 Vib (V=0)       0.588841D+02          1.769998          4.075572
 Vib (V=0)    1  0.348393D+01          0.542069          1.248160
 Vib (V=0)    2  0.208852D+01          0.319838          0.736454
 Vib (V=0)    3  0.158788D+01          0.200819          0.462403
 Vib (V=0)    4  0.144589D+01          0.160136          0.368727
 Vib (V=0)    5  0.139602D+01          0.144892          0.333625
 Vib (V=0)    6  0.127925D+01          0.106954          0.246271
 Vib (V=0)    7  0.122182D+01          0.087006          0.200340
 Vib (V=0)    8  0.117337D+01          0.069435          0.159880
 Vib (V=0)    9  0.113220D+01          0.053924          0.124164
 Vib (V=0)   10  0.108195D+01          0.034206          0.078763
 Electronic      0.100000D+01          0.000000          0.000000
 Translational   0.319534D+08          7.504517         17.279789
 Rotational      0.176271D+06          5.246182         12.079780
 ***** Axes restored to original set *****
 -------------------------------------------------------------------
 Center     Atomic                   Forces (Hartrees/Bohr)
 Number     Number              X              Y              Z
 -------------------------------------------------------------------
      1        6          -0.000001882    0.000001539    0.000002910
      2        1          -0.000000362    0.000002895    0.000001846
      3        1           0.000001259    0.000003508    0.000000495
      4        6          -0.000003318    0.000002468   -0.000000569
      5        1           0.000000473   -0.000001801    0.000000105
      6        1           0.000002601    0.000001334    0.000000800
      7        7          -0.000000714   -0.000000324    0.000003864
      8        6           0.000001051   -0.000004251   -0.000010512
      9        1          -0.000001063    0.000000750   -0.000003425
     10        1          -0.000000635   -0.000000713   -0.000000435
     11        1           0.000002437    0.000000356   -0.000001224
     12        6           0.000000361    0.000004018    0.000005196
     13        1          -0.000000048   -0.000001821   -0.000001523
     14        1          -0.000001449    0.000000312   -0.000001517
     15        1           0.000001534    0.000000652    0.000001149
     16        6           0.000000194   -0.000005316   -0.000001172
     17        1           0.000000099   -0.000002219    0.000000348
     18        1           0.000000249   -0.000000670    0.000002340
     19        1          -0.000000787   -0.000000718    0.000001321
 -------------------------------------------------------------------
 Cartesian Forces:  Max     0.000010512 RMS     0.000002439
 FormGI is forming the generalized inverse of G from B-inverse, IUseBI=4.

 GradGradGradGradGradGradGradGradGradGradGradGradGradGradGradGradGradGrad
 Berny optimization.
 Internal  Forces:  Max     0.000013835 RMS     0.000002668
 Search for a local minimum.
 Step number   1 out of a maximum of    2
 All quantities printed in internal units (Hartrees-Bohrs-Radians)
 Second derivative matrix not updated -- analytic derivatives used.
 ITU=  0
     Eigenvalues ---    0.00213   0.00346   0.00370   0.00509   0.00611
     Eigenvalues ---    0.02218   0.03599   0.03940   0.04525   0.04532
     Eigenvalues ---    0.04605   0.04947   0.06190   0.06206   0.06271
     Eigenvalues ---    0.06305   0.07194   0.08735   0.10743   0.12285
     Eigenvalues ---    0.12706   0.12769   0.13457   0.14396   0.15754
     Eigenvalues ---    0.16024   0.16319   0.16816   0.17007   0.19620
     Eigenvalues ---    0.20465   0.21745   0.25537   0.29335   0.30356
     Eigenvalues ---    0.30416   0.30632   0.31330   0.33191   0.33296
     Eigenvalues ---    0.33765   0.33933   0.34006   0.34150   0.34211
     Eigenvalues ---    0.34259   0.34505   0.34869   0.37352   0.37949
     Eigenvalues ---    0.39216
 Angle between quadratic step and forces=  76.06 degrees.
 Linear search not attempted -- first point.
 Iteration  1 RMS(Cart)=  0.00023488 RMS(Int)=  0.00000002
 Iteration  2 RMS(Cart)=  0.00000002 RMS(Int)=  0.00000000
 Variable       Old X    -DE/DX   Delta X   Delta X   Delta X     New X
                                 (Linear)    (Quad)   (Total)
    R1        2.06399   0.00000   0.00000   0.00000   0.00000   2.06399
    R2        2.06418  -0.00000   0.00000  -0.00000  -0.00000   2.06418
    R3        2.88291   0.00000   0.00000   0.00001   0.00001   2.88292
    R4        2.88003  -0.00001   0.00000  -0.00002  -0.00002   2.88001
    R5        2.06550   0.00000   0.00000  -0.00000  -0.00000   2.06550
    R6        2.08907  -0.00000   0.00000  -0.00001  -0.00001   2.08906
    R7        2.74976  -0.00000   0.00000  -0.00001  -0.00001   2.74975
    R8        2.73776  -0.00001   0.00000  -0.00003  -0.00003   2.73773
    R9        2.73713  -0.00000   0.00000  -0.00001  -0.00001   2.73712
   R10        2.05949   0.00000   0.00000   0.00000   0.00000   2.05949
   R11        2.08635   0.00000   0.00000   0.00000   0.00000   2.08635
   R12        2.05805   0.00000   0.00000   0.00000   0.00000   2.05806
   R13        2.08604   0.00000   0.00000   0.00001   0.00001   2.08605
   R14        2.06024   0.00000   0.00000   0.00000   0.00000   2.06024
   R15        2.06013  -0.00000   0.00000  -0.00000  -0.00000   2.06012
   R16        2.05873  -0.00000   0.00000  -0.00000  -0.00000   2.05873
   R17        2.06030   0.00000   0.00000   0.00000   0.00000   2.06030
   R18        2.06295  -0.00000   0.00000  -0.00000  -0.00000   2.06295
    A1        1.84493   0.00000   0.00000   0.00002   0.00002   1.84494
    A2        1.92349   0.00000   0.00000   0.00002   0.00002   1.92351
    A3        1.91970  -0.00000   0.00000  -0.00002  -0.00002   1.91969
    A4        1.87367   0.00000   0.00000   0.00003   0.00003   1.87369
    A5        1.91913  -0.00000   0.00000  -0.00002  -0.00002   1.91911
    A6        1.97772  -0.00000   0.00000  -0.00002  -0.00002   1.97770
    A7        1.89308   0.00000   0.00000   0.00000   0.00000   1.89308
    A8        1.90553  -0.00000   0.00000  -0.00000  -0.00000   1.90553
    A9        1.99311  -0.00001   0.00000  -0.00003  -0.00003   1.99308
   A10        1.86283  -0.00000   0.00000  -0.00001  -0.00001   1.86282
   A11        1.87065   0.00000   0.00000   0.00002   0.00002   1.87067
   A12        1.93349   0.00000   0.00000   0.00002   0.00002   1.93351
   A13        1.96207  -0.00000   0.00000  -0.00002  -0.00002   1.96205
   A14        1.93294   0.00001   0.00000   0.00005   0.00005   1.93299
   A15        1.93300  -0.00000   0.00000  -0.00001  -0.00001   1.93299
   A16        1.91154  -0.00000   0.00000  -0.00001  -0.00001   1.91153
   A17        1.96351   0.00000   0.00000   0.00000   0.00000   1.96351
   A18        1.93198  -0.00000   0.00000  -0.00001  -0.00001   1.93196
   A19        1.88719   0.00000   0.00000   0.00001   0.00001   1.88720
   A20        1.87870   0.00000   0.00000   0.00001   0.00001   1.87871
   A21        1.88844   0.00000   0.00000  -0.00000  -0.00000   1.88844
   A22        1.96608   0.00000   0.00000   0.00001   0.00001   1.96610
   A23        1.91812   0.00000   0.00000   0.00001   0.00001   1.91812
   A24        1.91823  -0.00000   0.00000  -0.00001  -0.00001   1.91822
   A25        1.88594  -0.00000   0.00000  -0.00000  -0.00000   1.88594
   A26        1.88669   0.00000   0.00000  -0.00000  -0.00000   1.88669
   A27        1.88673   0.00000   0.00000  -0.00000  -0.00000   1.88672
   A28        1.93677  -0.00000   0.00000  -0.00002  -0.00002   1.93674
   A29        1.93934  -0.00000   0.00000  -0.00000  -0.00000   1.93934
   A30        1.93402  -0.00000   0.00000   0.00000   0.00000   1.93402
   A31        1.89358   0.00000   0.00000   0.00001   0.00001   1.89358
   A32        1.87305   0.00000   0.00000   0.00000   0.00000   1.87305
   A33        1.88485   0.00000   0.00000   0.00001   0.00001   1.88486
    D1       -3.00879  -0.00000   0.00000  -0.00009  -0.00009  -3.00889
    D2       -0.98517  -0.00000   0.00000  -0.00010  -0.00010  -0.98527
    D3        1.18984  -0.00000   0.00000  -0.00010  -0.00010   1.18974
    D4       -1.00759   0.00000   0.00000  -0.00005  -0.00005  -1.00764
    D5        1.01603   0.00000   0.00000  -0.00006  -0.00006   1.01598
    D6       -3.09214   0.00000   0.00000  -0.00006  -0.00006  -3.09220
    D7        1.11485  -0.00000   0.00000  -0.00007  -0.00007   1.11477
    D8        3.13847  -0.00000   0.00000  -0.00008  -0.00008   3.13839
    D9       -0.96971  -0.00000   0.00000  -0.00008  -0.00008  -0.96979
   D10       -1.09031  -0.00000   0.00000   0.00001   0.00001  -1.09030
   D11        1.01817  -0.00000   0.00000   0.00000   0.00000   1.01817
   D12        3.11378   0.00000   0.00000   0.00002   0.00002   3.11380
   D13       -3.11513   0.00000   0.00000   0.00001   0.00001  -3.11512
   D14       -1.00665   0.00000   0.00000   0.00000   0.00000  -1.00664
   D15        1.08896   0.00000   0.00000   0.00002   0.00002   1.08898
   D16        1.07131   0.00000   0.00000   0.00001   0.00001   1.07131
   D17       -3.10340  -0.00000   0.00000   0.00000   0.00000  -3.10340
   D18       -1.00779   0.00000   0.00000   0.00002   0.00002  -1.00777
   D19       -1.12796  -0.00000   0.00000  -0.00026  -0.00026  -1.12822
   D20        2.98256   0.00000   0.00000  -0.00027  -0.00027   2.98229
   D21        3.05808  -0.00000   0.00000  -0.00026  -0.00026   3.05782
   D22        0.88541   0.00000   0.00000  -0.00027  -0.00027   0.88514
   D23        1.03209  -0.00000   0.00000  -0.00028  -0.00028   1.03182
   D24       -1.14058  -0.00000   0.00000  -0.00029  -0.00029  -1.14086
   D25       -3.12349  -0.00000   0.00000  -0.00015  -0.00015  -3.12364
   D26       -1.02423  -0.00000   0.00000  -0.00014  -0.00014  -1.02438
   D27        1.09090  -0.00000   0.00000  -0.00015  -0.00015   1.09075
   D28       -0.95085   0.00000   0.00000  -0.00011  -0.00011  -0.95096
   D29        1.14840   0.00000   0.00000  -0.00010  -0.00010   1.14830
   D30       -3.01964   0.00000   0.00000  -0.00011  -0.00011  -3.01975
   D31        1.09391  -0.00000   0.00000  -0.00005  -0.00005   1.09386
   D32       -3.08536  -0.00000   0.00000  -0.00004  -0.00004  -3.08540
   D33       -1.01103  -0.00000   0.00000  -0.00005  -0.00005  -1.01108
   D34       -1.09521   0.00000   0.00000  -0.00005  -0.00005  -1.09526
   D35        1.00871   0.00000   0.00000  -0.00005  -0.00005   1.00866
   D36        3.08303   0.00000   0.00000  -0.00005  -0.00005   3.08298
         Item               Value     Threshold  Converged?
 Maximum Force            0.000014     0.000450     YES
 RMS     Force            0.000003     0.000300     YES
 Maximum Displacement     0.000869     0.001800     YES
 RMS     Displacement     0.000235     0.001200     YES
 Predicted change in Energy=-2.383174D-09
 Optimization completed.
    -- Stationary point found.
                           ----------------------------
                           !   Optimized Parameters   !
                           ! (Angstroms and Degrees)  !
 --------------------------                            --------------------------
 ! Name  Definition              Value          Derivative Info.                !
 --------------------------------------------------------------------------------
 ! R1    R(1,2)                  1.0922         -DE/DX =    0.0                 !
 ! R2    R(1,3)                  1.0923         -DE/DX =    0.0                 !
 ! R3    R(1,4)                  1.5256         -DE/DX =    0.0                 !
 ! R4    R(1,16)                 1.524          -DE/DX =    0.0                 !
 ! R5    R(4,5)                  1.093          -DE/DX =    0.0                 !
 ! R6    R(4,6)                  1.1055         -DE/DX =    0.0                 !
 ! R7    R(4,7)                  1.4551         -DE/DX =    0.0                 !
 ! R8    R(7,8)                  1.4488         -DE/DX =    0.0                 !
 ! R9    R(7,12)                 1.4484         -DE/DX =    0.0                 !
 ! R10   R(8,9)                  1.0898         -DE/DX =    0.0                 !
 ! R11   R(8,10)                 1.104          -DE/DX =    0.0                 !
 ! R12   R(8,11)                 1.0891         -DE/DX =    0.0                 !
 ! R13   R(12,13)                1.1039         -DE/DX =    0.0                 !
 ! R14   R(12,14)                1.0902         -DE/DX =    0.0                 !
 ! R15   R(12,15)                1.0902         -DE/DX =    0.0                 !
 ! R16   R(16,17)                1.0894         -DE/DX =    0.0                 !
 ! R17   R(16,18)                1.0903         -DE/DX =    0.0                 !
 ! R18   R(16,19)                1.0917         -DE/DX =    0.0                 !
 ! A1    A(2,1,3)              105.7066         -DE/DX =    0.0                 !
 ! A2    A(2,1,4)              110.2078         -DE/DX =    0.0                 !
 ! A3    A(2,1,16)             109.9909         -DE/DX =    0.0                 !
 ! A4    A(3,1,4)              107.3531         -DE/DX =    0.0                 !
 ! A5    A(3,1,16)             109.9582         -DE/DX =    0.0                 !
 ! A6    A(4,1,16)             113.3149         -DE/DX =    0.0                 !
 ! A7    A(1,4,5)              108.4654         -DE/DX =    0.0                 !
 ! A8    A(1,4,6)              109.1789         -DE/DX =    0.0                 !
 ! A9    A(1,4,7)              114.1965         -DE/DX =    0.0                 !
 ! A10   A(5,4,6)              106.7321         -DE/DX =    0.0                 !
 ! A11   A(5,4,7)              107.1802         -DE/DX =    0.0                 !
 ! A12   A(6,4,7)              110.7808         -DE/DX =    0.0                 !
 ! A13   A(4,7,8)              112.4183         -DE/DX =    0.0                 !
 ! A14   A(4,7,12)             110.7494         -DE/DX =    0.0                 !
 ! A15   A(8,7,12)             110.7529         -DE/DX =    0.0                 !
 ! A16   A(7,8,9)              109.5233         -DE/DX =    0.0                 !
 ! A17   A(7,8,10)             112.5007         -DE/DX =    0.0                 !
 ! A18   A(7,8,11)             110.6941         -DE/DX =    0.0                 !
 ! A19   A(9,8,10)             108.1282         -DE/DX =    0.0                 !
 ! A20   A(9,8,11)             107.6415         -DE/DX =    0.0                 !
 ! A21   A(10,8,11)            108.1996         -DE/DX =    0.0                 !
 ! A22   A(7,12,13)            112.6482         -DE/DX =    0.0                 !
 ! A23   A(7,12,14)            109.8999         -DE/DX =    0.0                 !
 ! A24   A(7,12,15)            109.9066         -DE/DX =    0.0                 !
 ! A25   A(13,12,14)           108.0566         -DE/DX =    0.0                 !
 ! A26   A(13,12,15)           108.0992         -DE/DX =    0.0                 !
 ! A27   A(14,12,15)           108.1014         -DE/DX =    0.0                 !
 ! A28   A(1,16,17)            110.9685         -DE/DX =    0.0                 !
 ! A29   A(1,16,18)            111.1158         -DE/DX =    0.0                 !
 ! A30   A(1,16,19)            110.8112         -DE/DX =    0.0                 !
 ! A31   A(17,16,18)           108.4939         -DE/DX =    0.0                 !
 ! A32   A(17,16,19)           107.3176         -DE/DX =    0.0                 !
 ! A33   A(18,16,19)           107.994          -DE/DX =    0.0                 !
 ! D1    D(2,1,4,5)           -172.3911         -DE/DX =    0.0                 !
 ! D2    D(2,1,4,6)            -56.4462         -DE/DX =    0.0                 !
 ! D3    D(2,1,4,7)             68.1728         -DE/DX =    0.0                 !
 ! D4    D(3,1,4,5)            -57.7305         -DE/DX =    0.0                 !
 ! D5    D(3,1,4,6)             58.2145         -DE/DX =    0.0                 !
 ! D6    D(3,1,4,7)           -177.1665         -DE/DX =    0.0                 !
 ! D7    D(16,1,4,5)            63.876          -DE/DX =    0.0                 !
 ! D8    D(16,1,4,6)           179.821          -DE/DX =    0.0                 !
 ! D9    D(16,1,4,7)           -55.56           -DE/DX =    0.0                 !
 ! D10   D(2,1,16,17)          -62.4702         -DE/DX =    0.0                 !
 ! D11   D(2,1,16,18)           58.337          -DE/DX =    0.0                 !
 ! D12   D(2,1,16,19)          178.4065         -DE/DX =    0.0                 !
 ! D13   D(3,1,16,17)         -178.4837         -DE/DX =    0.0                 !
 ! D14   D(3,1,16,18)          -57.6765         -DE/DX =    0.0                 !
 ! D15   D(3,1,16,19)           62.393          -DE/DX =    0.0                 !
 ! D16   D(4,1,16,17)           61.3813         -DE/DX =    0.0                 !
 ! D17   D(4,1,16,18)         -177.8116         -DE/DX =    0.0                 !
 ! D18   D(4,1,16,19)          -57.742          -DE/DX =    0.0                 !
 ! D19   D(1,4,7,8)            -64.6271         -DE/DX =    0.0                 !
 ! D20   D(1,4,7,12)           170.8881         -DE/DX =    0.0                 !
 ! D21   D(5,4,7,8)            175.2152         -DE/DX =    0.0                 !
 ! D22   D(5,4,7,12)            50.7304         -DE/DX =    0.0                 !
 ! D23   D(6,4,7,8)             59.1346         -DE/DX =    0.0                 !
 ! D24   D(6,4,7,12)           -65.3503         -DE/DX =    0.0                 !
 ! D25   D(4,7,8,9)           -178.9627         -DE/DX =    0.0                 !
 ! D26   D(4,7,8,10)           -58.6843         -DE/DX =    0.0                 !
 ! D27   D(4,7,8,11)            62.5042         -DE/DX =    0.0                 !
 ! D28   D(12,7,8,9)           -54.4798         -DE/DX =    0.0                 !
 ! D29   D(12,7,8,10)           65.7986         -DE/DX =    0.0                 !
 ! D30   D(12,7,8,11)         -173.0129         -DE/DX =    0.0                 !
 ! D31   D(4,7,12,13)           62.6765         -DE/DX =    0.0                 !
 ! D32   D(4,7,12,14)         -176.7778         -DE/DX =    0.0                 !
 ! D33   D(4,7,12,15)          -57.928          -DE/DX =    0.0                 !
 ! D34   D(8,7,12,13)          -62.7509         -DE/DX =    0.0                 !
 ! D35   D(8,7,12,14)           57.7948         -DE/DX =    0.0                 !
 ! D36   D(8,7,12,15)          176.6446         -DE/DX =    0.0                 !
 --------------------------------------------------------------------------------
 GradGradGradGradGradGradGradGradGradGradGradGradGradGradGradGradGradGrad


 ----------------------------------------------------------------------

 Electric dipole moment (input orientation):
 (Debye = 10**-18 statcoulomb cm , SI units = C m)
                  (au)            (Debye)         (10**-30 SI)
   Tot        0.231932D+00      0.589513D+00      0.196640D+01
   x         -0.289617D-01     -0.736133D-01     -0.245548D+00
   y         -0.224967D+00     -0.571809D+00     -0.190735D+01
   z          0.484105D-01      0.123047D+00      0.410442D+00

 Dipole polarizability, Alpha (input orientation).
 (esu units = cm**3 , SI units = C**2 m**2 J**-1)
 Alpha(0;0):
               (au)            (10**-24 esu)      (10**-40 SI)
   iso        0.724320D+02      0.107333D+02      0.119424D+02
   aniso      0.109357D+02      0.162050D+01      0.180305D+01
   xx         0.777745D+02      0.115250D+02      0.128233D+02
   yx         0.402628D+01      0.596633D+00      0.663844D+00
   yy         0.700400D+02      0.103789D+02      0.115480D+02
   zx         0.119247D+01      0.176705D+00      0.196611D+00
   zy         0.863126D+00      0.127902D+00      0.142310D+00
   zz         0.694813D+02      0.102961D+02      0.114559D+02

 ----------------------------------------------------------------------

 Dipole orientation:
     6          1.57744706         -0.16080720          1.71281655
     1          1.67551498          1.76420235          2.45090647
     1          3.28774889         -1.10346402          2.38149081
     6         -0.67401869         -1.55208308          2.85580706
     1         -0.57511309         -3.53520112          2.28681632
     1         -0.51797974         -1.51550203          4.93871617
     7         -3.12068043         -0.59517472          2.04381044
     6         -3.56612592          1.97406268          2.87803468
     1         -5.43041752          2.58705300          2.25342187
     1         -3.48153334          2.16552269          4.95385716
     1         -2.18071619          3.25572159          2.05731657
     6         -5.13488695         -2.24929620          2.87972038
     1         -5.26357043         -2.37144906          4.95820381
     1         -6.94362509         -1.56743579          2.16690387
     1         -4.83248600         -4.14982284          2.14441400
     6          1.54431827         -0.11077533         -1.16659194
     1         -0.12572599          0.86820286         -1.86725357
     1          3.21657595          0.83423900         -1.91180623
     1          1.50005467         -2.02578400         -1.93246076

 Electric dipole moment (dipole orientation):
 (Debye = 10**-18 statcoulomb cm , SI units = C m)
                  (au)            (Debye)         (10**-30 SI)
   Tot        0.231932D+00      0.589513D+00      0.196640D+01
   x          0.000000D+00      0.000000D+00      0.000000D+00
   y          0.000000D+00      0.000000D+00      0.000000D+00
   z          0.231932D+00      0.589513D+00      0.196640D+01

 Dipole polarizability, Alpha (dipole orientation).
 (esu units = cm**3 , SI units = C**2 m**2 J**-1)
 Alpha(0;0):
               (au)            (10**-24 esu)      (10**-40 SI)
   iso        0.724320D+02      0.107333D+02      0.119424D+02
   aniso      0.109357D+02      0.162050D+01      0.180305D+01
   xx         0.770434D+02      0.114167D+02      0.127027D+02
   yx         0.115534D+01      0.171204D+00      0.190490D+00
   yy         0.695525D+02      0.103066D+02      0.114677D+02
   zx        -0.466803D+01     -0.691731D+00     -0.769654D+00
   zy        -0.677935D+00     -0.100460D+00     -0.111776D+00
   zz         0.707000D+02      0.104767D+02      0.116569D+02

 ----------------------------------------------------------------------
 1\1\GINC-CCLEARMO\Freq\RwB97XD\6-311+G(2d,2p)\C5H13N1\TROUPPER\03-Oct-
 2026\0\\#N Geom=AllCheck Guess=TCheck SCRF=Check GenChk RwB97XD/6-311+
 G(2d,2p) Freq\\opt freq\\0,1\C,0.7193261874,-0.9816701924,0.2108831285
 \H,0.6197029212,-1.1399559003,1.2869676802\H,1.618504023,-1.5261375005
 ,-0.0860962407\C,-0.458481663,-1.6121321138,-0.5257661592\H,-0.2640617
 728,-1.5579023845,-1.599983505\H,-0.5165512163,-2.6852432686,-0.266613
 8512\N,-1.7335827012,-0.953381397,-0.2859601826\C,-2.1576242791,-1.056
 6356425,1.0955007065\H,-3.1226692204,-0.5652822186,1.217958255\H,-2.26
 07583242,-2.1041565492,1.4286462889\H,-1.447684256,-0.5585233519,1.754
 2531066\C,-2.7532285937,-1.4696309261,-1.1757645994\H,-2.9513135356,-2
 .5439889086,-1.0173911572\H,-3.6870786675,-0.9278725322,-1.0240285181\
 H,-2.4459023148,-1.3311381243,-2.2125123383\C,0.8896371463,0.503913055
 1,-0.0836664658\H,0.0116755788,1.0669240771,0.2310831988\H,1.762274296
 9,0.9085780209,0.4295854656\H,1.0186704311,0.6747771172,-1.1541306526\
 \Version=EM64M-G16RevA.03\State=1-A\HF=-253.104338\RMSD=2.055e-09\RMSF
 =2.439e-06\ZeroPoint=0.1786172\Thermal=0.1865069\Dipole=-0.0289617,-0.
 2249671,0.0484105\DipoleDeriv=0.0403418,-0.0106968,-0.0415926,-0.00450
 1,0.1059631,-0.0119866,-0.0514043,-0.0048097,0.1075892,0.0574864,-0.03
 03026,0.0338987,-0.0411425,-0.0110289,0.0288802,-0.0036254,0.042017,-0
 .1583465,-0.1233013,0.0774423,0.0247055,0.0708509,-0.0472153,-0.023257
 4,0.06284,-0.0398339,0.0491238,0.5248347,-0.0734599,-0.0641011,-0.1109
 421,0.4329252,-0.0393256,-0.0839259,-0.0393674,0.1457617,0.0056326,0.0
 00672,0.0252245,0.0142622,0.0478562,0.0336535,0.044754,-0.0107982,-0.1
 622243,-0.0656253,-0.1031182,0.0141119,0.0583679,-0.2698818,0.0168637,
 -0.0151054,0.084963,0.0241547,-0.7168761,-0.0550635,-0.0156094,-0.0314
 826,-0.7010825,0.0134639,-0.0123407,-0.0006743,-0.6002604,0.130604,0.0
 295333,-0.1240293,0.0550377,0.3872825,-0.1048098,-0.1341388,-0.0925399
 ,0.4345552,-0.1163328,0.0791632,0.0722418,0.0867457,0.0214355,-0.00283
 88,-0.0011281,0.0125543,0.0472632,0.0333081,0.0081015,0.029264,-0.0656
 47,-0.2195588,0.1707723,0.0313362,-0.0090358,-0.0502026,0.0011998,-0.0
 725005,-0.1151718,-0.070975,0.0076931,-0.0458832,-0.0676552,-0.0436081
 ,-0.045532,0.3317363,0.1229086,0.1681836,0.1456664,0.4390226,0.0380886
 ,0.2035259,0.0416505,0.2795591,-0.0135465,-0.0006194,-0.0538863,-0.148
 5215,-0.2449489,-0.0442255,-0.0127012,0.0945103,0.0038605,-0.130057,0.
 0538038,-0.0247888,0.0985201,-0.0018163,-0.0228942,0.0438841,-0.036045
 4,0.0617456,0.0411062,-0.0194183,0.0858003,-0.0352108,0.0503205,0.0197
 284,0.009615,0.0091102,-0.1408139,0.0628854,-0.0053616,0.0000068,-0.00
 24101,-0.015766,0.0078199,-0.0112481,-0.0040243,0.0946995,-0.0324024,0
 .1132546,0.0549867,0.0672256,-0.0001935,-0.0105816,0.0536622,-0.023044
 6,0.0375182,-0.0975158,-0.1076174,-0.0809001,-0.0802411,-0.004825,-0.0
 245773,-0.0974581,-0.0462175,0.0198652,0.0665219,-0.0067209,0.0116558,
 -0.0056029,0.0238181,0.0011096,0.0411138,0.0651938,-0.1483163\Polar=77
 .7745246,4.0262823,70.0400413,1.1924662,0.8631258,69.481317\Quadrupole
 =0.8364462,-1.5442809,0.7078347,-0.1210326,-0.1639718,0.5473578\PG=C01
  [X(C5H13N1)]\NImag=0\\0.53235624,-0.04625459,0.49880045,-0.03256933,0
 .00077199,0.57732941,-0.05159459,-0.00344697,0.02600698,0.05626895,-0.
 00326088,-0.05343460,0.03505379,0.00624859,0.06077583,0.02461813,0.035
 14910,-0.29874691,-0.02794264,-0.03779771,0.32668742,-0.22489412,0.104
 39977,0.05986298,-0.00291219,0.00104353,0.00138888,0.24579306,0.105160
 85,-0.10923549,-0.03580325,-0.00390899,0.00170466,0.00082057,-0.112919
 81,0.12309231,0.06191988,-0.03641432,-0.06930010,0.02746227,-0.0159357
 8,-0.00947274,-0.06438146,0.03961763,0.07301406,-0.13876773,-0.0380652
 6,-0.04347035,0.00341861,0.00217637,0.00225431,-0.02132631,-0.01177647
 ,-0.01521387,0.49080767,-0.03385230,-0.10365686,-0.02487465,0.00318120
 ,0.00087554,0.00149903,0.01483854,0.00628491,0.00892000,0.01548504,0.5
 2629477,-0.04050051,-0.02794975,-0.11450602,-0.02793467,-0.01549977,-0
 .01703930,0.00942546,0.00438980,0.00382346,-0.01526573,-0.01950223,0.6
 0570650,0.00259302,0.00100809,-0.02738835,-0.00366126,-0.00295737,-0.0
 0277293,0.00078367,0.00044439,0.00015809,-0.05375575,-0.00228405,0.037
 50296,0.07131441,0.00173559,0.00049472,-0.01442987,-0.00201653,-0.0004
 8250,-0.00172857,0.00056242,0.00041112,0.00069571,-0.00404237,-0.05196
 595,0.02109204,-0.00035972,0.05322667,0.00094431,0.00138537,-0.0172815
 4,-0.00281530,-0.00137417,-0.00003047,-0.00053652,0.00024574,0.0004771
 0,0.04525209,0.01593068,-0.29552994,-0.04684046,-0.01538185,0.32333358
 ,-0.00155215,-0.02524400,0.00737963,0.00089423,0.00062687,-0.00028162,
 0.00029280,0.00032664,0.00069407,-0.05129064,-0.01888014,0.00564870,0.
 00000643,-0.00510278,0.00085928,0.06172802,-0.00163694,-0.01362118,0.0
 0503753,0.00054734,0.00023949,-0.00054946,-0.00076884,0.00027288,0.000
 15817,-0.02329928,-0.25204452,0.05446910,-0.00108829,-0.00224132,0.001
 26343,0.01296196,0.28713491,-0.00282572,-0.01783429,0.00348488,0.00088
 904,-0.00000453,0.00064726,0.00057408,0.00062469,0.00041281,0.00655190
 ,0.05510234,-0.06798938,0.00287359,0.03055197,-0.00764479,-0.00380859,
 -0.05902379,0.06603835,-0.03127880,0.01237641,0.00461611,0.00116954,0.
 00032835,0.00013578,-0.00305231,-0.00219155,-0.00291533,-0.17721770,0.
 08037088,0.01231182,-0.01168113,0.00639088,0.00363772,-0.01209034,0.01
 563518,-0.00025633,0.54664765,-0.00861563,0.00868233,0.00441077,0.0003
 4409,0.00015540,-0.00016814,-0.00361058,-0.00071205,-0.00169996,0.0357
 6547,-0.09983500,-0.01232356,0.00119041,-0.00090909,-0.00127778,0.0365
 4697,-0.02416422,-0.00643498,-0.02731899,0.27130877,-0.01636355,0.0116
 8571,0.00511370,0.00043800,0.00072799,0.00031298,-0.00390602,-0.001661
 94,-0.00203337,0.01436565,-0.02491427,-0.10299528,0.03245600,-0.019708
 35,-0.00866281,-0.00521944,0.00108481,0.00268504,0.01042398,0.06473577
 ,0.54877009,-0.00118330,0.00058953,0.00059573,-0.00142374,0.00015866,0
 .00083853,0.00042149,-0.00011410,0.00019943,-0.01507746,-0.00247352,0.
 03900298,-0.00601810,0.00252093,0.00122460,0.00192629,-0.00119266,-0.0
 0076328,-0.11110569,0.00603010,0.03751783,0.60706784,0.00056431,0.0001
 1138,0.00084565,0.00013992,0.00065627,-0.00070948,0.00015869,-0.000010
 66,-0.00063729,0.01027269,-0.00692800,-0.01776558,0.00275617,-0.000473
 98,-0.00089670,0.00235207,0.00155933,-0.00370888,-0.00806806,-0.064306
 20,0.03292094,-0.01242247,0.54447503,0.00051873,0.00004184,0.00250045,
 -0.00018157,0.00028513,-0.00108865,-0.00077189,-0.00027514,-0.00083619
 ,0.01470064,0.00261271,-0.01178388,-0.00043545,0.00052898,0.00187551,-
 0.00469388,0.00257483,0.00213190,0.02948312,-0.01208541,-0.21656471,0.
 03839077,0.03574538,0.51084252,0.00022188,0.00027486,-0.00006442,0.000
 17965,-0.00009291,0.00029361,-0.00010498,-0.00003872,0.00012324,0.0014
 0956,-0.00085117,0.00171964,-0.00049534,0.00036315,0.00029964,0.000027
 59,0.00014118,-0.00011619,-0.01145282,0.00341235,0.00343490,-0.2563749
 9,0.10725575,0.02213851,0.27860598,-0.00019627,0.00011605,-0.00000979,
 0.00000690,-0.00013810,0.00016551,-0.00004703,-0.00000724,0.00010489,-
 0.00041844,0.00056469,-0.00016564,0.00012225,0.00042547,-0.00006000,-0
 .00045632,0.00053397,0.00025499,-0.00400901,0.00155932,-0.00040993,0.1
 0927379,-0.10454610,-0.01140864,-0.11790555,0.10773255,-0.00071259,0.0
 0012270,-0.00041748,0.00011766,-0.00001129,0.00060706,-0.00003501,0.00
 000768,0.00027480,-0.00028437,0.00037418,-0.00703731,0.00187989,-0.000
 82554,-0.00043123,-0.00002029,-0.00020080,-0.00003703,0.03432370,-0.01
 528702,-0.00850913,0.01401846,-0.00759684,-0.04991987,-0.02725380,0.01
 132375,0.06096579,-0.00008278,0.00009481,-0.00001683,0.00000148,-0.000
 10256,-0.00019060,-0.00004230,0.00002679,-0.00004076,0.00200560,-0.004
 01102,0.00039701,0.00006650,0.00034410,-0.00018093,0.00039667,0.000988
 33,-0.00066420,-0.00197645,-0.01019956,0.00893766,-0.05319593,-0.01696
 522,0.00331107,0.00351920,0.02757340,-0.00762361,0.04994760,-0.0001254
 7,-0.00014082,0.00031623,-0.00014520,-0.00026481,-0.00014517,-0.000095
 69,0.00001770,0.00002126,0.00151313,0.00268726,-0.00113316,-0.00012897
 ,0.00029711,0.00004228,-0.00215870,0.00044348,0.00113636,-0.00410481,-
 0.00149440,0.01241465,-0.01585877,-0.25935867,0.05087322,-0.00180001,-
 0.01392100,0.00269539,0.02170295,0.28366731,0.00027903,-0.00031526,-0.
 00014969,0.00012141,-0.00000158,0.00001825,0.00012646,0.00005104,0.000
 13994,-0.00431172,0.00369186,0.00112331,-0.00020206,-0.00054216,0.0002
 0619,0.00017075,-0.00208101,0.00075296,0.00864160,0.03361736,-0.027042
 35,0.00343401,0.05390446,-0.06398261,-0.00098183,-0.00213813,0.0010582
 9,-0.00949682,-0.06992884,0.07824507,-0.00179925,0.00024427,0.00082372
 ,-0.00230195,0.00050955,0.00095738,0.00014400,-0.00002580,0.00013361,0
 .00032978,0.00077959,-0.00039951,0.00013625,-0.00019148,-0.00012476,-0
 .00013124,-0.00010418,0.00008327,0.00947494,0.00628590,0.00702606,-0.1
 6884189,-0.08426869,-0.10617967,-0.01723132,-0.01417968,-0.01593654,-0
 .00118343,0.00007280,-0.00051709,0.18056061,-0.00045672,0.00058198,-0.
 00071957,0.00064929,0.00005802,0.00055905,-0.00009705,-0.00013808,0.00
 037952,-0.00085158,0.00007943,-0.00065420,0.00009640,-0.00003617,0.000
 09452,-0.00020405,-0.00015195,0.00010463,0.00468919,0.00201487,0.00193
 317,-0.08349011,-0.10671356,-0.07384874,0.00987749,0.00752543,0.009986
 25,-0.02142756,-0.01451937,-0.01761483,0.09065371,0.10978723,0.0002138
 1,-0.00000850,-0.00013151,0.00055234,-0.00016782,0.00075122,-0.0001132
 3,0.00007966,0.00041620,-0.00209105,-0.00024660,0.00020011,-0.00011373
 ,0.00010461,0.00008888,0.00035427,-0.00016823,-0.00001274,-0.02347901,
 -0.01288136,-0.02561205,-0.09867734,-0.06990800,-0.13713063,0.00194904
 ,0.00234375,0.00252418,0.00572985,0.00330889,0.00605722,0.11246410,0.0
 7816432,0.15944770,-0.00350807,0.00345739,0.00155170,-0.00016068,0.000
 11261,-0.00019520,-0.00104718,-0.00054507,-0.00075166,-0.04098624,-0.0
 1465663,-0.02152634,0.00025390,-0.00072868,-0.00232677,0.00364227,-0.0
 0184517,0.00029362,-0.16366304,-0.01979142,-0.06152306,0.00768274,-0.0
 0088560,0.00151442,0.00081070,0.00049743,0.00277963,0.00000944,-0.0005
 6106,0.00371173,-0.00039939,0.00056666,0.00426141,0.56215789,0.0017800
 0,-0.00192042,-0.00094897,-0.00009867,0.00004580,0.00015068,0.00078155
 ,0.00049810,0.00024143,0.01584613,-0.00131269,0.01237306,0.00001369,0.
 00042119,0.00012024,0.00469515,0.00065912,0.00089850,-0.05042170,-0.08
 439370,-0.05756236,0.00013953,-0.00571637,0.00441478,-0.00078648,0.000
 13247,-0.00099246,0.00127771,0.00217442,0.00442104,0.00047757,0.000588
 45,-0.00020583,-0.04413847,0.52347718,0.00280995,-0.00093541,-0.001003
 02,-0.00001319,-0.00009245,0.00000763,0.00092294,0.00015587,0.00050032
 ,-0.00521473,0.00270424,0.00431002,0.00344090,-0.00038361,0.00087093,0
 .00205142,-0.00195754,0.00032489,-0.04987676,-0.02545460,-0.14319126,-
 0.02761862,-0.01840579,-0.03994243,-0.00186049,0.00026690,0.00108722,-
 0.00075256,-0.00131395,0.00296230,0.00136883,0.00061283,-0.00544428,-0
 .04689190,-0.01372241,0.57738956,-0.00024820,0.00042538,-0.00012700,0.
 00006287,0.00000705,0.00003703,-0.00015024,0.00000842,-0.00006693,0.00
 391809,-0.00503488,0.00021693,-0.00015381,0.00006662,0.00015185,0.0005
 2267,0.00167874,-0.00028959,-0.01262844,-0.02915796,-0.00422344,-0.000
 34511,-0.00013123,0.00305401,-0.00009975,0.00022654,-0.00044234,0.0003
 4529,0.00120111,-0.00056607,0.00000084,0.00022862,-0.00011820,-0.05548
 010,-0.02984810,0.00687713,0.06026769,-0.00024662,0.00038684,0.0000175
 2,0.00003645,-0.00001684,-0.00004040,-0.00017530,-0.00001514,-0.000042
 41,0.00284198,0.00129855,-0.00087946,-0.00016715,-0.00014192,0.0002591
 9,-0.00221904,0.00086770,-0.00007861,-0.01426782,-0.01615459,-0.008606
 70,-0.00052487,0.00159107,0.00232040,0.00026109,-0.00034291,0.00001070
 ,0.00024798,0.00021985,-0.00212285,0.00002423,0.00040905,-0.00037160,-
 0.02795285,-0.26201251,0.04208742,0.04374866,0.29384956,0.00000374,-0.
 00000008,0.00001530,0.00001576,0.00000109,-0.00000748,-0.00003549,0.00
 003550,-0.00004639,0.00217003,-0.00202765,0.00022796,-0.00029850,0.000
 38810,-0.00029572,0.00055272,0.00107317,-0.00013291,-0.00958848,-0.024
 53407,-0.00037212,-0.00105414,-0.00377882,0.00441388,0.00004814,0.0000
 8716,-0.00018645,0.00031392,0.00185135,0.00074773,0.00014746,0.0005108
 7,-0.00008315,0.00630653,0.03998596,-0.05970741,-0.00170410,-0.0380239
 3,0.05869381,-0.00062033,0.00124168,0.00048834,-0.00009614,-0.00004062
 ,-0.00016239,-0.00041019,-0.00021274,-0.00025570,-0.00186572,-0.002522
 75,-0.00447507,0.00038995,-0.00019815,-0.00020507,-0.00003669,0.000361
 87,-0.00010048,-0.02640563,0.00948200,0.00278869,0.00032090,0.00050953
 ,0.00199900,0.00064675,-0.00015289,-0.00085673,0.00002428,0.00017979,-
 0.00023569,0.00047521,-0.00032846,0.00012553,-0.23443250,0.11220128,0.
 03329149,0.00529098,-0.00218843,-0.00047948,0.26323338,-0.00067168,0.0
 0061987,-0.00006944,0.00003965,0.00000612,0.00002234,-0.00017719,-0.00
 010182,-0.00005775,-0.00137013,0.00013828,-0.00146884,-0.00004568,-0.0
 0024297,-0.00009533,-0.00063846,0.00044537,-0.00024869,-0.01390953,0.0
 0724267,0.00241855,-0.00047578,0.00037051,0.00004752,0.00017492,0.0002
 7629,0.00017962,0.00026199,-0.00036655,-0.00021152,-0.00033935,0.00003
 292,0.00024607,0.11851612,-0.11934408,-0.02165395,0.02634634,-0.015961
 14,-0.00556247,-0.12252184,0.12440347,-0.00101337,0.00054616,0.0008345
 9,0.00014372,0.00009764,0.00004844,-0.00033337,-0.00019683,-0.00015937
 ,-0.00167697,-0.00144112,-0.00345148,-0.00013303,-0.00012599,0.0007086
 4,0.00007512,-0.00002685,0.00006019,-0.02140334,0.01004305,0.00105114,
 -0.00236947,0.00122731,0.00111429,0.00028132,-0.00043444,-0.00055268,0
 .00029836,-0.00011073,-0.00020062,0.00002916,0.00009590,0.00032443,0.0
 3925234,-0.02326937,-0.05659232,-0.00511281,0.00415682,0.00094110,-0.0
 3311603,0.02573846,0.05841765,0.00029147,-0.00011336,-0.00010936,0.000
 06048,0.00002814,-0.00001111,0.00006281,0.00001812,0.00004011,0.001271
 16,0.00002511,-0.00284362,-0.00064929,-0.00001982,0.00033222,-0.000263
 97,0.00000025,0.00041715,0.00549116,0.00225205,-0.02651496,-0.00369371
 ,-0.00070016,-0.00229767,0.00042630,-0.00037252,0.00003865,-0.00001102
 ,0.00006901,-0.00018263,0.00048130,-0.00006157,-0.00124095,-0.07513321
 ,-0.01136920,0.08130835,-0.00121734,0.00038689,0.00377575,-0.00649886,
 -0.00535949,0.02504466,0.07933646,0.00014795,-0.00007735,-0.00009428,0
 .00000008,-0.00005064,-0.00001552,0.00002274,-0.00000882,0.00003663,0.
 00032888,0.00005885,0.00036277,0.00024406,0.00039189,0.00015671,-0.000
 23609,-0.00007021,0.00018988,0.00445565,0.00033083,-0.01517080,-0.0016
 9328,-0.00003816,-0.00148653,-0.00037164,-0.00002321,0.00019713,-0.000
 10726,0.00029784,-0.00071742,-0.00006552,0.00048722,-0.00080296,-0.012
 13106,-0.05377610,0.03826177,-0.01004795,-0.00414531,0.02989925,0.0042
 3894,0.00239171,-0.01627071,0.01522371,0.05424413,-0.00030210,-0.00014
 483,0.00058317,0.00025849,0.00006695,0.00025478,-0.00009077,-0.0000363
 4,-0.00001122,0.00245108,-0.00020409,-0.00002992,-0.00094595,0.0002861
 0,0.00073502,-0.00008776,0.00024875,-0.00011778,0.00415605,-0.00081577
 ,-0.02359777,-0.00477960,-0.00145306,-0.00130528,-0.00006130,0.0000767
 3,0.00041709,0.00005209,0.00020775,0.00010853,0.00031230,0.00015665,-0
 .00131035,0.07339150,0.03413842,-0.28172510,0.00225575,0.00130287,-0.0
 0418945,0.00121296,0.00065910,-0.00252607,-0.07778930,-0.03452581,0.31
 273810,-0.08194034,-0.00969352,0.00176183,-0.00071798,-0.00428720,0.00
 073602,0.00482936,0.02760917,-0.00630367,-0.00351131,-0.02993197,0.005
 39966,0.00088865,0.00084483,0.00061952,-0.00399397,-0.00276182,-0.0026
 8349,0.00093482,-0.00101544,0.00074518,-0.00031647,-0.00032753,-0.0003
 1196,-0.00005529,0.00003842,0.00004710,0.00016327,0.00021553,0.0000777
 6,-0.00010078,-0.00022637,0.00038798,-0.00001439,-0.00038339,-0.000056
 96,0.00004776,0.00025473,-0.00004241,-0.00001418,0.00014525,0.00001727
 ,0.00007003,0.00001876,0.00007001,0.57910252,-0.00968264,-0.19302800,0
 .02375094,-0.00068921,-0.00596279,0.00092809,-0.00350109,-0.01811665,0
 .00397941,-0.00799282,-0.01763140,0.00062303,0.00116733,0.00077565,0.0
 0038574,-0.00090534,0.00055526,-0.00046084,-0.00002284,-0.00087075,0.0
 0027176,0.00017413,-0.00028171,-0.00050844,0.00013775,0.00006533,0.000
 02794,0.00000830,-0.00003735,-0.00002320,0.00012028,0.00047780,0.00008
 186,0.00075999,0.00009020,-0.00001650,-0.00003970,-0.00009399,-0.00004
 245,0.00006395,0.00008532,0.00005753,-0.00001655,0.00001167,-0.0000408
 1,-0.00922618,0.48344401,0.00219439,0.02559132,-0.08691243,0.00353662,
 0.03426459,-0.00512321,-0.00171816,-0.00969596,0.00182464,-0.00077238,
 -0.01742163,0.00411634,-0.00007913,-0.00128147,0.00085482,-0.00352542,
 -0.00210690,-0.00127441,-0.00083244,-0.00067724,0.00032274,0.00017395,
 0.00030501,-0.00103414,0.00003554,0.00000424,0.00014816,0.00001253,-0.
 00026045,0.00006342,-0.00001283,0.00025162,0.00004683,0.00024610,-0.00
 006536,0.00060081,-0.00003521,-0.00009498,-0.00013103,-0.00006881,0.00
 008047,-0.00004074,0.00000947,-0.00004427,-0.00010064,0.00621819,0.020
 91870,0.56859018,0.00474825,-0.00192769,-0.00185071,0.00024969,0.00058
 921,-0.00025575,0.00086691,-0.00150550,-0.00031126,-0.00004777,-0.0000
 0283,-0.00051717,-0.00005827,-0.00004471,-0.00001857,0.00004245,0.0002
 5636,0.00015211,-0.00104991,-0.00112631,0.00006152,-0.00013485,-0.0003
 7890,-0.00006027,-0.00000506,-0.00000432,-0.00002763,0.00007205,0.0001
 0852,-0.00001124,0.00026829,0.00023038,0.00008038,0.00009815,-0.000002
 89,-0.00007300,-0.00000323,0.00002249,-0.00002609,0.00002204,0.0000121
 8,0.00001560,-0.00001726,0.00000932,-0.00001258,-0.22407034,0.11160189
 ,0.06535774,0.24111122,0.02749075,-0.01760417,-0.01062491,0.00003318,0
 .00134723,0.00024876,-0.00148579,-0.00631128,0.00158372,0.00179611,0.0
 0011675,-0.00009666,-0.00007973,-0.00000929,0.00005095,-0.00016564,0.0
 0029334,0.00011991,-0.00048517,0.00089303,0.00006173,-0.00058907,-0.00
 041452,0.00014998,0.00004577,0.00003660,0.00002490,0.00017421,0.000209
 91,0.00003683,-0.00008899,-0.00027972,0.00041977,-0.00040165,0.0003034
 6,-0.00022836,0.00022762,0.00017279,0.00011362,-0.00003551,-0.00002344
 ,-0.00003880,0.00001134,-0.00000539,0.00008507,0.10945487,-0.11584789,
 -0.04004462,-0.12124570,0.12878293,-0.00688055,0.00406909,0.00188592,-
 0.00061279,-0.00037900,0.00036300,0.00009058,0.00180203,0.00058723,0.0
 0078568,-0.00101297,-0.00007627,0.00003288,0.00000454,0.00004086,-0.00
 015348,0.00008433,0.00000728,0.00033764,0.00078729,-0.00015406,0.00007
 644,0.00017470,0.00084116,-0.00000945,-0.00002636,-0.00002071,-0.00005
 935,0.00000019,-0.00021774,-0.00013024,0.00001728,-0.00032021,-0.00016
 751,-0.00010764,-0.00025436,0.00006202,0.00012107,0.00004122,0.0000153
 4,-0.00002129,0.00001289,-0.00000499,-0.00003983,-0.00001056,0.0642417
 5,-0.04030098,-0.07177753,-0.07131001,0.04214046,0.07349697,-0.0015373
 8,0.00099444,-0.00054345,-0.00014585,-0.00030053,0.00037232,0.00065000
 ,-0.00034695,0.00012235,0.00044683,-0.00004607,0.00066562,-0.00000823,
 0.00003812,-0.00007507,-0.00015618,0.00004420,-0.00017596,-0.00019533,
 -0.00083785,-0.00002095,0.00016215,0.00005891,-0.00045682,-0.00004183,
 0.00000850,0.00001160,-0.00002422,-0.00010065,0.00009218,0.00003251,0.
 00005418,-0.00008122,0.00024176,-0.00005052,0.00027819,-0.00013007,-0.
 00011213,-0.00008390,-0.00003859,0.00002253,0.00000617,0.00001642,0.00
 000729,-0.00003199,-0.21964143,-0.07723013,-0.10150434,-0.01947837,-0.
 01012946,-0.01315534,0.23586817,-0.02729790,-0.01128083,-0.01733335,0.
 00000864,0.00119920,0.00050840,0.00054063,0.00106513,-0.00069243,0.001
 34140,-0.00670539,0.00287704,0.00031482,0.00013181,0.00011491,-0.00175
 949,-0.00097193,-0.00084288,0.00062125,0.00068593,0.00004017,-0.000072
 84,-0.00000601,-0.00008949,-0.00004941,0.00001088,0.00005256,0.0000482
 5,0.00000803,-0.00004525,0.00003648,-0.00002222,0.00002370,-0.00020122
 ,0.00007493,0.00003340,0.00009175,0.00008056,0.00002398,-0.00007668,0.
 00003256,-0.00002862,0.00001601,-0.00002804,0.00002060,-0.07605501,-0.
 08140852,-0.04509553,0.01260601,0.00629895,0.00948120,0.08530758,0.089
 95611,0.00716757,0.00320997,0.00293372,0.00027464,-0.00052308,0.000415
 88,-0.00012139,-0.00059410,0.00000097,0.00017934,0.00116536,0.00008228
 ,0.00019876,0.00029729,0.00040205,0.00000196,0.00012430,0.00038718,-0.
 00003005,0.00004941,0.00019855,-0.00005335,-0.00005277,0.00000936,-0.0
 0001377,0.00000702,0.00000110,-0.00001146,-0.00000098,0.00003869,0.000
 00684,-0.00002697,0.00004223,0.00006010,0.00008251,-0.00005345,0.00001
 465,-0.00002953,0.00003659,0.00000070,-0.00000948,0.00000693,0.0000146
 6,0.00002542,0.00003226,-0.10179793,-0.04605214,-0.10855151,0.00843244
 ,0.00491301,0.00466305,0.11208063,0.04911000,0.11335840,-0.00120382,-0
 .00036124,0.00305278,0.00070889,-0.00078686,0.00018027,0.00009572,-0.0
 0000868,-0.00061241,0.00023932,-0.00013304,0.00117181,0.00004839,-0.00
 016240,-0.00019777,0.00003574,0.00008178,-0.00015094,0.00007947,0.0003
 6441,-0.00042405,0.00012983,0.00007982,0.00027892,0.00001379,-0.000005
 17,-0.00002378,-0.00003527,0.00001647,-0.00014977,0.00008554,0.0000975
 7,-0.00020399,-0.00007204,-0.00011321,0.00000902,0.00000010,0.00002972
 ,-0.00002147,0.00001533,-0.00000984,-0.00000532,-0.00002294,-0.0000445
 7,-0.00005888,-0.05165994,-0.00472713,0.03076420,-0.00261400,-0.004527
 13,0.02684139,0.00397962,0.00457973,-0.02640436,0.05017628,-0.00458182
 ,-0.00579389,0.03470367,-0.00092974,-0.00671327,0.00110293,0.00053049,
 0.00131041,-0.00025844,0.00044914,0.00168076,0.00125201,-0.00024664,-0
 .00007245,-0.00096393,0.00046038,0.00026050,-0.00034576,-0.00006829,-0
 .00003316,-0.00026092,0.00002079,0.00003034,0.00010762,-0.00004841,-0.
 00000050,-0.00008887,0.00006437,0.00008006,0.00001946,0.00005932,-0.00
 018133,-0.00001174,-0.00007131,0.00001054,0.00004215,0.00000298,0.0000
 0837,-0.00000058,-0.00000099,-0.00000513,-0.00001942,-0.00001797,0.000
 00910,-0.00002828,-0.00467313,-0.05222621,0.03537247,0.00080249,0.0020
 4071,-0.01679410,0.00261855,0.00087884,-0.01169524,0.00562978,0.058716
 28,0.00049817,0.00102921,-0.00623245,-0.00031676,0.00129000,0.00139484
 ,-0.00034806,0.00043336,0.00038785,-0.00040953,-0.00035521,0.00084882,
 0.00066655,0.00045806,0.00028292,0.00000256,-0.00000383,0.00027631,0.0
 0031421,-0.00000376,0.00028066,-0.00015693,-0.00021021,-0.00014066,0.0
 0003766,0.00001799,0.00002820,-0.00001537,0.00002568,0.00007112,-0.000
 05210,-0.00000228,0.00014592,0.00001335,0.00004777,-0.00014004,0.00001
 633,0.00001447,0.00003452,0.00003339,0.00000664,0.00000298,0.00001356,
 0.00003857,0.00005519,0.03087418,0.03642036,-0.30162230,0.00037447,0.0
 0108463,-0.00910815,0.00249998,0.00184159,-0.01400428,-0.03404567,-0.0
 4213303,0.32743854\\0.00000188,-0.00000154,-0.00000291,0.00000036,-0.0
 0000289,-0.00000185,-0.00000126,-0.00000351,-0.00000049,0.00000332,-0.
 00000247,0.00000057,-0.00000047,0.00000180,-0.00000011,-0.00000260,-0.
 00000133,-0.00000080,0.00000071,0.00000032,-0.00000386,-0.00000105,0.0
 0000425,0.00001051,0.00000106,-0.00000075,0.00000343,0.00000064,0.0000
 0071,0.00000043,-0.00000244,-0.00000036,0.00000122,-0.00000036,-0.0000
 0402,-0.00000520,0.00000005,0.00000182,0.00000152,0.00000145,-0.000000
 31,0.00000152,-0.00000153,-0.00000065,-0.00000115,-0.00000019,0.000005
 32,0.00000117,-0.00000010,0.00000222,-0.00000035,-0.00000025,0.0000006
 7,-0.00000234,0.00000079,0.00000072,-0.00000132\\\@


 WE LEARN WISDOM FROM FAILURE MUCH MORE THAN FROM SUCCESS.
 WE DISCOVER WHAT WILL DO BY FINDING OUT WHAT WILL NOT DO...
 AND HE WHO NEVER MADE A MISTAKE NEVER MADE A DISCOVERY
 Job cpu time:       0 days  2 hours 30 minutes 55.0 seconds.
 Elapsed time:       0 days  0 hours  6 minutes 56.1 seconds.
 File lengths (MBytes):  RWF=    118 Int=      0 D2E=      0 Chk=      8 Scr=      1
 Normal termination of Gaussian 16 at Sat Oct  3 17:53:46 2026.
