 Entering Gaussian System, Link 0=/applications/g16/g16/g16
 Initial command:
 /applications/g16/g16/l1.exe "/scratch/g98/Gau-46147.inp" -scrdir="/scratch/g98/"
 Entering Link 1 = /applications/g16/g16/l1.exe PID=     46148.
  
 Copyright (c) 1988,1990,1992,1993,1995,1998,2003,2009,2016,
            Gaussian, Inc.  All Rights Reserved.
  
 This is part of the Gaussian(R) 16 program.  It is based on
 the Gaussian(R) 09 system (copyright 2009, Gaussian, Inc.),
 the Gaussian(R) 03 system (copyright 2003, Gaussian, Inc.),
 the Gaussian(R) 98 system (copyright 1998, Gaussian, Inc.),
 the Gaussian(R) 94 system (copyright 1995, Gaussian, Inc.),
 the Gaussian 92(TM) system (copyright 1992, Gaussian, Inc.),
 the Gaussian 90(TM) system (copyright 1990, Gaussian, Inc.),
 the Gaussian 88(TM) system (copyright 1988, Gaussian, Inc.),
 the Gaussian 86(TM) system (copyright 1986, Carnegie Mellon
 University), and the Gaussian 82(TM) system (copyright 1983,
 Carnegie Mellon University). Gaussian is a federally registered
 trademark of Gaussian, Inc.
  
 This software contains proprietary and confidential information,
 including trade secrets, belonging to Gaussian, Inc.
  
 This software is provided under written license and may be
 used, copied, transmitted, or stored only in accord with that
 written license.
  
 The following legend is applicable only to US Government
 contracts under FAR:
  
                    RESTRICTED RIGHTS LEGEND
  
 Use, reproduction and disclosure by the US Government is
 subject to restrictions as set forth in subparagraphs (a)
 and (c) of the Commercial Computer Software - Restricted
 Rights clause in FAR 52.227-19.
  
 Gaussian, Inc.
 340 Quinnipiac St., Bldg. 40, Wallingford CT 06492
  
  
 ---------------------------------------------------------------
 Warning -- This program may not be used in any manner that
 competes with the business of Gaussian, Inc. or will provide
 assistance to any competitor of Gaussian, Inc.  The licensee
 of this program is prohibited from giving any competitor of
 Gaussian, Inc. access to this program.  By using this program,
 the user acknowledges that Gaussian, Inc. is engaged in the
 business of creating and licensing software in the field of
 computational chemistry and represents and warrants to the
 licensee that it is not a competitor of Gaussian, Inc. and that
 it will not use this program in any manner prohibited above.
 ---------------------------------------------------------------
  

 Cite this work as:
 Gaussian 16, Revision A.03,
 M. J. Frisch, G. W. Trucks, H. B. Schlegel, G. E. Scuseria, 
 M. A. Robb, J. R. Cheeseman, G. Scalmani, V. Barone, 
 G. A. Petersson, H. Nakatsuji, X. Li, M. Caricato, A. V. Marenich, 
 J. Bloino, B. G. Janesko, R. Gomperts, B. Mennucci, H. P. Hratchian, 
 J. V. Ortiz, A. F. Izmaylov, J. L. Sonnenberg, D. Williams-Young, 
 F. Ding, F. Lipparini, F. Egidi, J. Goings, B. Peng, A. Petrone, 
 T. Henderson, D. Ranasinghe, V. G. Zakrzewski, J. Gao, N. Rega, 
 G. Zheng, W. Liang, M. Hada, M. Ehara, K. Toyota, R. Fukuda, 
 J. Hasegawa, M. Ishida, T. Nakajima, Y. Honda, O. Kitao, H. Nakai, 
 T. Vreven, K. Throssell, J. A. Montgomery, Jr., J. E. Peralta, 
 F. Ogliaro, M. J. Bearpark, J. J. Heyd, E. N. Brothers, K. N. Kudin, 
 V. N. Staroverov, T. A. Keith, R. Kobayashi, J. Normand, 
 K. Raghavachari, A. P. Rendell, J. C. Burant, S. S. Iyengar, 
 J. Tomasi, M. Cossi, J. M. Millam, M. Klene, C. Adamo, R. Cammi, 
 J. W. Ochterski, R. L. Martin, K. Morokuma, O. Farkas, 
 J. B. Foresman, and D. J. Fox, Gaussian, Inc., Wallingford CT, 2016.
 
 ******************************************
 Gaussian 16:  EM64M-G16RevA.03 25-Dec-2016
                28-Sep-2026 
 ******************************************
 %nprocshared=22
 Will use up to   22 processors via shared memory.
 %mem=48GB
 %chk=hso2.chk
 -----------------------------------------
 # opt freq uwb97xd/6-311+g(2d,2p) scf=xqc
 -----------------------------------------
 1/18=20,19=15,26=3,38=1/1,3;
 2/9=110,12=2,17=6,18=5,40=1/2;
 3/5=4,6=6,7=212,11=2,25=1,30=1,71=1,74=-58,116=2/1,2,3;
 4//1;
 5/5=2,8=3,13=1,38=5/2,8;
 6/7=2,8=2,9=2,10=2,28=1/1;
 7//1,2,3,16;
 1/18=20,19=15,26=3/3(2);
 2/9=110/2;
 99//99;
 2/9=110/2;
 3/5=4,6=6,7=212,11=2,25=1,30=1,71=1,74=-58,116=2/1,2,3;
 4/5=5,16=3,69=1/1;
 5/5=2,8=3,13=1,38=5/2,8;
 7//1,2,3,16;
 1/18=20,19=15,26=3/3(-5);
 2/9=110/2;
 6/7=2,8=2,9=2,10=2,19=2,28=1/1;
 99/9=1/99;
 --------
 opt freq
 --------
 Symbolic Z-matrix:
 Charge =  0 Multiplicity = 2
 S                     3.88548   0.31926   0.43516 
 O                     3.77739  -1.14364   0.39189 
 O                     4.23503   0.72698  -1.13167 
 H                     4.74189  -0.01163  -1.48556 
 

 GradGradGradGradGradGradGradGradGradGradGradGradGradGradGradGradGradGrad
 Berny optimization.
 Initialization pass.
                           ----------------------------
                           !    Initial Parameters    !
                           ! (Angstroms and Degrees)  !
 --------------------------                            --------------------------
 ! Name  Definition              Value          Derivative Info.                !
 --------------------------------------------------------------------------------
 ! R1    R(1,2)                  1.4675         estimate D2E/DX2                !
 ! R2    R(1,3)                  1.6563         estimate D2E/DX2                !
 ! R3    R(3,4)                  0.9632         estimate D2E/DX2                !
 ! A1    A(2,1,3)              103.4761         estimate D2E/DX2                !
 ! A2    A(1,3,4)              105.6563         estimate D2E/DX2                !
 ! D1    D(2,1,3,4)            -31.3827         estimate D2E/DX2                !
 --------------------------------------------------------------------------------
 Trust Radius=3.00D-01 FncErr=1.00D-07 GrdErr=1.00D-06 EigMax=2.50D+02 EigMin=1.00D-04
 Number of steps in this run=     20 maximum allowed number of steps=    100.
 GradGradGradGradGradGradGradGradGradGradGradGradGradGradGradGradGradGrad

                          Input orientation:                          
 ---------------------------------------------------------------------
 Center     Atomic      Atomic             Coordinates (Angstroms)
 Number     Number       Type             X           Y           Z
 ---------------------------------------------------------------------
      1         16           0        3.885479    0.319261    0.435156
      2          8           0        3.777392   -1.143641    0.391893
      3          8           0        4.235028    0.726978   -1.131670
      4          1           0        4.741886   -0.011630   -1.485561
 ---------------------------------------------------------------------
                    Distance matrix (angstroms):
                    1          2          3          4
     1  S    0.000000
     2  O    1.467528   0.000000
     3  O    1.656309   2.455583   0.000000
     4  H    2.128867   2.395105   0.963163   0.000000
 Stoichiometry    HO2S(2)
 Framework group  C1[X(HO2S)]
 Deg. of freedom     6
 Full point group                 C1      NOp   1
 Largest Abelian subgroup         C1      NOp   1
 Largest concise Abelian subgroup C1      NOp   1
                         Standard orientation:                         
 ---------------------------------------------------------------------
 Center     Atomic      Atomic             Coordinates (Angstroms)
 Number     Number       Type             X           Y           Z
 ---------------------------------------------------------------------
      1         16           0        0.160087   -0.502942    0.020067
      2          8           0        1.129856    0.597514   -0.026637
      3          8           0       -1.303362    0.268568   -0.060243
      4          1           0       -1.173340    1.118418    0.373960
 ---------------------------------------------------------------------
 Rotational constants (GHZ):          30.8928505          10.1000440           7.6589351
 Standard basis: 6-311+G(2d,2p) (5D, 7F)
 There are   104 symmetry adapted cartesian basis functions of A   symmetry.
 There are    98 symmetry adapted basis functions of A   symmetry.
    98 basis functions,   151 primitive gaussians,   104 cartesian basis functions
    17 alpha electrons       16 beta electrons
       nuclear repulsion energy       110.9825848389 Hartrees.
 NAtoms=    4 NActive=    4 NUniq=    4 SFac= 1.00D+00 NAtFMM=   60 NAOKFM=F Big=F
 Integral buffers will be    131072 words long.
 Raffenetti 2 integral format.
 Two-electron integral symmetry is turned on.
 Nuclear repulsion after empirical dispersion term =      110.9823622120 Hartrees.
 One-electron integrals computed using PRISM.
 NBasis=    98 RedAO= T EigKep=  2.65D-03  NBF=    98
 NBsUse=    98 1.00D-06 EigRej= -1.00D+00 NBFU=    98
 ExpMin= 4.05D-02 ExpMax= 9.34D+04 ExpMxC= 3.17D+03 IAcc=3 IRadAn=         5 AccDes= 0.00D+00
 Harris functional with IExCor= 4639 and IRadAn=       5 diagonalized for initial guess.
 HarFok:  IExCor= 4639 AccDes= 0.00D+00 IRadAn=         5 IDoV= 1 UseB2=F ITyADJ=14
 ICtDFT=  3500011 ScaDFX=  1.000000  1.000000  1.000000  1.000000
 FoFCou: FMM=F IPFlag=           0 FMFlag=      100000 FMFlg1=           0
         NFxFlg=           0 DoJE=T BraDBF=F KetDBF=T FulRan=T
         wScrn=  0.000000 ICntrl=       500 IOpCl=  0 I1Cent=   200000004 NGrid=           0
         NMat0=    1 NMatS0=      1 NMatT0=    0 NMatD0=    1 NMtDS0=    0 NMtDT0=    0
 Petite list used in FoFCou.
 Initial guess <Sx>= 0.0000 <Sy>= 0.0000 <Sz>= 0.5000 <S**2>= 0.7500 S= 0.5000
 Keep R1 and R2 ints in memory in canonical form, NReq=67519019.
 Requested convergence on RMS density matrix=1.00D-08 within  32 cycles.
 Requested convergence on MAX density matrix=1.00D-06.
 Requested convergence on             energy=1.00D-06.
 No special actions if energy rises.
 SCF Done:  E(UwB97XD) =  -549.204059944     A.U. after   16 cycles
            NFock= 16  Conv=0.57D-08     -V/T= 2.0016
 <Sx>= 0.0000 <Sy>= 0.0000 <Sz>= 0.5000 <S**2>= 0.7549 S= 0.5025
 <L.S>= 0.000000000000E+00
 Annihilation of the first spin contaminant:
 S**2 before annihilation     0.7549,   after     0.7500
 QCSCF skips out because SCF is already converged.

 **********************************************************************

            Population analysis using the SCF density.

 **********************************************************************

 Orbital symmetries:
 Alpha Orbitals:
       Occupied  (A) (A) (A) (A) (A) (A) (A) (A) (A) (A) (A) (A)
                 (A) (A) (A) (A) (A)
       Virtual   (A) (A) (A) (A) (A) (A) (A) (A) (A) (A) (A) (A)
                 (A) (A) (A) (A) (A) (A) (A) (A) (A) (A) (A) (A)
                 (A) (A) (A) (A) (A) (A) (A) (A) (A) (A) (A) (A)
                 (A) (A) (A) (A) (A) (A) (A) (A) (A) (A) (A) (A)
                 (A) (A) (A) (A) (A) (A) (A) (A) (A) (A) (A) (A)
                 (A) (A) (A) (A) (A) (A) (A) (A) (A) (A) (A) (A)
                 (A) (A) (A) (A) (A) (A) (A) (A) (A)
 Beta  Orbitals:
       Occupied  (A) (A) (A) (A) (A) (A) (A) (A) (A) (A) (A) (A)
                 (A) (A) (A) (A)
       Virtual   (A) (A) (A) (A) (A) (A) (A) (A) (A) (A) (A) (A)
                 (A) (A) (A) (A) (A) (A) (A) (A) (A) (A) (A) (A)
                 (A) (A) (A) (A) (A) (A) (A) (A) (A) (A) (A) (A)
                 (A) (A) (A) (A) (A) (A) (A) (A) (A) (A) (A) (A)
                 (A) (A) (A) (A) (A) (A) (A) (A) (A) (A) (A) (A)
                 (A) (A) (A) (A) (A) (A) (A) (A) (A) (A) (A) (A)
                 (A) (A) (A) (A) (A) (A) (A) (A) (A) (A)
 The electronic state is 2-A.
 Alpha  occ. eigenvalues --  -89.15817 -19.31249 -19.28901  -8.18688  -6.13645
 Alpha  occ. eigenvalues --   -6.13296  -6.13036  -1.22430  -1.14533  -0.79886
 Alpha  occ. eigenvalues --   -0.63125  -0.57472  -0.56386  -0.51242  -0.46293
 Alpha  occ. eigenvalues --   -0.42271  -0.31848
 Alpha virt. eigenvalues --    0.04105   0.06533   0.07461   0.09251   0.11527
 Alpha virt. eigenvalues --    0.13974   0.19103   0.22765   0.24820   0.25057
 Alpha virt. eigenvalues --    0.25977   0.28510   0.31387   0.32520   0.35808
 Alpha virt. eigenvalues --    0.37860   0.38560   0.41783   0.44923   0.49930
 Alpha virt. eigenvalues --    0.51323   0.57939   0.60452   0.76879   0.83651
 Alpha virt. eigenvalues --    0.84736   0.88580   0.99976   1.09632   1.11243
 Alpha virt. eigenvalues --    1.12792   1.12921   1.18754   1.38409   1.52395
 Alpha virt. eigenvalues --    1.52923   1.54243   1.57124   1.61904   1.68477
 Alpha virt. eigenvalues --    1.73295   1.77431   1.80956   1.88002   1.88408
 Alpha virt. eigenvalues --    2.06140   2.08484   2.18053   2.19290   2.23545
 Alpha virt. eigenvalues --    2.30677   2.36350   2.43626   2.76632   2.78480
 Alpha virt. eigenvalues --    3.80514   3.91996   4.19792   5.02715   5.04362
 Alpha virt. eigenvalues --    5.07608   5.08935   5.19843   5.81885   6.76980
 Alpha virt. eigenvalues --    6.78727   6.87674   6.90038   6.93138   6.96140
 Alpha virt. eigenvalues --    7.07644   7.10037   7.31201   7.43251   8.22683
 Alpha virt. eigenvalues --   17.31024  17.47368  17.56292  49.96436  50.00662
 Alpha virt. eigenvalues --  189.40558
  Beta  occ. eigenvalues --  -89.15439 -19.31058 -19.27957  -8.18348  -6.13422
  Beta  occ. eigenvalues --   -6.12829  -6.12069  -1.21164  -1.13173  -0.77381
  Beta  occ. eigenvalues --   -0.61865  -0.56538  -0.53180  -0.48690  -0.43037
  Beta  occ. eigenvalues --   -0.41131
  Beta virt. eigenvalues --   -0.04851   0.04760   0.06877   0.07879   0.09940
  Beta virt. eigenvalues --    0.12098   0.14954   0.19451   0.23051   0.25074
  Beta virt. eigenvalues --    0.25306   0.26398   0.28978   0.31686   0.32669
  Beta virt. eigenvalues --    0.36376   0.38133   0.38699   0.42095   0.47003
  Beta virt. eigenvalues --    0.52168   0.52932   0.58399   0.62078   0.77322
  Beta virt. eigenvalues --    0.84227   0.85167   0.89559   1.00212   1.09966
  Beta virt. eigenvalues --    1.11720   1.13406   1.15162   1.19199   1.38764
  Beta virt. eigenvalues --    1.52883   1.54325   1.54986   1.58794   1.63104
  Beta virt. eigenvalues --    1.70167   1.73896   1.78591   1.81485   1.88953
  Beta virt. eigenvalues --    1.89769   2.06716   2.09883   2.19057   2.20686
  Beta virt. eigenvalues --    2.25317   2.31390   2.37594   2.44061   2.77094
  Beta virt. eigenvalues --    2.79052   3.80660   3.92112   4.19930   5.05185
  Beta virt. eigenvalues --    5.06726   5.08476   5.09623   5.20703   5.82098
  Beta virt. eigenvalues --    6.80248   6.82055   6.89394   6.91073   6.95477
  Beta virt. eigenvalues --    6.97739   7.08261   7.10863   7.32763   7.43588
  Beta virt. eigenvalues --    8.23136  17.32347  17.47628  17.56560  49.97298
  Beta virt. eigenvalues --   50.00832 189.40860
          Condensed to atoms (all electrons):
               1          2          3          4
     1  S   15.345123   0.111328  -0.060726   0.020726
     2  O    0.111328   8.355717   0.010204   0.000718
     3  O   -0.060726   0.010204   8.226412   0.213443
     4  H    0.020726   0.000718   0.213443   0.481361
          Atomic-Atomic Spin Densities.
               1          2          3          4
     1  S    0.882745  -0.192235  -0.063019  -0.009574
     2  O   -0.192235   0.504000   0.015089   0.003095
     3  O   -0.063019   0.015089   0.106351  -0.009616
     4  H   -0.009574   0.003095  -0.009616   0.019425
 Mulliken charges and spin densities:
               1          2
     1  S    0.583550   0.617917
     2  O   -0.477967   0.329949
     3  O   -0.389334   0.048806
     4  H    0.283751   0.003328
 Sum of Mulliken charges =  -0.00000   1.00000
 Mulliken charges and spin densities with hydrogens summed into heavy atoms:
               1          2
     1  S    0.583550   0.617917
     2  O   -0.477967   0.329949
     3  O   -0.105583   0.052134
 Electronic spatial extent (au):  <R**2>=            176.4993
 Charge=             -0.0000 electrons
 Dipole moment (field-independent basis, Debye):
    X=             -0.9011    Y=             -0.3697    Z=              0.7748  Tot=              1.2445
 Quadrupole moment (field-independent basis, Debye-Ang):
   XX=            -26.9137   YY=            -21.3457   ZZ=            -23.4196
   XY=             -3.1552   XZ=             -0.9574   YZ=              1.1249
 Traceless Quadrupole moment (field-independent basis, Debye-Ang):
   XX=             -3.0207   YY=              2.5473   ZZ=              0.4734
   XY=             -3.1552   XZ=             -0.9574   YZ=              1.1249
 Octapole moment (field-independent basis, Debye-Ang**2):
  XXX=             -0.2409  YYY=              4.0803  ZZZ=              0.1290  XYY=             -3.9999
  XXY=              0.4134  XXZ=              1.1491  XZZ=             -0.3161  YZZ=              1.3003
  YYZ=              1.2878  XYZ=             -1.3237
 Hexadecapole moment (field-independent basis, Debye-Ang**3):
 XXXX=           -138.2150 YYYY=            -55.8406 ZZZZ=            -24.8726 XXXY=             -5.5704
 XXXZ=             -1.6023 YYYX=             -5.1660 YYYZ=              1.7544 ZZZX=             -0.6239
 ZZZY=              0.8258 XXYY=            -27.3594 XXZZ=            -25.9385 YYZZ=            -14.2060
 XXYZ=              1.7564 YYXZ=             -1.5030 ZZXY=             -0.5965
 N-N= 1.109823622120D+02 E-N=-1.525881018248D+03  KE= 5.483148198620D+02
                          Isotropic Fermi Contact Couplings
        Atom                 a.u.       MegaHertz       Gauss      10(-4) cm-1
     1  S(33)              0.08696      29.87002      10.65837       9.96357
     2  O(17)              0.05475     -33.18707     -11.84197     -11.07002
     3  O(17)              0.01989     -12.05666      -4.30212      -4.02167
     4  H(1)               0.00219       9.77527       3.48806       3.26068
 --------------------------------------------------------
       Center         ----  Spin Dipole Couplings  ----
                      3XX-RR        3YY-RR        3ZZ-RR
 --------------------------------------------------------
     1   Atom       -1.477677     -1.574245      3.051922
     2   Atom       -0.804349     -0.814103      1.618452
     3   Atom       -0.198805     -0.148298      0.347102
     4   Atom       -0.004615      0.015000     -0.010385
 --------------------------------------------------------
                        XY            XZ            YZ
 --------------------------------------------------------
     1   Atom        0.001908      0.060817      0.207479
     2   Atom       -0.013141     -0.099345      0.052396
     3   Atom        0.004508     -0.029189     -0.126228
     4   Atom       -0.004363     -0.001836      0.006599
 --------------------------------------------------------


 ---------------------------------------------------------------------------------
              Anisotropic Spin Dipole Couplings in Principal Axis System
 ---------------------------------------------------------------------------------

       Atom             a.u.   MegaHertz   Gauss  10(-4) cm-1        Axes

              Baa    -1.5835   -64.924   -23.166   -21.656  0.0077  0.9990 -0.0448
     1 S(33)  Bbb    -1.4785   -60.617   -21.630   -20.220  0.9999 -0.0083 -0.0130
              Bcc     3.0620   125.540    44.796    41.876  0.0134  0.0447  0.9989
 
              Baa    -0.8233    59.576    21.258    19.872  0.5931  0.8051  0.0069
     2 O(17)  Bbb    -0.8003    57.911    20.664    19.317  0.8041 -0.5927  0.0459
              Bcc     1.6237  -117.487   -41.922   -39.190 -0.0410  0.0217  0.9989
 
              Baa    -0.2006    14.513     5.179     4.841  0.9927  0.0950  0.0748
     3 O(17)  Bbb    -0.1783    12.904     4.605     4.304 -0.1097  0.9678  0.2264
              Bcc     0.3789   -27.418    -9.783    -9.146 -0.0509 -0.2330  0.9712
 
              Baa    -0.0121    -6.446    -2.300    -2.150  0.1108 -0.2184  0.9695
     4 H(1)   Bbb    -0.0055    -2.943    -1.050    -0.982  0.9722  0.2261 -0.0601
              Bcc     0.0176     9.389     3.350     3.132 -0.2061  0.9493  0.2374
 

 ---------------------------------------------------------------------------------

 Calling FoFJK, ICntrl=      2127 FMM=F ISym2X=0 I1Cent= 0 IOpClX= 1 NMat=1 NMatS=1 NMatT=0.
 ***** Axes restored to original set *****
 -------------------------------------------------------------------
 Center     Atomic                   Forces (Hartrees/Bohr)
 Number     Number              X              Y              Z
 -------------------------------------------------------------------
      1       16           0.002342720   -0.000240543   -0.017704450
      2        8          -0.002346028   -0.007669930    0.011054935
      3        8          -0.000418487    0.008822380    0.008999036
      4        1           0.000421796   -0.000911906   -0.002349521
 -------------------------------------------------------------------
 Cartesian Forces:  Max     0.017704450 RMS     0.007478073

 GradGradGradGradGradGradGradGradGradGradGradGradGradGradGradGradGradGrad
 Berny optimization.
 FormGI is forming the generalized inverse of G from B-inverse, IUseBI=4.
 Internal  Forces:  Max     0.031646837 RMS     0.013482015
 Search for a local minimum.
 Step number   1 out of a maximum of   20
 All quantities printed in internal units (Hartrees-Bohrs-Radians)
 Mixed Optimization -- RFO/linear search
 Second derivative matrix not updated -- first step.
 The second derivative matrix:
                          R1        R2        R3        A1        A2
           R1           0.88520
           R2           0.00000   0.41708
           R3           0.00000   0.00000   0.54799
           A1           0.00000   0.00000   0.00000   0.25000
           A2           0.00000   0.00000   0.00000   0.00000   0.16000
           D1           0.00000   0.00000   0.00000   0.00000   0.00000
                          D1
           D1           0.01874
 ITU=  0
     Eigenvalues ---    0.01874   0.16000   0.25000   0.41708   0.54799
     Eigenvalues ---    0.88520
 RFO step:  Lambda=-4.18524812D-03 EMin= 1.87408366D-02
 Linear search not attempted -- first point.
 Iteration  1 RMS(Cart)=  0.09986748 RMS(Int)=  0.00458051
 Iteration  2 RMS(Cart)=  0.00374092 RMS(Int)=  0.00000741
 Iteration  3 RMS(Cart)=  0.00000915 RMS(Int)=  0.00000000
 Iteration  4 RMS(Cart)=  0.00000000 RMS(Int)=  0.00000000
 Variable       Old X    -DE/DX   Delta X   Delta X   Delta X     New X
                                 (Linear)    (Quad)   (Total)
    R1        2.77323   0.00749   0.00000   0.00842   0.00842   2.78165
    R2        3.12997  -0.00434   0.00000  -0.01031  -0.01031   3.11966
    R3        1.82012   0.00179   0.00000   0.00324   0.00324   1.82335
    A1        1.80600   0.03165   0.00000   0.12450   0.12450   1.93050
    A2        1.84405   0.00303   0.00000   0.01846   0.01846   1.86251
    D1       -0.54773   0.00132   0.00000   0.05741   0.05741  -0.49032
         Item               Value     Threshold  Converged?
 Maximum Force            0.031647     0.000450     NO 
 RMS     Force            0.013482     0.000300     NO 
 Maximum Displacement     0.165485     0.001800     NO 
 RMS     Displacement     0.100654     0.001200     NO 
 Predicted change in Energy=-2.133066D-03
 GradGradGradGradGradGradGradGradGradGradGradGradGradGradGradGradGradGrad

                          Input orientation:                          
 ---------------------------------------------------------------------
 Center     Atomic      Atomic             Coordinates (Angstroms)
 Number     Number       Type             X           Y           Z
 ---------------------------------------------------------------------
      1         16           0        3.876924    0.287533    0.400307
      2          8           0        3.752992   -1.177087    0.479464
      3          8           0        4.261910    0.755991   -1.135158
      4          1           0        4.747958    0.024531   -1.534796
 ---------------------------------------------------------------------
                    Distance matrix (angstroms):
                    1          2          3          4
     1  S    0.000000
     2  O    1.471984   0.000000
     3  O    1.650854   2.569590   0.000000
     4  H    2.138339   2.547761   0.964877   0.000000
 Stoichiometry    HO2S(2)
 Framework group  C1[X(HO2S)]
 Deg. of freedom     6
 Full point group                 C1      NOp   1
 Largest Abelian subgroup         C1      NOp   1
 Largest concise Abelian subgroup C1      NOp   1
                         Standard orientation:                         
 ---------------------------------------------------------------------
 Center     Atomic      Atomic             Coordinates (Angstroms)
 Number     Number       Type             X           Y           Z
 ---------------------------------------------------------------------
      1         16           0        0.140498   -0.468640    0.019889
      2          8           0        1.213871    0.537650   -0.024698
      3          8           0       -1.340202    0.257398   -0.055741
      4          1           0       -1.237319    1.137860    0.325297
 ---------------------------------------------------------------------
 Rotational constants (GHZ):          35.8035178           9.2451369           7.3828949
 Standard basis: 6-311+G(2d,2p) (5D, 7F)
 There are   104 symmetry adapted cartesian basis functions of A   symmetry.
 There are    98 symmetry adapted basis functions of A   symmetry.
    98 basis functions,   151 primitive gaussians,   104 cartesian basis functions
    17 alpha electrons       16 beta electrons
       nuclear repulsion energy       110.2347120756 Hartrees.
 NAtoms=    4 NActive=    4 NUniq=    4 SFac= 1.00D+00 NAtFMM=   60 NAOKFM=F Big=F
 Integral buffers will be    131072 words long.
 Raffenetti 2 integral format.
 Two-electron integral symmetry is turned on.
 Nuclear repulsion after empirical dispersion term =      110.2344473399 Hartrees.
 One-electron integrals computed using PRISM.
 NBasis=    98 RedAO= T EigKep=  2.60D-03  NBF=    98
 NBsUse=    98 1.00D-06 EigRej= -1.00D+00 NBFU=    98
 Initial guess from the checkpoint file:  "hso2.chk"
 B after Tr=     0.000000    0.000000    0.000000
         Rot=    0.999930    0.004230    0.001074    0.010994 Ang=   1.36 deg.
 Initial guess <Sx>= 0.0000 <Sy>= 0.0000 <Sz>= 0.5000 <S**2>= 0.7549 S= 0.5025
 ExpMin= 4.05D-02 ExpMax= 9.34D+04 ExpMxC= 3.17D+03 IAcc=2 IRadAn=         4 AccDes= 0.00D+00
 Harris functional with IExCor= 4639 and IRadAn=       4 diagonalized for initial guess.
 HarFok:  IExCor= 4639 AccDes= 0.00D+00 IRadAn=         4 IDoV= 1 UseB2=F ITyADJ=14
 ICtDFT=  3500011 ScaDFX=  1.000000  1.000000  1.000000  1.000000
 FoFCou: FMM=F IPFlag=           0 FMFlag=      100000 FMFlg1=           0
         NFxFlg=           0 DoJE=T BraDBF=F KetDBF=T FulRan=T
         wScrn=  0.000000 ICntrl=       500 IOpCl=  0 I1Cent=   200000004 NGrid=           0
         NMat0=    1 NMatS0=      1 NMatT0=    0 NMatD0=    1 NMtDS0=    0 NMtDT0=    0
 Petite list used in FoFCou.
 Keep R1 and R2 ints in memory in canonical form, NReq=67519019.
 Requested convergence on RMS density matrix=1.00D-08 within  32 cycles.
 Requested convergence on MAX density matrix=1.00D-06.
 Requested convergence on             energy=1.00D-06.
 No special actions if energy rises.
 SCF Done:  E(UwB97XD) =  -549.205450411     A.U. after   14 cycles
            NFock= 14  Conv=0.48D-08     -V/T= 2.0017
 <Sx>= 0.0000 <Sy>= 0.0000 <Sz>= 0.5000 <S**2>= 0.7550 S= 0.5025
 <L.S>= 0.000000000000E+00
 Annihilation of the first spin contaminant:
 S**2 before annihilation     0.7550,   after     0.7500
 QCSCF skips out because SCF is already converged.
 Calling FoFJK, ICntrl=      2127 FMM=F ISym2X=0 I1Cent= 0 IOpClX= 1 NMat=1 NMatS=1 NMatT=0.
 ***** Axes restored to original set *****
 -------------------------------------------------------------------
 Center     Atomic                   Forces (Hartrees/Bohr)
 Number     Number              X              Y              Z
 -------------------------------------------------------------------
      1       16          -0.001430474    0.003803235    0.003171646
      2        8           0.001004773    0.001810476   -0.003820390
      3        8          -0.000294575   -0.006758174    0.003923404
      4        1           0.000720277    0.001144463   -0.003274660
 -------------------------------------------------------------------
 Cartesian Forces:  Max     0.006758174 RMS     0.003151160

 GradGradGradGradGradGradGradGradGradGradGradGradGradGradGradGradGradGrad
 Berny optimization.
 Using GEDIIS/GDIIS optimizer.
 FormGI is forming the generalized inverse of G from B-inverse, IUseBI=4.
 Internal  Forces:  Max     0.010603241 RMS     0.005183901
 Search for a local minimum.
 Step number   2 out of a maximum of   20
 All quantities printed in internal units (Hartrees-Bohrs-Radians)
 Mixed Optimization -- RFO/linear search
 Update second derivatives using D2CorX and points    1    2
 DE= -1.39D-03 DEPred=-2.13D-03 R= 6.52D-01
 TightC=F SS=  1.41D+00  RLast= 1.39D-01 DXNew= 5.0454D-01 4.1705D-01
 Trust test= 6.52D-01 RLast= 1.39D-01 DXMaxT set to 4.17D-01
 The second derivative matrix:
                          R1        R2        R3        A1        A2
           R1           0.88871
           R2           0.00381   0.41351
           R3          -0.00155   0.00147   0.54738
           A1           0.01867   0.01498  -0.00608   0.34569
           A2          -0.01113   0.00444  -0.00184  -0.04784   0.15983
           D1           0.00033   0.00059  -0.00024   0.00192  -0.00155
                          D1
           D1           0.01876
 ITU=  1  0
 Use linear search instead of GDIIS.
     Eigenvalues ---    0.01874   0.14793   0.35336   0.41667   0.54756
     Eigenvalues ---    0.88962
 RFO step:  Lambda=-2.02716345D-04 EMin= 1.87407903D-02
 Quartic linear search produced a step of -0.24342.
 Iteration  1 RMS(Cart)=  0.01985821 RMS(Int)=  0.00025724
 Iteration  2 RMS(Cart)=  0.00021264 RMS(Int)=  0.00000002
 Iteration  3 RMS(Cart)=  0.00000002 RMS(Int)=  0.00000000
 Variable       Old X    -DE/DX   Delta X   Delta X   Delta X     New X
                                 (Linear)    (Quad)   (Total)
    R1        2.78165  -0.00209  -0.00205   0.00064  -0.00141   2.78024
    R2        3.11966  -0.00210   0.00251  -0.00670  -0.00420   3.11547
    R3        1.82335   0.00085  -0.00079   0.00209   0.00130   1.82466
    A1        1.93050  -0.01060  -0.03031   0.00199  -0.02831   1.90219
    A2        1.86251   0.00627  -0.00449   0.03446   0.02996   1.89247
    D1       -0.49032   0.00003  -0.01398   0.00316  -0.01082  -0.50113
         Item               Value     Threshold  Converged?
 Maximum Force            0.010603     0.000450     NO 
 RMS     Force            0.005184     0.000300     NO 
 Maximum Displacement     0.024681     0.001800     NO 
 RMS     Displacement     0.019875     0.001200     NO 
 Predicted change in Energy=-2.399019D-04
 GradGradGradGradGradGradGradGradGradGradGradGradGradGradGradGradGradGrad

                          Input orientation:                          
 ---------------------------------------------------------------------
 Center     Atomic      Atomic             Coordinates (Angstroms)
 Number     Number       Type             X           Y           Z
 ---------------------------------------------------------------------
      1         16           0        3.874542    0.294789    0.411438
      2          8           0        3.755344   -1.170527    0.467834
      3          8           0        4.257750    0.742931   -1.128144
      4          1           0        4.752148    0.023776   -1.541310
 ---------------------------------------------------------------------
                    Distance matrix (angstroms):
                    1          2          3          4
     1  S    0.000000
     2  O    1.471237   0.000000
     3  O    1.648634   2.541826   0.000000
     4  H    2.157977   2.540991   0.965567   0.000000
 Stoichiometry    HO2S(2)
 Framework group  C1[X(HO2S)]
 Deg. of freedom     6
 Full point group                 C1      NOp   1
 Largest Abelian subgroup         C1      NOp   1
 Largest concise Abelian subgroup C1      NOp   1
                         Standard orientation:                         
 ---------------------------------------------------------------------
 Center     Atomic      Atomic             Coordinates (Angstroms)
 Number     Number       Type             X           Y           Z
 ---------------------------------------------------------------------
      1         16           0        0.144716   -0.476585    0.019851
      2          8           0        1.195778    0.551931   -0.024452
      3          8           0       -1.328877    0.258729   -0.056509
      4          1           0       -1.250657    1.140067    0.330071
 ---------------------------------------------------------------------
 Rotational constants (GHZ):          34.5653085           9.4353108           7.4486395
 Standard basis: 6-311+G(2d,2p) (5D, 7F)
 There are   104 symmetry adapted cartesian basis functions of A   symmetry.
 There are    98 symmetry adapted basis functions of A   symmetry.
    98 basis functions,   151 primitive gaussians,   104 cartesian basis functions
    17 alpha electrons       16 beta electrons
       nuclear repulsion energy       110.4225563276 Hartrees.
 NAtoms=    4 NActive=    4 NUniq=    4 SFac= 1.00D+00 NAtFMM=   60 NAOKFM=F Big=F
 Integral buffers will be    131072 words long.
 Raffenetti 2 integral format.
 Two-electron integral symmetry is turned on.
 Nuclear repulsion after empirical dispersion term =      110.4222947580 Hartrees.
 One-electron integrals computed using PRISM.
 NBasis=    98 RedAO= T EigKep=  2.64D-03  NBF=    98
 NBsUse=    98 1.00D-06 EigRej= -1.00D+00 NBFU=    98
 Initial guess from the checkpoint file:  "hso2.chk"
 B after Tr=    -0.000000   -0.000000    0.000000
         Rot=    0.999996   -0.000657    0.000163   -0.002888 Ang=  -0.34 deg.
 Initial guess <Sx>= 0.0000 <Sy>= 0.0000 <Sz>= 0.5000 <S**2>= 0.7550 S= 0.5025
 ExpMin= 4.05D-02 ExpMax= 9.34D+04 ExpMxC= 3.17D+03 IAcc=2 IRadAn=         4 AccDes= 0.00D+00
 Harris functional with IExCor= 4639 and IRadAn=       4 diagonalized for initial guess.
 HarFok:  IExCor= 4639 AccDes= 0.00D+00 IRadAn=         4 IDoV= 1 UseB2=F ITyADJ=14
 ICtDFT=  3500011 ScaDFX=  1.000000  1.000000  1.000000  1.000000
 FoFCou: FMM=F IPFlag=           0 FMFlag=      100000 FMFlg1=           0
         NFxFlg=           0 DoJE=T BraDBF=F KetDBF=T FulRan=T
         wScrn=  0.000000 ICntrl=       500 IOpCl=  0 I1Cent=   200000004 NGrid=           0
         NMat0=    1 NMatS0=      1 NMatT0=    0 NMatD0=    1 NMtDS0=    0 NMtDT0=    0
 Petite list used in FoFCou.
 Keep R1 and R2 ints in memory in canonical form, NReq=67519019.
 Requested convergence on RMS density matrix=1.00D-08 within  32 cycles.
 Requested convergence on MAX density matrix=1.00D-06.
 Requested convergence on             energy=1.00D-06.
 No special actions if energy rises.
 SCF Done:  E(UwB97XD) =  -549.205722439     A.U. after   13 cycles
            NFock= 13  Conv=0.45D-08     -V/T= 2.0017
 <Sx>= 0.0000 <Sy>= 0.0000 <Sz>= 0.5000 <S**2>= 0.7550 S= 0.5025
 <L.S>= 0.000000000000E+00
 Annihilation of the first spin contaminant:
 S**2 before annihilation     0.7550,   after     0.7500
 QCSCF skips out because SCF is already converged.
 Calling FoFJK, ICntrl=      2127 FMM=F ISym2X=0 I1Cent= 0 IOpClX= 1 NMat=1 NMatS=1 NMatT=0.
 ***** Axes restored to original set *****
 -------------------------------------------------------------------
 Center     Atomic                   Forces (Hartrees/Bohr)
 Number     Number              X              Y              Z
 -------------------------------------------------------------------
      1       16           0.000421902    0.000674650   -0.002485444
      2        8           0.000097755    0.000411959   -0.000118685
      3        8          -0.000120451   -0.001781827    0.002703721
      4        1          -0.000399206    0.000695218   -0.000099592
 -------------------------------------------------------------------
 Cartesian Forces:  Max     0.002703721 RMS     0.001230043

 GradGradGradGradGradGradGradGradGradGradGradGradGradGradGradGradGradGrad
 Berny optimization.
 Using GEDIIS/GDIIS optimizer.
 FormGI is forming the generalized inverse of G from B-inverse, IUseBI=4.
 Internal  Forces:  Max     0.002848505 RMS     0.001256709
 Search for a local minimum.
 Step number   3 out of a maximum of   20
 All quantities printed in internal units (Hartrees-Bohrs-Radians)
 Mixed Optimization -- RFO/linear search
 Update second derivatives using D2CorX and points    1    2    3
 DE= -2.72D-04 DEPred=-2.40D-04 R= 1.13D+00
 TightC=F SS=  1.41D+00  RLast= 4.29D-02 DXNew= 7.0139D-01 1.2861D-01
 Trust test= 1.13D+00 RLast= 4.29D-02 DXMaxT set to 4.17D-01
 The second derivative matrix:
                          R1        R2        R3        A1        A2
           R1           0.88646
           R2          -0.00435   0.39675
           R3          -0.00256   0.00820   0.55266
           A1           0.00977  -0.03488  -0.01966   0.32657
           A2          -0.00524   0.04684   0.00950  -0.03891   0.15302
           D1          -0.00030  -0.00066   0.00015  -0.00168   0.00127
                          D1
           D1           0.01866
 ITU=  1  1  0
 Use linear search instead of GDIIS.
     Eigenvalues ---    0.01864   0.13867   0.31283   0.42137   0.55584
     Eigenvalues ---    0.88676
 RFO step:  Lambda=-2.71851141D-05 EMin= 1.86407514D-02
 Quartic linear search produced a step of  0.09139.
 Iteration  1 RMS(Cart)=  0.00416641 RMS(Int)=  0.00001884
 Iteration  2 RMS(Cart)=  0.00001654 RMS(Int)=  0.00000000
 Iteration  3 RMS(Cart)=  0.00000000 RMS(Int)=  0.00000000
 Variable       Old X    -DE/DX   Delta X   Delta X   Delta X     New X
                                 (Linear)    (Quad)   (Total)
    R1        2.78024  -0.00042  -0.00013  -0.00033  -0.00046   2.77977
    R2        3.11547  -0.00285  -0.00038  -0.00770  -0.00809   3.10738
    R3        1.82466  -0.00068   0.00012  -0.00139  -0.00128   1.82338
    A1        1.90219  -0.00032  -0.00259   0.00161  -0.00098   1.90121
    A2        1.89247   0.00077   0.00274   0.00451   0.00725   1.89972
    D1       -0.50113   0.00015  -0.00099   0.00803   0.00704  -0.49409
         Item               Value     Threshold  Converged?
 Maximum Force            0.002849     0.000450     NO 
 RMS     Force            0.001257     0.000300     NO 
 Maximum Displacement     0.006431     0.001800     NO 
 RMS     Displacement     0.004163     0.001200     NO 
 Predicted change in Energy=-1.554613D-05
 GradGradGradGradGradGradGradGradGradGradGradGradGradGradGradGradGradGrad

                          Input orientation:                          
 ---------------------------------------------------------------------
 Center     Atomic      Atomic             Coordinates (Angstroms)
 Number     Number       Type             X           Y           Z
 ---------------------------------------------------------------------
      1         16           0        3.872935    0.295708    0.410299
      2          8           0        3.756578   -1.169572    0.467178
      3          8           0        4.259278    0.741010   -1.124741
      4          1           0        4.750994    0.023821   -1.542918
 ---------------------------------------------------------------------
                    Distance matrix (angstroms):
                    1          2          3          4
     1  S    0.000000
     2  O    1.470993   0.000000
     3  O    1.644355   2.537171   0.000000
     4  H    2.158695   2.540380   0.964892   0.000000
 Stoichiometry    HO2S(2)
 Framework group  C1[X(HO2S)]
 Deg. of freedom     6
 Full point group                 C1      NOp   1
 Largest Abelian subgroup         C1      NOp   1
 Largest concise Abelian subgroup C1      NOp   1
                         Standard orientation:                         
 ---------------------------------------------------------------------
 Center     Atomic      Atomic             Coordinates (Angstroms)
 Number     Number       Type             X           Y           Z
 ---------------------------------------------------------------------
      1         16           0        0.143436   -0.476585    0.019583
      2          8           0        1.194795    0.551307   -0.024020
      3          8           0       -1.325283    0.259012   -0.055689
      4          1           0       -1.251080    1.142801    0.324346
 ---------------------------------------------------------------------
 Rotational constants (GHZ):          34.5861510           9.4717198           7.4710812
 Standard basis: 6-311+G(2d,2p) (5D, 7F)
 There are   104 symmetry adapted cartesian basis functions of A   symmetry.
 There are    98 symmetry adapted basis functions of A   symmetry.
    98 basis functions,   151 primitive gaussians,   104 cartesian basis functions
    17 alpha electrons       16 beta electrons
       nuclear repulsion energy       110.5637474323 Hartrees.
 NAtoms=    4 NActive=    4 NUniq=    4 SFac= 1.00D+00 NAtFMM=   60 NAOKFM=F Big=F
 Integral buffers will be    131072 words long.
 Raffenetti 2 integral format.
 Two-electron integral symmetry is turned on.
 Nuclear repulsion after empirical dispersion term =      110.5634866589 Hartrees.
 One-electron integrals computed using PRISM.
 NBasis=    98 RedAO= T EigKep=  2.63D-03  NBF=    98
 NBsUse=    98 1.00D-06 EigRej= -1.00D+00 NBFU=    98
 Initial guess from the checkpoint file:  "hso2.chk"
 B after Tr=     0.000000   -0.000000   -0.000000
         Rot=    1.000000    0.000110    0.000071    0.000351 Ang=   0.04 deg.
 Initial guess <Sx>= 0.0000 <Sy>= 0.0000 <Sz>= 0.5000 <S**2>= 0.7550 S= 0.5025
 Keep R1 and R2 ints in memory in canonical form, NReq=67519019.
 Requested convergence on RMS density matrix=1.00D-08 within  32 cycles.
 Requested convergence on MAX density matrix=1.00D-06.
 Requested convergence on             energy=1.00D-06.
 No special actions if energy rises.
 SCF Done:  E(UwB97XD) =  -549.205743308     A.U. after   12 cycles
            NFock= 12  Conv=0.56D-08     -V/T= 2.0016
 <Sx>= 0.0000 <Sy>= 0.0000 <Sz>= 0.5000 <S**2>= 0.7550 S= 0.5025
 <L.S>= 0.000000000000E+00
 Annihilation of the first spin contaminant:
 S**2 before annihilation     0.7550,   after     0.7500
 QCSCF skips out because SCF is already converged.
 Calling FoFJK, ICntrl=      2127 FMM=F ISym2X=0 I1Cent= 0 IOpClX= 1 NMat=1 NMatS=1 NMatT=0.
 ***** Axes restored to original set *****
 -------------------------------------------------------------------
 Center     Atomic                   Forces (Hartrees/Bohr)
 Number     Number              X              Y              Z
 -------------------------------------------------------------------
      1       16           0.000244149    0.000312146   -0.001177246
      2        8           0.000004314   -0.000043877    0.000070624
      3        8          -0.000133848   -0.000333055    0.001102226
      4        1          -0.000114615    0.000064785    0.000004396
 -------------------------------------------------------------------
 Cartesian Forces:  Max     0.001177246 RMS     0.000492526

 GradGradGradGradGradGradGradGradGradGradGradGradGradGradGradGradGradGrad
 Berny optimization.
 Using GEDIIS/GDIIS optimizer.
 FormGI is forming the generalized inverse of G from B-inverse, IUseBI=4.
 Internal  Forces:  Max     0.001164557 RMS     0.000485714
 Search for a local minimum.
 Step number   4 out of a maximum of   20
 All quantities printed in internal units (Hartrees-Bohrs-Radians)
 Mixed Optimization -- En-DIIS/RFO-DIIS
 Update second derivatives using D2CorX and points    1    2    3    4
 DE= -2.09D-05 DEPred=-1.55D-05 R= 1.34D+00
 TightC=F SS=  1.41D+00  RLast= 1.31D-02 DXNew= 7.0139D-01 3.9156D-02
 Trust test= 1.34D+00 RLast= 1.31D-02 DXMaxT set to 4.17D-01
 The second derivative matrix:
                          R1        R2        R3        A1        A2
           R1           0.89088
           R2          -0.00336   0.28091
           R3           0.00157  -0.00342   0.55521
           A1           0.01581  -0.02020  -0.01047   0.32807
           A2          -0.01091   0.06839   0.01100  -0.05033   0.17227
           D1           0.00182   0.00936   0.00281   0.00246  -0.00015
                          D1
           D1           0.01822
 ITU=  1  1  1  0
 Use linear search instead of GDIIS.
     Eigenvalues ---    0.01780   0.13197   0.28396   0.36406   0.55618
     Eigenvalues ---    0.89159
 RFO step:  Lambda=-1.44821397D-06 EMin= 1.78000499D-02
 Quartic linear search produced a step of  0.46565.
 Iteration  1 RMS(Cart)=  0.00262195 RMS(Int)=  0.00000740
 Iteration  2 RMS(Cart)=  0.00000738 RMS(Int)=  0.00000000
 Iteration  3 RMS(Cart)=  0.00000000 RMS(Int)=  0.00000000
 Variable       Old X    -DE/DX   Delta X   Delta X   Delta X     New X
                                 (Linear)    (Quad)   (Total)
    R1        2.77977   0.00005  -0.00022   0.00026   0.00004   2.77981
    R2        3.10738  -0.00116  -0.00377  -0.00095  -0.00471   3.10267
    R3        1.82338  -0.00011  -0.00059   0.00031  -0.00028   1.82310
    A1        1.90121   0.00018  -0.00046   0.00100   0.00054   1.90176
    A2        1.89972   0.00004   0.00338  -0.00127   0.00211   1.90183
    D1       -0.49409   0.00010   0.00328   0.00306   0.00634  -0.48775
         Item               Value     Threshold  Converged?
 Maximum Force            0.001165     0.000450     NO 
 RMS     Force            0.000486     0.000300     NO 
 Maximum Displacement     0.003464     0.001800     NO 
 RMS     Displacement     0.002620     0.001200     NO 
 Predicted change in Energy=-3.375187D-06
 GradGradGradGradGradGradGradGradGradGradGradGradGradGradGradGradGradGrad

                          Input orientation:                          
 ---------------------------------------------------------------------
 Center     Atomic      Atomic             Coordinates (Angstroms)
 Number     Number       Type             X           Y           Z
 ---------------------------------------------------------------------
      1         16           0        3.871841    0.296128    0.409005
      2          8           0        3.757615   -1.169302    0.466896
      3          8           0        4.260632    0.740862   -1.122908
      4          1           0        4.749696    0.023281   -1.543175
 ---------------------------------------------------------------------
                    Distance matrix (angstroms):
                    1          2          3          4
     1  S    0.000000
     2  O    1.471014   0.000000
     3  O    1.641861   2.535593   0.000000
     4  H    2.157796   2.539067   0.964744   0.000000
 Stoichiometry    HO2S(2)
 Framework group  C1[X(HO2S)]
 Deg. of freedom     6
 Full point group                 C1      NOp   1
 Largest Abelian subgroup         C1      NOp   1
 Largest concise Abelian subgroup C1      NOp   1
                         Standard orientation:                         
 ---------------------------------------------------------------------
 Center     Atomic      Atomic             Coordinates (Angstroms)
 Number     Number       Type             X           Y           Z
 ---------------------------------------------------------------------
      1         16           0        0.142370   -0.476330    0.019382
      2          8           0        1.195035    0.550277   -0.023741
      3          8           0       -1.323607    0.259252   -0.055012
      4          1           0       -1.249347    1.145053    0.319919
 ---------------------------------------------------------------------
 Rotational constants (GHZ):          34.6415217           9.4859442           7.4815902
 Standard basis: 6-311+G(2d,2p) (5D, 7F)
 There are   104 symmetry adapted cartesian basis functions of A   symmetry.
 There are    98 symmetry adapted basis functions of A   symmetry.
    98 basis functions,   151 primitive gaussians,   104 cartesian basis functions
    17 alpha electrons       16 beta electrons
       nuclear repulsion energy       110.6371291021 Hartrees.
 NAtoms=    4 NActive=    4 NUniq=    4 SFac= 1.00D+00 NAtFMM=   60 NAOKFM=F Big=F
 Integral buffers will be    131072 words long.
 Raffenetti 2 integral format.
 Two-electron integral symmetry is turned on.
 Nuclear repulsion after empirical dispersion term =      110.6368688750 Hartrees.
 One-electron integrals computed using PRISM.
 NBasis=    98 RedAO= T EigKep=  2.62D-03  NBF=    98
 NBsUse=    98 1.00D-06 EigRej= -1.00D+00 NBFU=    98
 Initial guess from the checkpoint file:  "hso2.chk"
 B after Tr=    -0.000000    0.000000    0.000000
         Rot=    1.000000    0.000111    0.000020    0.000415 Ang=   0.05 deg.
 Initial guess <Sx>= 0.0000 <Sy>= 0.0000 <Sz>= 0.5000 <S**2>= 0.7550 S= 0.5025
 Keep R1 and R2 ints in memory in canonical form, NReq=67519019.
 Requested convergence on RMS density matrix=1.00D-08 within  32 cycles.
 Requested convergence on MAX density matrix=1.00D-06.
 Requested convergence on             energy=1.00D-06.
 No special actions if energy rises.
 SCF Done:  E(UwB97XD) =  -549.205746926     A.U. after   11 cycles
            NFock= 11  Conv=0.94D-08     -V/T= 2.0016
 <Sx>= 0.0000 <Sy>= 0.0000 <Sz>= 0.5000 <S**2>= 0.7550 S= 0.5025
 <L.S>= 0.000000000000E+00
 Annihilation of the first spin contaminant:
 S**2 before annihilation     0.7550,   after     0.7500
 QCSCF skips out because SCF is already converged.
 Calling FoFJK, ICntrl=      2127 FMM=F ISym2X=0 I1Cent= 0 IOpClX= 1 NMat=1 NMatS=1 NMatT=0.
 ***** Axes restored to original set *****
 -------------------------------------------------------------------
 Center     Atomic                   Forces (Hartrees/Bohr)
 Number     Number              X              Y              Z
 -------------------------------------------------------------------
      1       16           0.000005105    0.000118554   -0.000068636
      2        8           0.000004457   -0.000114639    0.000004068
      3        8           0.000021169    0.000061195    0.000074401
      4        1          -0.000030731   -0.000065110   -0.000009833
 -------------------------------------------------------------------
 Cartesian Forces:  Max     0.000118554 RMS     0.000062569

 GradGradGradGradGradGradGradGradGradGradGradGradGradGradGradGradGradGrad
 Berny optimization.
 Using GEDIIS/GDIIS optimizer.
 FormGI is forming the generalized inverse of G from B-inverse, IUseBI=4.
 Internal  Forces:  Max     0.000115188 RMS     0.000067465
 Search for a local minimum.
 Step number   5 out of a maximum of   20
 All quantities printed in internal units (Hartrees-Bohrs-Radians)
 Mixed Optimization -- En-DIIS/RFO-DIIS
 Swapping is turned off.
 Update second derivatives using D2CorX and points    1    2    3    4    5
 DE= -3.62D-06 DEPred=-3.38D-06 R= 1.07D+00
 TightC=F SS=  1.41D+00  RLast= 8.20D-03 DXNew= 7.0139D-01 2.4599D-02
 Trust test= 1.07D+00 RLast= 8.20D-03 DXMaxT set to 4.17D-01
 The second derivative matrix:
                          R1        R2        R3        A1        A2
           R1           0.89258
           R2           0.02006   0.27892
           R3           0.00577   0.00576   0.55974
           A1           0.00954  -0.01646  -0.01407   0.32472
           A2          -0.01068   0.05197   0.00895  -0.03312   0.16804
           D1           0.00140   0.01807   0.00425   0.00047   0.00108
                          D1
           D1           0.01756
 ITU=  1  1  1  1  0
     Eigenvalues ---    0.01624   0.14384   0.28340   0.34340   0.56109
     Eigenvalues ---    0.89361
 En-DIIS/RFO-DIIS/Sim-DIIS IScMMF=       -3 using points:     5    4
 RFO step:  Lambda=-4.07456799D-07.
 DidBck=F Rises=F RFO-DIIS coefs:    1.47179   -0.47179
 Iteration  1 RMS(Cart)=  0.00176412 RMS(Int)=  0.00000345
 Iteration  2 RMS(Cart)=  0.00000341 RMS(Int)=  0.00000000
 Iteration  3 RMS(Cart)=  0.00000000 RMS(Int)=  0.00000000
 Variable       Old X    -DE/DX   Delta X   Delta X   Delta X     New X
                                 (Linear)    (Quad)   (Total)
    R1        2.77981   0.00012   0.00002   0.00011   0.00013   2.77995
    R2        3.10267  -0.00006  -0.00222   0.00171  -0.00051   3.10216
    R3        1.82310   0.00004  -0.00013   0.00017   0.00003   1.82314
    A1        1.90176  -0.00001   0.00026  -0.00034  -0.00008   1.90167
    A2        1.90183  -0.00006   0.00099  -0.00121  -0.00022   1.90161
    D1       -0.48775   0.00007   0.00299   0.00171   0.00470  -0.48305
         Item               Value     Threshold  Converged?
 Maximum Force            0.000115     0.000450     YES
 RMS     Force            0.000067     0.000300     YES
 Maximum Displacement     0.002008     0.001800     NO 
 RMS     Displacement     0.001763     0.001200     NO 
 Predicted change in Energy=-2.037302D-07
 GradGradGradGradGradGradGradGradGradGradGradGradGradGradGradGradGradGrad

                          Input orientation:                          
 ---------------------------------------------------------------------
 Center     Atomic      Atomic             Coordinates (Angstroms)
 Number     Number       Type             X           Y           Z
 ---------------------------------------------------------------------
      1         16           0        3.870947    0.296388    0.408695
      2          8           0        3.758475   -1.169252    0.466473
      3          8           0        4.261695    0.741330   -1.122371
      4          1           0        4.748667    0.022502   -1.542978
 ---------------------------------------------------------------------
                    Distance matrix (angstroms):
                    1          2          3          4
     1  S    0.000000
     2  O    1.471084   0.000000
     3  O    1.641591   2.535346   0.000000
     4  H    2.157414   2.537450   0.964762   0.000000
 Stoichiometry    HO2S(2)
 Framework group  C1[X(HO2S)]
 Deg. of freedom     6
 Full point group                 C1      NOp   1
 Largest Abelian subgroup         C1      NOp   1
 Largest concise Abelian subgroup C1      NOp   1
                         Standard orientation:                         
 ---------------------------------------------------------------------
 Center     Atomic      Atomic             Coordinates (Angstroms)
 Number     Number       Type             X           Y           Z
 ---------------------------------------------------------------------
      1         16           0        0.142213   -0.476407    0.019231
      2          8           0        1.194980    0.550207   -0.023574
      3          8           0       -1.323432    0.259302   -0.054515
      4          1           0       -1.247797    1.146439    0.317013
 ---------------------------------------------------------------------
 Rotational constants (GHZ):          34.6374570           9.4890858           7.4827353
 Standard basis: 6-311+G(2d,2p) (5D, 7F)
 There are   104 symmetry adapted cartesian basis functions of A   symmetry.
 There are    98 symmetry adapted basis functions of A   symmetry.
    98 basis functions,   151 primitive gaussians,   104 cartesian basis functions
    17 alpha electrons       16 beta electrons
       nuclear repulsion energy       110.6447050259 Hartrees.
 NAtoms=    4 NActive=    4 NUniq=    4 SFac= 1.00D+00 NAtFMM=   60 NAOKFM=F Big=F
 Integral buffers will be    131072 words long.
 Raffenetti 2 integral format.
 Two-electron integral symmetry is turned on.
 Nuclear repulsion after empirical dispersion term =      110.6444450855 Hartrees.
 One-electron integrals computed using PRISM.
 NBasis=    98 RedAO= T EigKep=  2.62D-03  NBF=    98
 NBsUse=    98 1.00D-06 EigRej= -1.00D+00 NBFU=    98
 Initial guess from the checkpoint file:  "hso2.chk"
 B after Tr=    -0.000000   -0.000000    0.000000
         Rot=    1.000000    0.000051   -0.000014    0.000088 Ang=   0.01 deg.
 Initial guess <Sx>= 0.0000 <Sy>= 0.0000 <Sz>= 0.5000 <S**2>= 0.7550 S= 0.5025
 Keep R1 and R2 ints in memory in canonical form, NReq=67519019.
 Requested convergence on RMS density matrix=1.00D-08 within  32 cycles.
 Requested convergence on MAX density matrix=1.00D-06.
 Requested convergence on             energy=1.00D-06.
 No special actions if energy rises.
 SCF Done:  E(UwB97XD) =  -549.205747358     A.U. after   10 cycles
            NFock= 10  Conv=0.83D-08     -V/T= 2.0016
 <Sx>= 0.0000 <Sy>= 0.0000 <Sz>= 0.5000 <S**2>= 0.7550 S= 0.5025
 <L.S>= 0.000000000000E+00
 Annihilation of the first spin contaminant:
 S**2 before annihilation     0.7550,   after     0.7500
 QCSCF skips out because SCF is already converged.
 Calling FoFJK, ICntrl=      2127 FMM=F ISym2X=0 I1Cent= 0 IOpClX= 1 NMat=1 NMatS=1 NMatT=0.
 ***** Axes restored to original set *****
 -------------------------------------------------------------------
 Center     Atomic                   Forces (Hartrees/Bohr)
 Number     Number              X              Y              Z
 -------------------------------------------------------------------
      1       16          -0.000033764    0.000044196    0.000074808
      2        8           0.000008840   -0.000060333   -0.000008974
      3        8           0.000054706    0.000067388   -0.000048785
      4        1          -0.000029782   -0.000051251   -0.000017049
 -------------------------------------------------------------------
 Cartesian Forces:  Max     0.000074808 RMS     0.000046732

 GradGradGradGradGradGradGradGradGradGradGradGradGradGradGradGradGradGrad
 Berny optimization.
 Using GEDIIS/GDIIS optimizer.
 FormGI is forming the generalized inverse of G from B-inverse, IUseBI=4.
 Internal  Forces:  Max     0.000071192 RMS     0.000052484
 Search for a local minimum.
 Step number   6 out of a maximum of   20
 All quantities printed in internal units (Hartrees-Bohrs-Radians)
 Mixed Optimization -- En-DIIS/RFO-DIIS
 Swapping is turned off.
 Update second derivatives using D2CorX and points    1    2    3    4    5
                                                      6
 DE= -4.32D-07 DEPred=-2.04D-07 R= 2.12D+00
 Trust test= 2.12D+00 RLast= 4.74D-03 DXMaxT set to 4.17D-01
 The second derivative matrix:
                          R1        R2        R3        A1        A2
           R1           0.88421
           R2          -0.02670   0.47601
           R3          -0.00112   0.01056   0.55958
           A1           0.02256  -0.06383  -0.01448   0.33491
           A2          -0.00306   0.07375   0.01534  -0.04371   0.15997
           D1          -0.01561   0.02570  -0.00104   0.00292   0.00928
                          D1
           D1           0.00512
 ITU=  0  1  1  1  1  0
     Eigenvalues ---    0.00310   0.13888   0.31125   0.51183   0.56696
     Eigenvalues ---    0.88778
 En-DIIS/RFO-DIIS/Sim-DIIS IScMMF=       -3 using points:     6    5    4
 RFO step:  Lambda=-1.45831503D-06.
 DIIS inversion failure, remove point   3.
 RFO-DIIS uses    2 points instead of    3
 DidBck=F Rises=F RFO-DIIS coefs:    3.00000   -2.00000    0.00000
 Iteration  1 RMS(Cart)=  0.00795894 RMS(Int)=  0.00007218
 Iteration  2 RMS(Cart)=  0.00007134 RMS(Int)=  0.00000000
 Iteration  3 RMS(Cart)=  0.00000000 RMS(Int)=  0.00000000
 Variable       Old X    -DE/DX   Delta X   Delta X   Delta X     New X
                                 (Linear)    (Quad)   (Total)
    R1        2.77995   0.00006   0.00026   0.00017   0.00043   2.78038
    R2        3.10216   0.00007  -0.00102   0.00014  -0.00088   3.10127
    R3        1.82314   0.00003   0.00007   0.00006   0.00013   1.82326
    A1        1.90167  -0.00004  -0.00017  -0.00048  -0.00065   1.90102
    A2        1.90161  -0.00003  -0.00043  -0.00078  -0.00121   1.90040
    D1       -0.48305   0.00007   0.00941   0.01197   0.02138  -0.46167
         Item               Value     Threshold  Converged?
 Maximum Force            0.000071     0.000450     YES
 RMS     Force            0.000052     0.000300     YES
 Maximum Displacement     0.009323     0.001800     NO 
 RMS     Displacement     0.007943     0.001200     NO 
 Predicted change in Energy=-7.291842D-07
 GradGradGradGradGradGradGradGradGradGradGradGradGradGradGradGradGradGrad

                          Input orientation:                          
 ---------------------------------------------------------------------
 Center     Atomic      Atomic             Coordinates (Angstroms)
 Number     Number       Type             X           Y           Z
 ---------------------------------------------------------------------
      1         16           0        3.866762    0.297461    0.407651
      2          8           0        3.762354   -1.169035    0.464629
      3          8           0        4.266629    0.743518   -1.120232
      4          1           0        4.744040    0.019025   -1.542230
 ---------------------------------------------------------------------
                    Distance matrix (angstroms):
                    1          2          3          4
     1  S    0.000000
     2  O    1.471312   0.000000
     3  O    1.641124   2.534548   0.000000
     4  H    2.156196   2.530351   0.964829   0.000000
 Stoichiometry    HO2S(2)
 Framework group  C1[X(HO2S)]
 Deg. of freedom     6
 Full point group                 C1      NOp   1
 Largest Abelian subgroup         C1      NOp   1
 Largest concise Abelian subgroup C1      NOp   1
                         Standard orientation:                         
 ---------------------------------------------------------------------
 Center     Atomic      Atomic             Coordinates (Angstroms)
 Number     Number       Type             X           Y           Z
 ---------------------------------------------------------------------
      1         16           0        0.141887   -0.476859    0.018528
      2          8           0        1.194511    0.550289   -0.022796
      3          8           0       -1.323115    0.259382   -0.052236
      4          1           0       -1.241365    1.152377    0.303813
 ---------------------------------------------------------------------
 Rotational constants (GHZ):          34.5992579           9.5002794           7.4851487
 Standard basis: 6-311+G(2d,2p) (5D, 7F)
 There are   104 symmetry adapted cartesian basis functions of A   symmetry.
 There are    98 symmetry adapted basis functions of A   symmetry.
    98 basis functions,   151 primitive gaussians,   104 cartesian basis functions
    17 alpha electrons       16 beta electrons
       nuclear repulsion energy       110.6601050203 Hartrees.
 NAtoms=    4 NActive=    4 NUniq=    4 SFac= 1.00D+00 NAtFMM=   60 NAOKFM=F Big=F
 Integral buffers will be    131072 words long.
 Raffenetti 2 integral format.
 Two-electron integral symmetry is turned on.
 Nuclear repulsion after empirical dispersion term =      110.6598462509 Hartrees.
 One-electron integrals computed using PRISM.
 NBasis=    98 RedAO= T EigKep=  2.62D-03  NBF=    98
 NBsUse=    98 1.00D-06 EigRej= -1.00D+00 NBFU=    98
 Initial guess from the checkpoint file:  "hso2.chk"
 B after Tr=     0.000000   -0.000000    0.000000
         Rot=    1.000000    0.000206   -0.000067    0.000241 Ang=   0.04 deg.
 Initial guess <Sx>= 0.0000 <Sy>= 0.0000 <Sz>= 0.5000 <S**2>= 0.7550 S= 0.5025
 Keep R1 and R2 ints in memory in canonical form, NReq=67519019.
 Requested convergence on RMS density matrix=1.00D-08 within  32 cycles.
 Requested convergence on MAX density matrix=1.00D-06.
 Requested convergence on             energy=1.00D-06.
 No special actions if energy rises.
 SCF Done:  E(UwB97XD) =  -549.205748707     A.U. after   12 cycles
            NFock= 12  Conv=0.69D-08     -V/T= 2.0016
 <Sx>= 0.0000 <Sy>= 0.0000 <Sz>= 0.5000 <S**2>= 0.7550 S= 0.5025
 <L.S>= 0.000000000000E+00
 Annihilation of the first spin contaminant:
 S**2 before annihilation     0.7550,   after     0.7500
 QCSCF skips out because SCF is already converged.
 Calling FoFJK, ICntrl=      2127 FMM=F ISym2X=0 I1Cent= 0 IOpClX= 1 NMat=1 NMatS=1 NMatT=0.
 ***** Axes restored to original set *****
 -------------------------------------------------------------------
 Center     Atomic                   Forces (Hartrees/Bohr)
 Number     Number              X              Y              Z
 -------------------------------------------------------------------
      1       16          -0.000111312   -0.000173131    0.000349755
      2        8           0.000015786    0.000117457   -0.000029462
      3        8           0.000121287    0.000061677   -0.000285263
      4        1          -0.000025761   -0.000006004   -0.000035030
 -------------------------------------------------------------------
 Cartesian Forces:  Max     0.000349755 RMS     0.000153140

 GradGradGradGradGradGradGradGradGradGradGradGradGradGradGradGradGradGrad
 Berny optimization.
 Using GEDIIS/GDIIS optimizer.
 FormGI is forming the generalized inverse of G from B-inverse, IUseBI=4.
 Internal  Forces:  Max     0.000336053 RMS     0.000150332
 Search for a local minimum.
 Step number   7 out of a maximum of   20
 All quantities printed in internal units (Hartrees-Bohrs-Radians)
 Mixed Optimization -- En-DIIS/RFO-DIIS
 Swapping is turned off.
 Update second derivatives using D2CorX and points    1    2    3    4    5
                                                      6    7
 DE= -1.35D-06 DEPred=-7.29D-07 R= 1.85D+00
 TightC=F SS=  1.41D+00  RLast= 2.14D-02 DXNew= 7.0139D-01 6.4335D-02
 Trust test= 1.85D+00 RLast= 2.14D-02 DXMaxT set to 4.17D-01
 The second derivative matrix:
                          R1        R2        R3        A1        A2
           R1           0.92419
           R2          -0.09101   0.46852
           R3           0.00427  -0.00788   0.56041
           A1           0.03117  -0.04024  -0.00872   0.32531
           A2          -0.02664   0.12492   0.01465  -0.05429   0.18178
           D1          -0.01466   0.01469  -0.00205   0.00619   0.01085
                          D1
           D1           0.00289
 ITU=  1  0  1  1  1  1  0
     Eigenvalues ---    0.00163   0.12761   0.31624   0.50779   0.56149
     Eigenvalues ---    0.94835
 En-DIIS/RFO-DIIS/Sim-DIIS IScMMF=       -3 using points:     7    6    5    4
 RFO step:  Lambda=-1.00103905D-06.
 DIIS inversion failure, remove point   4.
 DIIS inversion failure, remove point   3.
 RFO-DIIS uses    2 points instead of    4
 DidBck=F Rises=F RFO-DIIS coefs:    1.98671   -0.98671    0.00000    0.00000
 Iteration  1 RMS(Cart)=  0.00783216 RMS(Int)=  0.00007186
 Iteration  2 RMS(Cart)=  0.00007088 RMS(Int)=  0.00000000
 Iteration  3 RMS(Cart)=  0.00000000 RMS(Int)=  0.00000000
 Variable       Old X    -DE/DX   Delta X   Delta X   Delta X     New X
                                 (Linear)    (Quad)   (Total)
    R1        2.78038  -0.00012   0.00043  -0.00019   0.00023   2.78061
    R2        3.10127   0.00034  -0.00087   0.00132   0.00045   3.10172
    R3        1.82326   0.00001   0.00012  -0.00000   0.00012   1.82338
    A1        1.90102  -0.00007  -0.00064  -0.00021  -0.00085   1.90017
    A2        1.90040   0.00004  -0.00119  -0.00038  -0.00157   1.89883
    D1       -0.46167   0.00004   0.02109   0.00003   0.02112  -0.44055
         Item               Value     Threshold  Converged?
 Maximum Force            0.000336     0.000450     YES
 RMS     Force            0.000150     0.000300     YES
 Maximum Displacement     0.009423     0.001800     NO 
 RMS     Displacement     0.007818     0.001200     NO 
 Predicted change in Energy=-5.005784D-07
 GradGradGradGradGradGradGradGradGradGradGradGradGradGradGradGradGradGrad

                          Input orientation:                          
 ---------------------------------------------------------------------
 Center     Atomic      Atomic             Coordinates (Angstroms)
 Number     Number       Type             X           Y           Z
 ---------------------------------------------------------------------
      1         16           0        3.862526    0.298390    0.406909
      2          8           0        3.766162   -1.168820    0.462890
      3          8           0        4.271615    0.745749   -1.118404
      4          1           0        4.739482    0.015650   -1.541577
 ---------------------------------------------------------------------
                    Distance matrix (angstroms):
                    1          2          3          4
     1  S    0.000000
     2  O    1.471436   0.000000
     3  O    1.641361   2.534077   0.000000
     4  H    2.155363   2.523531   0.964892   0.000000
 Stoichiometry    HO2S(2)
 Framework group  C1[X(HO2S)]
 Deg. of freedom     6
 Full point group                 C1      NOp   1
 Largest Abelian subgroup         C1      NOp   1
 Largest concise Abelian subgroup C1      NOp   1
                         Standard orientation:                         
 ---------------------------------------------------------------------
 Center     Atomic      Atomic             Coordinates (Angstroms)
 Number     Number       Type             X           Y           Z
 ---------------------------------------------------------------------
      1         16           0        0.141918   -0.477379    0.017811
      2          8           0        1.193859    0.550705   -0.022001
      3          8           0       -1.323255    0.259330   -0.049963
      4          1           0       -1.235511    1.157792    0.290748
 ---------------------------------------------------------------------
 Rotational constants (GHZ):          34.5460046           9.5083367           7.4850221
 Standard basis: 6-311+G(2d,2p) (5D, 7F)
 There are   104 symmetry adapted cartesian basis functions of A   symmetry.
 There are    98 symmetry adapted basis functions of A   symmetry.
    98 basis functions,   151 primitive gaussians,   104 cartesian basis functions
    17 alpha electrons       16 beta electrons
       nuclear repulsion energy       110.6584970950 Hartrees.
 NAtoms=    4 NActive=    4 NUniq=    4 SFac= 1.00D+00 NAtFMM=   60 NAOKFM=F Big=F
 Integral buffers will be    131072 words long.
 Raffenetti 2 integral format.
 Two-electron integral symmetry is turned on.
 Nuclear repulsion after empirical dispersion term =      110.6582393846 Hartrees.
 One-electron integrals computed using PRISM.
 NBasis=    98 RedAO= T EigKep=  2.63D-03  NBF=    98
 NBsUse=    98 1.00D-06 EigRej= -1.00D+00 NBFU=    98
 Initial guess from the checkpoint file:  "hso2.chk"
 B after Tr=     0.000000   -0.000000   -0.000000
         Rot=    1.000000    0.000174   -0.000070    0.000095 Ang=   0.02 deg.
 Initial guess <Sx>= 0.0000 <Sy>= 0.0000 <Sz>= 0.5000 <S**2>= 0.7550 S= 0.5025
 Keep R1 and R2 ints in memory in canonical form, NReq=67519019.
 Requested convergence on RMS density matrix=1.00D-08 within  32 cycles.
 Requested convergence on MAX density matrix=1.00D-06.
 Requested convergence on             energy=1.00D-06.
 No special actions if energy rises.
 SCF Done:  E(UwB97XD) =  -549.205749758     A.U. after   12 cycles
            NFock= 12  Conv=0.59D-08     -V/T= 2.0016
 <Sx>= 0.0000 <Sy>= 0.0000 <Sz>= 0.5000 <S**2>= 0.7550 S= 0.5025
 <L.S>= 0.000000000000E+00
 Annihilation of the first spin contaminant:
 S**2 before annihilation     0.7550,   after     0.7500
 QCSCF skips out because SCF is already converged.
 Calling FoFJK, ICntrl=      2127 FMM=F ISym2X=0 I1Cent= 0 IOpClX= 1 NMat=1 NMatS=1 NMatT=0.
 ***** Axes restored to original set *****
 -------------------------------------------------------------------
 Center     Atomic                   Forces (Hartrees/Bohr)
 Number     Number              X              Y              Z
 -------------------------------------------------------------------
      1       16          -0.000099258   -0.000242604    0.000289010
      2        8           0.000010862    0.000206665   -0.000019249
      3        8           0.000113563    0.000000455   -0.000221414
      4        1          -0.000025168    0.000035483   -0.000048347
 -------------------------------------------------------------------
 Cartesian Forces:  Max     0.000289010 RMS     0.000147644

 GradGradGradGradGradGradGradGradGradGradGradGradGradGradGradGradGradGrad
 Berny optimization.
 Using GEDIIS/GDIIS optimizer.
 FormGI is forming the generalized inverse of G from B-inverse, IUseBI=4.
 Internal  Forces:  Max     0.000281954 RMS     0.000149602
 Search for a local minimum.
 Step number   8 out of a maximum of   20
 All quantities printed in internal units (Hartrees-Bohrs-Radians)
 Mixed Optimization -- En-DIIS/RFO-DIIS
 Swapping is turned off.
 Update second derivatives using D2CorX and points    2    3    4    5    6
                                                      7    8
 DE= -1.05D-06 DEPred=-5.01D-07 R= 2.10D+00
 TightC=F SS=  1.41D+00  RLast= 2.12D-02 DXNew= 7.0139D-01 6.3619D-02
 Trust test= 2.10D+00 RLast= 2.12D-02 DXMaxT set to 4.17D-01
 The second derivative matrix:
                          R1        R2        R3        A1        A2
           R1           0.97388
           R2          -0.07545   0.34419
           R3           0.02204  -0.02073   0.56509
           A1           0.02583  -0.01464  -0.00715   0.32291
           A2          -0.05774   0.10994   0.00186  -0.04854   0.19853
           D1          -0.00841   0.00380  -0.00199   0.00745   0.00820
                          D1
           D1           0.00180
 ITU=  1  1  0  1  1  1  1
     Eigenvalues ---    0.00112   0.13251   0.31473   0.40058   0.56534
     Eigenvalues ---    0.99211
 En-DIIS/RFO-DIIS/Sim-DIIS IScMMF=       -3 using points:     8    7    6    5    4
 RFO step:  Lambda=-5.79093391D-07.
 DIIS inversion failure, remove point   5.
 DIIS inversion failure, remove point   4.
 DIIS inversion failure, remove point   3.
 RFO-DIIS uses    2 points instead of    5
 DidBck=F Rises=F RFO-DIIS coefs:    1.80468   -0.80468    0.00000    0.00000    0.00000
 Iteration  1 RMS(Cart)=  0.00613452 RMS(Int)=  0.00004603
 Iteration  2 RMS(Cart)=  0.00004671 RMS(Int)=  0.00000000
 Iteration  3 RMS(Cart)=  0.00000000 RMS(Int)=  0.00000000
 Variable       Old X    -DE/DX   Delta X   Delta X   Delta X     New X
                                 (Linear)    (Quad)   (Total)
    R1        2.78061  -0.00021   0.00019  -0.00022  -0.00003   2.78058
    R2        3.10172   0.00028   0.00036   0.00050   0.00086   3.10259
    R3        1.82338  -0.00002   0.00010  -0.00004   0.00005   1.82344
    A1        1.90017  -0.00003  -0.00068   0.00012  -0.00056   1.89960
    A2        1.89883   0.00010  -0.00126   0.00045  -0.00081   1.89802
    D1       -0.44055   0.00002   0.01700   0.00003   0.01703  -0.42352
         Item               Value     Threshold  Converged?
 Maximum Force            0.000282     0.000450     YES
 RMS     Force            0.000150     0.000300     YES
 Maximum Displacement     0.007803     0.001800     NO 
 RMS     Displacement     0.006126     0.001200     NO 
 Predicted change in Energy=-2.895809D-07
 GradGradGradGradGradGradGradGradGradGradGradGradGradGradGradGradGradGrad

                          Input orientation:                          
 ---------------------------------------------------------------------
 Center     Atomic      Atomic             Coordinates (Angstroms)
 Number     Number       Type             X           Y           Z
 ---------------------------------------------------------------------
      1         16           0        3.859009    0.298961    0.406431
      2          8           0        3.769091   -1.168662    0.461844
      3          8           0        4.275744    0.747446   -1.116973
      4          1           0        4.735939    0.013223   -1.541484
 ---------------------------------------------------------------------
                    Distance matrix (angstroms):
                    1          2          3          4
     1  S    0.000000
     2  O    1.471419   0.000000
     3  O    1.641817   2.533936   0.000000
     4  H    2.155231   2.518922   0.964921   0.000000
 Stoichiometry    HO2S(2)
 Framework group  C1[X(HO2S)]
 Deg. of freedom     6
 Full point group                 C1      NOp   1
 Largest Abelian subgroup         C1      NOp   1
 Largest concise Abelian subgroup C1      NOp   1
                         Standard orientation:                         
 ---------------------------------------------------------------------
 Center     Atomic      Atomic             Coordinates (Angstroms)
 Number     Number       Type             X           Y           Z
 ---------------------------------------------------------------------
      1         16           0        0.142122   -0.477743    0.017218
      2          8           0        1.193321    0.551126   -0.021331
      3          8           0       -1.323592    0.259127   -0.048114
      4          1           0       -1.231782    1.161866    0.280070
 ---------------------------------------------------------------------
 Rotational constants (GHZ):          34.5077992           9.5124437           7.4837064
 Standard basis: 6-311+G(2d,2p) (5D, 7F)
 There are   104 symmetry adapted cartesian basis functions of A   symmetry.
 There are    98 symmetry adapted basis functions of A   symmetry.
    98 basis functions,   151 primitive gaussians,   104 cartesian basis functions
    17 alpha electrons       16 beta electrons
       nuclear repulsion energy       110.6514719249 Hartrees.
 NAtoms=    4 NActive=    4 NUniq=    4 SFac= 1.00D+00 NAtFMM=   60 NAOKFM=F Big=F
 Integral buffers will be    131072 words long.
 Raffenetti 2 integral format.
 Two-electron integral symmetry is turned on.
 Nuclear repulsion after empirical dispersion term =      110.6512148665 Hartrees.
 One-electron integrals computed using PRISM.
 NBasis=    98 RedAO= T EigKep=  2.63D-03  NBF=    98
 NBsUse=    98 1.00D-06 EigRej= -1.00D+00 NBFU=    98
 Initial guess from the checkpoint file:  "hso2.chk"
 B after Tr=     0.000000   -0.000000    0.000000
         Rot=    1.000000    0.000132   -0.000049   -0.000009 Ang=   0.02 deg.
 Initial guess <Sx>= 0.0000 <Sy>= 0.0000 <Sz>= 0.5000 <S**2>= 0.7550 S= 0.5025
 Keep R1 and R2 ints in memory in canonical form, NReq=67519019.
 Requested convergence on RMS density matrix=1.00D-08 within  32 cycles.
 Requested convergence on MAX density matrix=1.00D-06.
 Requested convergence on             energy=1.00D-06.
 No special actions if energy rises.
 SCF Done:  E(UwB97XD) =  -549.205750389     A.U. after   12 cycles
            NFock= 12  Conv=0.29D-08     -V/T= 2.0016
 <Sx>= 0.0000 <Sy>= 0.0000 <Sz>= 0.5000 <S**2>= 0.7550 S= 0.5025
 <L.S>= 0.000000000000E+00
 Annihilation of the first spin contaminant:
 S**2 before annihilation     0.7550,   after     0.7500
 QCSCF skips out because SCF is already converged.
 Calling FoFJK, ICntrl=      2127 FMM=F ISym2X=0 I1Cent= 0 IOpClX= 1 NMat=1 NMatS=1 NMatT=0.
 ***** Axes restored to original set *****
 -------------------------------------------------------------------
 Center     Atomic                   Forces (Hartrees/Bohr)
 Number     Number              X              Y              Z
 -------------------------------------------------------------------
      1       16          -0.000035227   -0.000173445    0.000104689
      2        8          -0.000001046    0.000169197   -0.000007032
      3        8           0.000059569   -0.000035336   -0.000068921
      4        1          -0.000023296    0.000039585   -0.000028736
 -------------------------------------------------------------------
 Cartesian Forces:  Max     0.000173445 RMS     0.000083389

 GradGradGradGradGradGradGradGradGradGradGradGradGradGradGradGradGradGrad
 Berny optimization.
 Using GEDIIS/GDIIS optimizer.
 FormGI is forming the generalized inverse of G from B-inverse, IUseBI=4.
 Internal  Forces:  Max     0.000167572 RMS     0.000086651
 Search for a local minimum.
 Step number   9 out of a maximum of   20
 All quantities printed in internal units (Hartrees-Bohrs-Radians)
 Mixed Optimization -- En-DIIS/RFO-DIIS
 Swapping is turned off.
 Update second derivatives using D2CorX and points    3    4    5    6    7
                                                      8    9
 DE= -6.31D-07 DEPred=-2.90D-07 R= 2.18D+00
 Trust test= 2.18D+00 RLast= 1.71D-02 DXMaxT set to 4.17D-01
 The second derivative matrix:
                          R1        R2        R3        A1        A2
           R1           0.94791
           R2           0.02183   0.26177
           R3           0.02850  -0.00318   0.56993
           A1           0.01573  -0.01638  -0.00966   0.32438
           A2          -0.05121   0.06419  -0.00348  -0.04403   0.19933
           D1          -0.00360  -0.00003  -0.00147   0.00749   0.00622
                          D1
           D1           0.00147
 ITU=  0  1  1  0  1  1  1
     Eigenvalues ---    0.00100   0.15097   0.27633   0.35369   0.56833
     Eigenvalues ---    0.95446
 En-DIIS/RFO-DIIS/Sim-DIIS IScMMF=       -3 using points:     9    8    7    6    5    4
 RFO step:  Lambda=-1.06156170D-07.
 DIIS inversion failure, remove point   6.
 DIIS inversion failure, remove point   5.
 DIIS inversion failure, remove point   4.
 DIIS inversion failure, remove point   3.
 RFO-DIIS uses    2 points instead of    6
 DidBck=F Rises=F RFO-DIIS coefs:    1.27773   -0.27773    0.00000    0.00000    0.00000
                  RFO-DIIS coefs:    0.00000
 Iteration  1 RMS(Cart)=  0.00164272 RMS(Int)=  0.00000349
 Iteration  2 RMS(Cart)=  0.00000371 RMS(Int)=  0.00000000
 Iteration  3 RMS(Cart)=  0.00000000 RMS(Int)=  0.00000000
 Variable       Old X    -DE/DX   Delta X   Delta X   Delta X     New X
                                 (Linear)    (Quad)   (Total)
    R1        2.78058  -0.00017  -0.00001  -0.00015  -0.00016   2.78042
    R2        3.10259   0.00010   0.00024   0.00014   0.00038   3.10296
    R3        1.82344  -0.00003   0.00002  -0.00005  -0.00003   1.82341
    A1        1.89960   0.00001  -0.00016   0.00010  -0.00006   1.89954
    A2        1.89802   0.00008  -0.00023   0.00029   0.00006   1.89808
    D1       -0.42352   0.00001   0.00473   0.00001   0.00474  -0.41878
         Item               Value     Threshold  Converged?
 Maximum Force            0.000168     0.000450     YES
 RMS     Force            0.000087     0.000300     YES
 Maximum Displacement     0.002247     0.001800     NO 
 RMS     Displacement     0.001642     0.001200     NO 
 Predicted change in Energy=-5.307893D-08
 GradGradGradGradGradGradGradGradGradGradGradGradGradGradGradGradGradGrad

                          Input orientation:                          
 ---------------------------------------------------------------------
 Center     Atomic      Atomic             Coordinates (Angstroms)
 Number     Number       Type             X           Y           Z
 ---------------------------------------------------------------------
      1         16           0        3.857989    0.299030    0.406339
      2          8           0        3.769836   -1.168615    0.461726
      3          8           0        4.276934    0.747864   -1.116572
      4          1           0        4.735025    0.012689   -1.541675
 ---------------------------------------------------------------------
                    Distance matrix (angstroms):
                    1          2          3          4
     1  S    0.000000
     2  O    1.471333   0.000000
     3  O    1.642018   2.533982   0.000000
     4  H    2.155444   2.518072   0.964905   0.000000
 Stoichiometry    HO2S(2)
 Framework group  C1[X(HO2S)]
 Deg. of freedom     6
 Full point group                 C1      NOp   1
 Largest Abelian subgroup         C1      NOp   1
 Largest concise Abelian subgroup C1      NOp   1
                         Standard orientation:                         
 ---------------------------------------------------------------------
 Center     Atomic      Atomic             Coordinates (Angstroms)
 Number     Number       Type             X           Y           Z
 ---------------------------------------------------------------------
      1         16           0        0.142252   -0.477797    0.017051
      2          8           0        1.193165    0.551253   -0.021136
      3          8           0       -1.323766    0.258978   -0.047595
      4          1           0       -1.231222    1.162909    0.277038
 ---------------------------------------------------------------------
 Rotational constants (GHZ):          34.5024205           9.5126879           7.4830338
 Standard basis: 6-311+G(2d,2p) (5D, 7F)
 There are   104 symmetry adapted cartesian basis functions of A   symmetry.
 There are    98 symmetry adapted basis functions of A   symmetry.
    98 basis functions,   151 primitive gaussians,   104 cartesian basis functions
    17 alpha electrons       16 beta electrons
       nuclear repulsion energy       110.6491332439 Hartrees.
 NAtoms=    4 NActive=    4 NUniq=    4 SFac= 1.00D+00 NAtFMM=   60 NAOKFM=F Big=F
 Integral buffers will be    131072 words long.
 Raffenetti 2 integral format.
 Two-electron integral symmetry is turned on.
 Nuclear repulsion after empirical dispersion term =      110.6488762694 Hartrees.
 One-electron integrals computed using PRISM.
 NBasis=    98 RedAO= T EigKep=  2.64D-03  NBF=    98
 NBsUse=    98 1.00D-06 EigRej= -1.00D+00 NBFU=    98
 Initial guess from the checkpoint file:  "hso2.chk"
 B after Tr=    -0.000000    0.000000    0.000000
         Rot=    1.000000    0.000038   -0.000010   -0.000039 Ang=   0.01 deg.
 Initial guess <Sx>= 0.0000 <Sy>= 0.0000 <Sz>= 0.5000 <S**2>= 0.7550 S= 0.5025
 Keep R1 and R2 ints in memory in canonical form, NReq=67519019.
 Requested convergence on RMS density matrix=1.00D-08 within  32 cycles.
 Requested convergence on MAX density matrix=1.00D-06.
 Requested convergence on             energy=1.00D-06.
 No special actions if energy rises.
 SCF Done:  E(UwB97XD) =  -549.205750528     A.U. after   10 cycles
            NFock= 10  Conv=0.96D-08     -V/T= 2.0016
 <Sx>= 0.0000 <Sy>= 0.0000 <Sz>= 0.5000 <S**2>= 0.7550 S= 0.5025
 <L.S>= 0.000000000000E+00
 Annihilation of the first spin contaminant:
 S**2 before annihilation     0.7550,   after     0.7500
 QCSCF skips out because SCF is already converged.
 Calling FoFJK, ICntrl=      2127 FMM=F ISym2X=0 I1Cent= 0 IOpClX= 1 NMat=1 NMatS=1 NMatT=0.
 ***** Axes restored to original set *****
 -------------------------------------------------------------------
 Center     Atomic                   Forces (Hartrees/Bohr)
 Number     Number              X              Y              Z
 -------------------------------------------------------------------
      1       16           0.000003547   -0.000070791    0.000014753
      2        8          -0.000008936    0.000078274   -0.000004146
      3        8           0.000021510   -0.000023709    0.000001996
      4        1          -0.000016120    0.000016225   -0.000012603
 -------------------------------------------------------------------
 Cartesian Forces:  Max     0.000078274 RMS     0.000033136

 GradGradGradGradGradGradGradGradGradGradGradGradGradGradGradGradGradGrad
 Berny optimization.
 Using GEDIIS/GDIIS optimizer.
 FormGI is forming the generalized inverse of G from B-inverse, IUseBI=4.
 Internal  Forces:  Max     0.000076347 RMS     0.000034413
 Search for a local minimum.
 Step number  10 out of a maximum of   20
 All quantities printed in internal units (Hartrees-Bohrs-Radians)
 Mixed Optimization -- En-DIIS/RFO-DIIS
 Swapping is turned off.
 Update second derivatives using D2CorX and points    4    5    6    7    8
                                                      9   10
 DE= -1.38D-07 DEPred=-5.31D-08 R= 2.61D+00
 Trust test= 2.61D+00 RLast= 4.76D-03 DXMaxT set to 4.17D-01
 The second derivative matrix:
                          R1        R2        R3        A1        A2
           R1           0.79757
           R2           0.09690   0.28391
           R3           0.00160   0.01598   0.56572
           A1           0.01869  -0.02543  -0.00992   0.32528
           A2           0.01379   0.03282   0.00806  -0.04533   0.17178
           D1           0.00040  -0.00064  -0.00081   0.00722   0.00493
                          D1
           D1           0.00138
 ITU=  0  0  1  1  0  1  1
     Eigenvalues ---    0.00100   0.15460   0.25536   0.35110   0.56735
     Eigenvalues ---    0.81622
 En-DIIS/RFO-DIIS/Sim-DIIS IScMMF=       -3 using points:    10    9    8    7    6    5    4
 RFO step:  Lambda=-1.30107080D-08.
 DIIS inversion failure, remove point   7.
 DIIS inversion failure, remove point   6.
 DIIS inversion failure, remove point   5.
 DIIS inversion failure, remove point   4.
 DIIS inversion failure, remove point   3.
 RFO-DIIS uses    2 points instead of    7
 DidBck=F Rises=F RFO-DIIS coefs:    1.02572   -0.02572    0.00000    0.00000    0.00000
                  RFO-DIIS coefs:    0.00000    0.00000
 Iteration  1 RMS(Cart)=  0.00014530 RMS(Int)=  0.00000001
 Iteration  2 RMS(Cart)=  0.00000001 RMS(Int)=  0.00000000
 Variable       Old X    -DE/DX   Delta X   Delta X   Delta X     New X
                                 (Linear)    (Quad)   (Total)
    R1        2.78042  -0.00008  -0.00000  -0.00010  -0.00011   2.78031
    R2        3.10296   0.00001   0.00001   0.00004   0.00005   3.10302
    R3        1.82341  -0.00002  -0.00000  -0.00003  -0.00003   1.82338
    A1        1.89954   0.00001  -0.00000   0.00005   0.00005   1.89959
    A2        1.89808   0.00003   0.00000   0.00019   0.00019   1.89827
    D1       -0.41878   0.00000   0.00012  -0.00001   0.00011  -0.41866
         Item               Value     Threshold  Converged?
 Maximum Force            0.000076     0.000450     YES
 RMS     Force            0.000034     0.000300     YES
 Maximum Displacement     0.000237     0.001800     YES
 RMS     Displacement     0.000145     0.001200     YES
 Predicted change in Energy=-7.580296D-09
 Optimization completed.
    -- Stationary point found.
                           ----------------------------
                           !   Optimized Parameters   !
                           ! (Angstroms and Degrees)  !
 --------------------------                            --------------------------
 ! Name  Definition              Value          Derivative Info.                !
 --------------------------------------------------------------------------------
 ! R1    R(1,2)                  1.4713         -DE/DX =   -0.0001              !
 ! R2    R(1,3)                  1.642          -DE/DX =    0.0                 !
 ! R3    R(3,4)                  0.9649         -DE/DX =    0.0                 !
 ! A1    A(2,1,3)              108.8358         -DE/DX =    0.0                 !
 ! A2    A(1,3,4)              108.7519         -DE/DX =    0.0                 !
 ! D1    D(2,1,3,4)            -23.9942         -DE/DX =    0.0                 !
 --------------------------------------------------------------------------------
 GradGradGradGradGradGradGradGradGradGradGradGradGradGradGradGradGradGrad

                          Input orientation:                          
 ---------------------------------------------------------------------
 Center     Atomic      Atomic             Coordinates (Angstroms)
 Number     Number       Type             X           Y           Z
 ---------------------------------------------------------------------
      1         16           0        3.857989    0.299030    0.406339
      2          8           0        3.769836   -1.168615    0.461726
      3          8           0        4.276934    0.747864   -1.116572
      4          1           0        4.735025    0.012689   -1.541675
 ---------------------------------------------------------------------
                    Distance matrix (angstroms):
                    1          2          3          4
     1  S    0.000000
     2  O    1.471333   0.000000
     3  O    1.642018   2.533982   0.000000
     4  H    2.155444   2.518072   0.964905   0.000000
 Stoichiometry    HO2S(2)
 Framework group  C1[X(HO2S)]
 Deg. of freedom     6
 Full point group                 C1      NOp   1
 Largest Abelian subgroup         C1      NOp   1
 Largest concise Abelian subgroup C1      NOp   1
                         Standard orientation:                         
 ---------------------------------------------------------------------
 Center     Atomic      Atomic             Coordinates (Angstroms)
 Number     Number       Type             X           Y           Z
 ---------------------------------------------------------------------
      1         16           0        0.142252   -0.477797    0.017051
      2          8           0        1.193165    0.551253   -0.021136
      3          8           0       -1.323766    0.258978   -0.047595
      4          1           0       -1.231222    1.162909    0.277038
 ---------------------------------------------------------------------
 Rotational constants (GHZ):          34.5024205           9.5126879           7.4830338

 **********************************************************************

            Population analysis using the SCF density.

 **********************************************************************

 Orbital symmetries:
 Alpha Orbitals:
       Occupied  (A) (A) (A) (A) (A) (A) (A) (A) (A) (A) (A) (A)
                 (A) (A) (A) (A) (A)
       Virtual   (A) (A) (A) (A) (A) (A) (A) (A) (A) (A) (A) (A)
                 (A) (A) (A) (A) (A) (A) (A) (A) (A) (A) (A) (A)
                 (A) (A) (A) (A) (A) (A) (A) (A) (A) (A) (A) (A)
                 (A) (A) (A) (A) (A) (A) (A) (A) (A) (A) (A) (A)
                 (A) (A) (A) (A) (A) (A) (A) (A) (A) (A) (A) (A)
                 (A) (A) (A) (A) (A) (A) (A) (A) (A) (A) (A) (A)
                 (A) (A) (A) (A) (A) (A) (A) (A) (A)
 Beta  Orbitals:
       Occupied  (A) (A) (A) (A) (A) (A) (A) (A) (A) (A) (A) (A)
                 (A) (A) (A) (A)
       Virtual   (A) (A) (A) (A) (A) (A) (A) (A) (A) (A) (A) (A)
                 (A) (A) (A) (A) (A) (A) (A) (A) (A) (A) (A) (A)
                 (A) (A) (A) (A) (A) (A) (A) (A) (A) (A) (A) (A)
                 (A) (A) (A) (A) (A) (A) (A) (A) (A) (A) (A) (A)
                 (A) (A) (A) (A) (A) (A) (A) (A) (A) (A) (A) (A)
                 (A) (A) (A) (A) (A) (A) (A) (A) (A) (A) (A) (A)
                 (A) (A) (A) (A) (A) (A) (A) (A) (A) (A)
 The electronic state is 2-A.
 Alpha  occ. eigenvalues --  -89.15555 -19.31821 -19.28885  -8.18413  -6.13382
 Alpha  occ. eigenvalues --   -6.13018  -6.12752  -1.22323  -1.15050  -0.80235
 Alpha  occ. eigenvalues --   -0.63407  -0.57347  -0.56435  -0.50844  -0.46971
 Alpha  occ. eigenvalues --   -0.42481  -0.31314
 Alpha virt. eigenvalues --    0.04709   0.06807   0.07710   0.09323   0.11486
 Alpha virt. eigenvalues --    0.13542   0.18849   0.22741   0.24738   0.24861
 Alpha virt. eigenvalues --    0.26331   0.28681   0.31242   0.32384   0.36015
 Alpha virt. eigenvalues --    0.37576   0.39010   0.41803   0.45365   0.49836
 Alpha virt. eigenvalues --    0.50020   0.57480   0.62490   0.76950   0.82570
 Alpha virt. eigenvalues --    0.85738   0.89028   1.01624   1.09470   1.10618
 Alpha virt. eigenvalues --    1.12886   1.13221   1.17652   1.38577   1.51467
 Alpha virt. eigenvalues --    1.52463   1.53691   1.57067   1.60841   1.68431
 Alpha virt. eigenvalues --    1.73257   1.75973   1.80604   1.87428   1.89304
 Alpha virt. eigenvalues --    2.08331   2.09205   2.18008   2.19256   2.23863
 Alpha virt. eigenvalues --    2.29964   2.34908   2.47195   2.75689   2.78386
 Alpha virt. eigenvalues --    3.79315   3.91784   4.18657   5.02625   5.04005
 Alpha virt. eigenvalues --    5.05132   5.08323   5.21246   5.81160   6.76581
 Alpha virt. eigenvalues --    6.79377   6.86342   6.88793   6.92677   6.94122
 Alpha virt. eigenvalues --    7.10584   7.10814   7.31584   7.42525   8.22049
 Alpha virt. eigenvalues --   17.31187  17.46425  17.57444  49.96368  50.00110
 Alpha virt. eigenvalues --  189.40390
  Beta  occ. eigenvalues --  -89.15172 -19.31590 -19.27957  -8.18069  -6.13156
  Beta  occ. eigenvalues --   -6.12544  -6.11777  -1.21118  -1.13574  -0.77875
  Beta  occ. eigenvalues --   -0.62120  -0.56491  -0.52974  -0.48704  -0.43265
  Beta  occ. eigenvalues --   -0.41252
  Beta virt. eigenvalues --   -0.04372   0.05264   0.07181   0.08112   0.09975
  Beta virt. eigenvalues --    0.12323   0.14268   0.19154   0.23023   0.25034
  Beta virt. eigenvalues --    0.25078   0.26876   0.29054   0.31536   0.32525
  Beta virt. eigenvalues --    0.36533   0.37883   0.39151   0.42123   0.47443
  Beta virt. eigenvalues --    0.51081   0.52909   0.57904   0.63966   0.77338
  Beta virt. eigenvalues --    0.83105   0.86140   0.90079   1.01843   1.09807
  Beta virt. eigenvalues --    1.11204   1.13599   1.15295   1.18088   1.38924
  Beta virt. eigenvalues --    1.51943   1.53780   1.54597   1.58562   1.62270
  Beta virt. eigenvalues --    1.69896   1.73821   1.76982   1.81419   1.89082
  Beta virt. eigenvalues --    1.90101   2.08840   2.10736   2.18807   2.20885
  Beta virt. eigenvalues --    2.25693   2.30570   2.36131   2.47665   2.76108
  Beta virt. eigenvalues --    2.78993   3.79437   3.91852   4.18791   5.04735
  Beta virt. eigenvalues --    5.05489   5.07262   5.09102   5.22065   5.81397
  Beta virt. eigenvalues --    6.79712   6.82869   6.87965   6.90088   6.93656
  Beta virt. eigenvalues --    6.97098   7.11210   7.11794   7.33073   7.42910
  Beta virt. eigenvalues --    8.22514  17.32525  17.46678  17.57721  49.97194
  Beta virt. eigenvalues --   50.00337 189.40697
          Condensed to atoms (all electrons):
               1          2          3          4
     1  S   15.386497   0.105768  -0.092872   0.024626
     2  O    0.105768   8.350486   0.023211  -0.000171
     3  O   -0.092872   0.023211   8.242538   0.210917
     4  H    0.024626  -0.000171   0.210917   0.477521
          Atomic-Atomic Spin Densities.
               1          2          3          4
     1  S    0.901728  -0.196222  -0.078944  -0.005982
     2  O   -0.196222   0.497937   0.016588   0.001209
     3  O   -0.078944   0.016588   0.125637  -0.005517
     4  H   -0.005982   0.001209  -0.005517   0.012432
 Mulliken charges and spin densities:
               1          2
     1  S    0.575982   0.620581
     2  O   -0.479294   0.319512
     3  O   -0.383794   0.057765
     4  H    0.287106   0.002142
 Sum of Mulliken charges =  -0.00000   1.00000
 Mulliken charges and spin densities with hydrogens summed into heavy atoms:
               1          2
     1  S    0.575982   0.620581
     2  O   -0.479294   0.319512
     3  O   -0.096687   0.059907
 Electronic spatial extent (au):  <R**2>=            179.3979
 Charge=             -0.0000 electrons
 Dipole moment (field-independent basis, Debye):
    X=             -1.1905    Y=             -0.0249    Z=              0.5929  Tot=              1.3302
 Quadrupole moment (field-independent basis, Debye-Ang):
   XX=            -26.8919   YY=            -21.1237   ZZ=            -23.6154
   XY=             -3.3869   XZ=             -0.7663   YZ=              0.8735
 Traceless Quadrupole moment (field-independent basis, Debye-Ang):
   XX=             -3.0149   YY=              2.7533   ZZ=              0.2616
   XY=             -3.3869   XZ=             -0.7663   YZ=              0.8735
 Octapole moment (field-independent basis, Debye-Ang**2):
  XXX=             -1.2310  YYY=              4.7432  ZZZ=              0.0516  XYY=             -4.4810
  XXY=              0.9294  XXZ=              0.9963  XZZ=             -0.1767  YZZ=              1.1777
  YYZ=              1.0368  XYZ=             -1.0675
 Hexadecapole moment (field-independent basis, Debye-Ang**3):
 XXXX=           -144.2181 YYYY=            -51.9926 ZZZZ=            -24.8216 XXXY=             -6.3069
 XXXZ=             -1.4290 YYYX=             -6.1537 YYYZ=              1.4500 ZZZX=             -0.4648
 ZZZY=              0.5919 XXYY=            -27.1829 XXZZ=            -27.2555 YYZZ=            -13.7921
 XXYZ=              1.4832 YYXZ=             -1.2583 ZZXY=             -0.5218
 N-N= 1.106488762694D+02 E-N=-1.525205068856D+03  KE= 5.483067954045D+02
                          Isotropic Fermi Contact Couplings
        Atom                 a.u.       MegaHertz       Gauss      10(-4) cm-1
     1  S(33)              0.09422      32.36356      11.54812      10.79532
     2  O(17)              0.05431     -32.92370     -11.74799     -10.98216
     3  O(17)              0.01977     -11.98537      -4.27668      -3.99789
     4  H(1)               0.00073       3.27301       1.16789       1.09176
 --------------------------------------------------------
       Center         ----  Spin Dipole Couplings  ----
                      3XX-RR        3YY-RR        3ZZ-RR
 --------------------------------------------------------
     1   Atom       -1.494032     -1.596906      3.090939
     2   Atom       -0.795684     -0.799699      1.595383
     3   Atom       -0.231596     -0.190522      0.422118
     4   Atom       -0.008208      0.018852     -0.010645
 --------------------------------------------------------
                        XY            XZ            YZ
 --------------------------------------------------------
     1   Atom       -0.000121      0.052071      0.187691
     2   Atom       -0.009953     -0.086961      0.049370
     3   Atom       -0.005419     -0.014182     -0.112485
     4   Atom       -0.004845     -0.001465      0.005138
 --------------------------------------------------------


 ---------------------------------------------------------------------------------
              Anisotropic Spin Dipole Couplings in Principal Axis System
 ---------------------------------------------------------------------------------

       Atom             a.u.   MegaHertz   Gauss  10(-4) cm-1        Axes

              Baa    -1.6045   -65.781   -23.472   -21.942  0.0200  0.9990 -0.0402
     1 S(33)  Bbb    -1.4946   -61.276   -21.865   -20.440  0.9997 -0.0205 -0.0105
              Bcc     3.0990   127.057    45.337    42.382  0.0113  0.0399  0.9991
 
              Baa    -0.8080    58.466    20.862    19.502  0.6654  0.7465  0.0087
     2 O(17)  Bbb    -0.7916    57.278    20.438    19.106  0.7456 -0.6651  0.0409
              Bcc     1.5996  -115.744   -41.300   -38.608 -0.0364  0.0207  0.9991
 
              Baa    -0.2344    16.961     6.052     5.658  0.9502  0.3030  0.0724
     3 O(17)  Bbb    -0.2080    15.048     5.370     5.020 -0.3110  0.9368  0.1602
              Bcc     0.4424   -32.010   -11.422   -10.677 -0.0193 -0.1748  0.9844
 
              Baa    -0.0117    -6.224    -2.221    -2.076  0.2327 -0.1254  0.9644
     4 H(1)   Bbb    -0.0089    -4.765    -1.700    -1.590  0.9572  0.2047 -0.2044
              Bcc     0.0206    10.990     3.921     3.666 -0.1718  0.9708  0.1677
 

 ---------------------------------------------------------------------------------

 1\1\GINC-CCLEARMO\FOpt\UwB97XD\6-311+G(2d,2p)\H1O2S1(2)\TROUPPER\28-Se
 p-2026\0\\# opt freq uwb97xd/6-311+g(2d,2p) scf=xqc\\opt freq\\0,2\S,3
 .8579891445,0.2990302548,0.406338578\O,3.7698361851,-1.1686149711,0.46
 17263151\O,4.2769337536,0.7478638852,-1.116571989\H,4.7350253068,0.012
 6891011,-1.541674514\\Version=EM64M-G16RevA.03\State=2-A\HF=-549.20575
 05\S2=0.754957\S2-1=0.\S2A=0.750017\RMSD=9.633e-09\RMSF=3.314e-05\Dipo
 le=0.3299868,0.3190131,-0.2514668\Quadrupole=0.8349994,-2.4153016,1.58
 03022,-0.8483337,-1.2474148,2.2189015\PG=C01 [X(H1O2S1)]\\@


 TIME GOES, YOU SAY?  AH NO!
 ALAS, TIME STAYS, WE GO.
    -- A. DOBSON (1840-1921)
 Job cpu time:       0 days  0 hours 19 minutes 43.2 seconds.
 Elapsed time:       0 days  0 hours  0 minutes 58.4 seconds.
 File lengths (MBytes):  RWF=     10 Int=      0 D2E=      0 Chk=      2 Scr=      1
 Normal termination of Gaussian 16 at Mon Sep 28 17:19:12 2026.
 Link1:  Proceeding to internal job step number  2.
 ----------------------------------------------------------------------
 #N Geom=AllCheck Guess=TCheck SCRF=Check GenChk UwB97XD/6-311+G(2d,2p)
  Freq
 ----------------------------------------------------------------------
 1/10=4,29=7,30=1,38=1,40=1/1,3;
 2/12=2,40=1/2;
 3/5=4,6=6,7=212,11=2,14=-4,25=1,30=1,70=2,71=2,74=-58,116=2,140=1/1,2,3;
 4/5=101/1;
 5/5=2,8=3,13=1,38=6,98=1/2,8;
 8/6=4,10=90,11=11/1;
 11/6=1,8=1,9=11,15=111,16=1/1,2,10;
 10/6=1/2;
 6/7=2,8=2,9=2,10=2,28=1/1;
 7/8=1,10=1,25=1/1,2,3,16;
 1/10=4,30=1/3;
 99//99;
 Structure from the checkpoint file:  "hso2.chk"
 --------
 opt freq
 --------
 Charge =  0 Multiplicity = 2
 Redundant internal coordinates found in file.  (old form).
 S,0,3.8579891445,0.2990302548,0.406338578
 O,0,3.7698361851,-1.1686149711,0.4617263151
 O,0,4.2769337536,0.7478638852,-1.116571989
 H,0,4.7350253068,0.0126891011,-1.541674514
 Recover connectivity data from disk.

 GradGradGradGradGradGradGradGradGradGradGradGradGradGradGradGradGradGrad
 Berny optimization.
 Initialization pass.
                           ----------------------------
                           !    Initial Parameters    !
                           ! (Angstroms and Degrees)  !
 --------------------------                            --------------------------
 ! Name  Definition              Value          Derivative Info.                !
 --------------------------------------------------------------------------------
 ! R1    R(1,2)                  1.4713         calculate D2E/DX2 analytically  !
 ! R2    R(1,3)                  1.642          calculate D2E/DX2 analytically  !
 ! R3    R(3,4)                  0.9649         calculate D2E/DX2 analytically  !
 ! A1    A(2,1,3)              108.8358         calculate D2E/DX2 analytically  !
 ! A2    A(1,3,4)              108.7519         calculate D2E/DX2 analytically  !
 ! D1    D(2,1,3,4)            -23.9942         calculate D2E/DX2 analytically  !
 --------------------------------------------------------------------------------
 Trust Radius=3.00D-01 FncErr=1.00D-07 GrdErr=1.00D-07 EigMax=2.50D+02 EigMin=1.00D-04
 Number of steps in this run=      2 maximum allowed number of steps=      2.
 GradGradGradGradGradGradGradGradGradGradGradGradGradGradGradGradGradGrad

                          Input orientation:                          
 ---------------------------------------------------------------------
 Center     Atomic      Atomic             Coordinates (Angstroms)
 Number     Number       Type             X           Y           Z
 ---------------------------------------------------------------------
      1         16           0        3.857989    0.299030    0.406339
      2          8           0        3.769836   -1.168615    0.461726
      3          8           0        4.276934    0.747864   -1.116572
      4          1           0        4.735025    0.012689   -1.541675
 ---------------------------------------------------------------------
                    Distance matrix (angstroms):
                    1          2          3          4
     1  S    0.000000
     2  O    1.471333   0.000000
     3  O    1.642018   2.533982   0.000000
     4  H    2.155444   2.518072   0.964905   0.000000
 Stoichiometry    HO2S(2)
 Framework group  C1[X(HO2S)]
 Deg. of freedom     6
 Full point group                 C1      NOp   1
 Largest Abelian subgroup         C1      NOp   1
 Largest concise Abelian subgroup C1      NOp   1
                         Standard orientation:                         
 ---------------------------------------------------------------------
 Center     Atomic      Atomic             Coordinates (Angstroms)
 Number     Number       Type             X           Y           Z
 ---------------------------------------------------------------------
      1         16           0        0.142252   -0.477797    0.017051
      2          8           0        1.193165    0.551253   -0.021136
      3          8           0       -1.323766    0.258978   -0.047595
      4          1           0       -1.231222    1.162909    0.277038
 ---------------------------------------------------------------------
 Rotational constants (GHZ):          34.5024205           9.5126879           7.4830338
 Standard basis: 6-311+G(2d,2p) (5D, 7F)
 There are   104 symmetry adapted cartesian basis functions of A   symmetry.
 There are    98 symmetry adapted basis functions of A   symmetry.
    98 basis functions,   151 primitive gaussians,   104 cartesian basis functions
    17 alpha electrons       16 beta electrons
       nuclear repulsion energy       110.6491332439 Hartrees.
 NAtoms=    4 NActive=    4 NUniq=    4 SFac= 1.00D+00 NAtFMM=   60 NAOKFM=F Big=F
 Integral buffers will be    131072 words long.
 Raffenetti 2 integral format.
 Two-electron integral symmetry is turned on.
 Nuclear repulsion after empirical dispersion term =      110.6488762694 Hartrees.
 One-electron integrals computed using PRISM.
 NBasis=    98 RedAO= T EigKep=  2.64D-03  NBF=    98
 NBsUse=    98 1.00D-06 EigRej= -1.00D+00 NBFU=    98
 Initial guess from the checkpoint file:  "hso2.chk"
 B after Tr=    -0.000000    0.000000   -0.000000
         Rot=    1.000000   -0.000000    0.000000    0.000000 Ang=   0.00 deg.
 Initial guess <Sx>= 0.0000 <Sy>= 0.0000 <Sz>= 0.5000 <S**2>= 0.7550 S= 0.5025
 Keep R1 and R2 ints in memory in canonical form, NReq=67519019.
 Requested convergence on RMS density matrix=1.00D-08 within  32 cycles.
 Requested convergence on MAX density matrix=1.00D-06.
 Requested convergence on             energy=1.00D-06.
 No special actions if energy rises.
 SCF Done:  E(UwB97XD) =  -549.205750528     A.U. after    1 cycles
            NFock=  1  Conv=0.20D-08     -V/T= 2.0016
 <Sx>= 0.0000 <Sy>= 0.0000 <Sz>= 0.5000 <S**2>= 0.7550 S= 0.5025
 <L.S>= 0.000000000000E+00
 Annihilation of the first spin contaminant:
 S**2 before annihilation     0.7550,   after     0.7500
 QCSCF skips out because SCF is already converged.
 DoSCS=F DFT=T ScalE2(SS,OS)=  1.000000  1.000000
 Range of M.O.s used for correlation:     1    98
 NBasis=    98 NAE=    17 NBE=    16 NFC=     0 NFV=     0
 NROrb=     98 NOA=    17 NOB=    16 NVA=    81 NVB=    82
 Symmetrizing basis deriv contribution to polar:
 IMax=3 JMax=2 DiffMx= 0.00D+00
 G2DrvN: will do     5 centers at a time, making    1 passes.
 Calling FoFCou, ICntrl=  3107 FMM=F I1Cent=   0 AccDes= 0.00D+00.
 End of G2Drv F.D. properties file   721 does not exist.
 End of G2Drv F.D. properties file   722 does not exist.
 End of G2Drv F.D. properties file   788 does not exist.
          IDoAtm=1111
          Differentiating once with respect to electric field.
                with respect to dipole field.
          Differentiating once with respect to nuclear coordinates.
 Keep R1 and R2 ints in memory in canonical form, NReq=67445812.
          There are    15 degrees of freedom in the 1st order CPHF.  IDoFFX=6 NUNeed=     3.
     12 vectors produced by pass  0 Test12= 1.79D-14 6.67D-09 XBig12= 3.30D+01 2.80D+00.
 AX will form    12 AO Fock derivatives at one time.
     12 vectors produced by pass  1 Test12= 1.79D-14 6.67D-09 XBig12= 8.12D+00 4.77D-01.
     12 vectors produced by pass  2 Test12= 1.79D-14 6.67D-09 XBig12= 4.20D-01 2.61D-01.
     12 vectors produced by pass  3 Test12= 1.79D-14 6.67D-09 XBig12= 2.59D-02 5.43D-02.
     12 vectors produced by pass  4 Test12= 1.79D-14 6.67D-09 XBig12= 4.34D-04 3.39D-03.
     12 vectors produced by pass  5 Test12= 1.79D-14 6.67D-09 XBig12= 6.36D-06 4.97D-04.
     12 vectors produced by pass  6 Test12= 1.79D-14 6.67D-09 XBig12= 8.99D-08 5.30D-05.
     12 vectors produced by pass  7 Test12= 1.79D-14 6.67D-09 XBig12= 1.15D-09 5.71D-06.
      5 vectors produced by pass  8 Test12= 1.79D-14 6.67D-09 XBig12= 1.43D-11 7.14D-07.
      3 vectors produced by pass  9 Test12= 1.79D-14 6.67D-09 XBig12= 2.08D-13 7.57D-08.
      2 vectors produced by pass 10 Test12= 1.79D-14 6.67D-09 XBig12= 3.42D-15 1.38D-08.
 InvSVY:  IOpt=1 It=  1 EMax= 1.11D-15
 Solved reduced A of dimension   106 with    12 vectors.
 Isotropic polarizability for W=    0.000000       26.55 Bohr**3.
 End of Minotr F.D. properties file   721 does not exist.
 End of Minotr F.D. properties file   722 does not exist.
 End of Minotr F.D. properties file   788 does not exist.

 **********************************************************************

            Population analysis using the SCF density.

 **********************************************************************

 Orbital symmetries:
 Alpha Orbitals:
       Occupied  (A) (A) (A) (A) (A) (A) (A) (A) (A) (A) (A) (A)
                 (A) (A) (A) (A) (A)
       Virtual   (A) (A) (A) (A) (A) (A) (A) (A) (A) (A) (A) (A)
                 (A) (A) (A) (A) (A) (A) (A) (A) (A) (A) (A) (A)
                 (A) (A) (A) (A) (A) (A) (A) (A) (A) (A) (A) (A)
                 (A) (A) (A) (A) (A) (A) (A) (A) (A) (A) (A) (A)
                 (A) (A) (A) (A) (A) (A) (A) (A) (A) (A) (A) (A)
                 (A) (A) (A) (A) (A) (A) (A) (A) (A) (A) (A) (A)
                 (A) (A) (A) (A) (A) (A) (A) (A) (A)
 Beta  Orbitals:
       Occupied  (A) (A) (A) (A) (A) (A) (A) (A) (A) (A) (A) (A)
                 (A) (A) (A) (A)
       Virtual   (A) (A) (A) (A) (A) (A) (A) (A) (A) (A) (A) (A)
                 (A) (A) (A) (A) (A) (A) (A) (A) (A) (A) (A) (A)
                 (A) (A) (A) (A) (A) (A) (A) (A) (A) (A) (A) (A)
                 (A) (A) (A) (A) (A) (A) (A) (A) (A) (A) (A) (A)
                 (A) (A) (A) (A) (A) (A) (A) (A) (A) (A) (A) (A)
                 (A) (A) (A) (A) (A) (A) (A) (A) (A) (A) (A) (A)
                 (A) (A) (A) (A) (A) (A) (A) (A) (A) (A)
 The electronic state is 2-A.
 Alpha  occ. eigenvalues --  -89.15555 -19.31821 -19.28885  -8.18413  -6.13382
 Alpha  occ. eigenvalues --   -6.13018  -6.12752  -1.22323  -1.15050  -0.80235
 Alpha  occ. eigenvalues --   -0.63407  -0.57347  -0.56435  -0.50844  -0.46971
 Alpha  occ. eigenvalues --   -0.42481  -0.31314
 Alpha virt. eigenvalues --    0.04709   0.06807   0.07710   0.09323   0.11486
 Alpha virt. eigenvalues --    0.13542   0.18849   0.22741   0.24738   0.24861
 Alpha virt. eigenvalues --    0.26331   0.28681   0.31242   0.32384   0.36015
 Alpha virt. eigenvalues --    0.37576   0.39010   0.41803   0.45365   0.49836
 Alpha virt. eigenvalues --    0.50020   0.57480   0.62490   0.76950   0.82570
 Alpha virt. eigenvalues --    0.85738   0.89028   1.01624   1.09470   1.10618
 Alpha virt. eigenvalues --    1.12886   1.13221   1.17652   1.38577   1.51467
 Alpha virt. eigenvalues --    1.52463   1.53691   1.57067   1.60841   1.68431
 Alpha virt. eigenvalues --    1.73257   1.75973   1.80604   1.87428   1.89304
 Alpha virt. eigenvalues --    2.08331   2.09205   2.18008   2.19256   2.23863
 Alpha virt. eigenvalues --    2.29964   2.34908   2.47195   2.75689   2.78386
 Alpha virt. eigenvalues --    3.79315   3.91784   4.18657   5.02625   5.04005
 Alpha virt. eigenvalues --    5.05132   5.08323   5.21246   5.81160   6.76581
 Alpha virt. eigenvalues --    6.79377   6.86342   6.88793   6.92677   6.94122
 Alpha virt. eigenvalues --    7.10584   7.10814   7.31584   7.42525   8.22049
 Alpha virt. eigenvalues --   17.31187  17.46425  17.57444  49.96368  50.00110
 Alpha virt. eigenvalues --  189.40390
  Beta  occ. eigenvalues --  -89.15172 -19.31590 -19.27957  -8.18069  -6.13156
  Beta  occ. eigenvalues --   -6.12544  -6.11777  -1.21118  -1.13574  -0.77875
  Beta  occ. eigenvalues --   -0.62120  -0.56491  -0.52974  -0.48704  -0.43265
  Beta  occ. eigenvalues --   -0.41252
  Beta virt. eigenvalues --   -0.04372   0.05264   0.07181   0.08112   0.09975
  Beta virt. eigenvalues --    0.12323   0.14268   0.19154   0.23023   0.25034
  Beta virt. eigenvalues --    0.25078   0.26876   0.29054   0.31536   0.32525
  Beta virt. eigenvalues --    0.36533   0.37883   0.39151   0.42123   0.47443
  Beta virt. eigenvalues --    0.51081   0.52909   0.57904   0.63966   0.77338
  Beta virt. eigenvalues --    0.83105   0.86140   0.90079   1.01843   1.09807
  Beta virt. eigenvalues --    1.11204   1.13599   1.15295   1.18088   1.38924
  Beta virt. eigenvalues --    1.51943   1.53780   1.54597   1.58562   1.62270
  Beta virt. eigenvalues --    1.69896   1.73821   1.76982   1.81419   1.89082
  Beta virt. eigenvalues --    1.90101   2.08840   2.10736   2.18807   2.20885
  Beta virt. eigenvalues --    2.25693   2.30570   2.36131   2.47665   2.76108
  Beta virt. eigenvalues --    2.78993   3.79437   3.91852   4.18791   5.04735
  Beta virt. eigenvalues --    5.05489   5.07262   5.09102   5.22065   5.81397
  Beta virt. eigenvalues --    6.79712   6.82869   6.87965   6.90088   6.93656
  Beta virt. eigenvalues --    6.97098   7.11210   7.11794   7.33073   7.42910
  Beta virt. eigenvalues --    8.22514  17.32525  17.46678  17.57721  49.97194
  Beta virt. eigenvalues --   50.00337 189.40697
          Condensed to atoms (all electrons):
               1          2          3          4
     1  S   15.386497   0.105768  -0.092872   0.024626
     2  O    0.105768   8.350486   0.023211  -0.000171
     3  O   -0.092872   0.023211   8.242538   0.210917
     4  H    0.024626  -0.000171   0.210917   0.477521
          Atomic-Atomic Spin Densities.
               1          2          3          4
     1  S    0.901728  -0.196222  -0.078944  -0.005982
     2  O   -0.196222   0.497937   0.016588   0.001209
     3  O   -0.078944   0.016588   0.125638  -0.005517
     4  H   -0.005982   0.001209  -0.005517   0.012432
 Mulliken charges and spin densities:
               1          2
     1  S    0.575982   0.620581
     2  O   -0.479294   0.319512
     3  O   -0.383794   0.057765
     4  H    0.287106   0.002142
 Sum of Mulliken charges =  -0.00000   1.00000
 Mulliken charges and spin densities with hydrogens summed into heavy atoms:
               1          2
     1  S    0.575982   0.620581
     2  O   -0.479294   0.319512
     3  O   -0.096687   0.059907
 APT charges:
               1
     1  S    0.964957
     2  O   -0.546379
     3  O   -0.705652
     4  H    0.287074
 Sum of APT charges =   0.00000
 APT charges with hydrogens summed into heavy atoms:
               1
     1  S    0.964957
     2  O   -0.546379
     3  O   -0.418578
 Electronic spatial extent (au):  <R**2>=            179.3979
 Charge=              0.0000 electrons
 Dipole moment (field-independent basis, Debye):
    X=             -1.1905    Y=             -0.0249    Z=              0.5929  Tot=              1.3302
 Quadrupole moment (field-independent basis, Debye-Ang):
   XX=            -26.8919   YY=            -21.1237   ZZ=            -23.6154
   XY=             -3.3869   XZ=             -0.7663   YZ=              0.8735
 Traceless Quadrupole moment (field-independent basis, Debye-Ang):
   XX=             -3.0149   YY=              2.7533   ZZ=              0.2616
   XY=             -3.3869   XZ=             -0.7663   YZ=              0.8735
 Octapole moment (field-independent basis, Debye-Ang**2):
  XXX=             -1.2310  YYY=              4.7432  ZZZ=              0.0516  XYY=             -4.4810
  XXY=              0.9294  XXZ=              0.9963  XZZ=             -0.1767  YZZ=              1.1777
  YYZ=              1.0368  XYZ=             -1.0675
 Hexadecapole moment (field-independent basis, Debye-Ang**3):
 XXXX=           -144.2181 YYYY=            -51.9926 ZZZZ=            -24.8216 XXXY=             -6.3069
 XXXZ=             -1.4290 YYYX=             -6.1537 YYYZ=              1.4500 ZZZX=             -0.4648
 ZZZY=              0.5919 XXYY=            -27.1829 XXZZ=            -27.2555 YYZZ=            -13.7921
 XXYZ=              1.4832 YYXZ=             -1.2583 ZZXY=             -0.5218
 N-N= 1.106488762694D+02 E-N=-1.525205069302D+03  KE= 5.483067955777D+02
  Exact polarizability:  33.542   1.331  26.330  -0.261   0.174  19.763
 Approx polarizability:  39.087   3.632  29.991  -0.119   0.305  21.531
                          Isotropic Fermi Contact Couplings
        Atom                 a.u.       MegaHertz       Gauss      10(-4) cm-1
     1  S(33)              0.09422      32.36359      11.54813      10.79533
     2  O(17)              0.05431     -32.92368     -11.74799     -10.98216
     3  O(17)              0.01977     -11.98538      -4.27668      -3.99789
     4  H(1)               0.00073       3.27303       1.16790       1.09176
 --------------------------------------------------------
       Center         ----  Spin Dipole Couplings  ----
                      3XX-RR        3YY-RR        3ZZ-RR
 --------------------------------------------------------
     1   Atom       -1.494032     -1.596907      3.090939
     2   Atom       -0.795684     -0.799699      1.595383
     3   Atom       -0.231596     -0.190522      0.422118
     4   Atom       -0.008208      0.018852     -0.010645
 --------------------------------------------------------
                        XY            XZ            YZ
 --------------------------------------------------------
     1   Atom       -0.000121      0.052071      0.187692
     2   Atom       -0.009953     -0.086961      0.049370
     3   Atom       -0.005419     -0.014182     -0.112485
     4   Atom       -0.004845     -0.001465      0.005138
 --------------------------------------------------------


 ---------------------------------------------------------------------------------
              Anisotropic Spin Dipole Couplings in Principal Axis System
 ---------------------------------------------------------------------------------

       Atom             a.u.   MegaHertz   Gauss  10(-4) cm-1        Axes

              Baa    -1.6045   -65.781   -23.472   -21.942  0.0200  0.9990 -0.0402
     1 S(33)  Bbb    -1.4946   -61.276   -21.865   -20.440  0.9997 -0.0205 -0.0105
              Bcc     3.0990   127.057    45.337    42.382  0.0113  0.0399  0.9991
 
              Baa    -0.8080    58.466    20.862    19.502  0.6654  0.7465  0.0087
     2 O(17)  Bbb    -0.7916    57.278    20.438    19.106  0.7456 -0.6651  0.0409
              Bcc     1.5996  -115.744   -41.300   -38.608 -0.0364  0.0207  0.9991
 
              Baa    -0.2344    16.961     6.052     5.658  0.9502  0.3030  0.0724
     3 O(17)  Bbb    -0.2080    15.048     5.370     5.020 -0.3110  0.9368  0.1602
              Bcc     0.4424   -32.010   -11.422   -10.677 -0.0193 -0.1748  0.9844
 
              Baa    -0.0117    -6.224    -2.221    -2.076  0.2327 -0.1254  0.9644
     4 H(1)   Bbb    -0.0089    -4.765    -1.700    -1.590  0.9572  0.2047 -0.2044
              Bcc     0.0206    10.990     3.921     3.666 -0.1718  0.9708  0.1677
 

 ---------------------------------------------------------------------------------

 Calling FoFJK, ICntrl=    100127 FMM=F ISym2X=0 I1Cent= 0 IOpClX= 1 NMat=1 NMatS=1 NMatT=0.
 Full mass-weighted force constant matrix:
 Low frequencies ---  -25.6062   -9.0378   -0.0028    0.0027    0.0030    8.9833
 Low frequencies ---   97.9888  400.1960  774.2875
 Diagonal vibrational polarizability:
       25.8826723      16.8499898     297.1187366
 Harmonic frequencies (cm**-1), IR intensities (KM/Mole), Raman scattering
 activities (A**4/AMU), depolarization ratios for plane and unpolarized
 incident light, reduced masses (AMU), force constants (mDyne/A),
 and normal coordinates:
                      1                      2                      3
                      A                      A                      A
 Frequencies --     97.9822               400.1959               774.2874
 Red. masses --      1.1807                 6.2438                16.8231
 Frc consts  --      0.0067                 0.5892                 5.9424
 IR Inten    --    115.1677                31.0370               201.6025
  Atom  AN      X      Y      Z        X      Y      Z        X      Y      Z
     1  16    -0.00   0.02   0.03    -0.01   0.18  -0.03    -0.34   0.25  -0.02
     2   8     0.03  -0.02  -0.04     0.35  -0.18   0.03    -0.02  -0.10   0.01
     3   8    -0.00   0.00  -0.08    -0.29  -0.19   0.05     0.71  -0.39   0.05
     4   1    -0.30  -0.32   0.90    -0.68   0.04  -0.47    -0.20  -0.21  -0.24
                      4                      5                      6
                      A                      A                      A
 Frequencies --   1108.5668              1203.1095              3829.5814
 Red. masses --      1.3457                 5.7477                 1.0655
 Frc consts  --      0.9744                 4.9018                 9.2067
 IR Inten    --     15.8548               118.9164               109.9442
  Atom  AN      X      Y      Z        X      Y      Z        X      Y      Z
     1  16    -0.05   0.00   0.01    -0.15  -0.19   0.00     0.00  -0.00  -0.00
     2   8     0.09   0.06  -0.00     0.30   0.32  -0.01    -0.00  -0.00  -0.00
     3   8    -0.05  -0.05  -0.02     0.05   0.04   0.02    -0.00  -0.06  -0.02
     4   1     0.95  -0.20   0.17    -0.84   0.17  -0.13     0.08   0.94   0.33

 -------------------
 - Thermochemistry -
 -------------------
 Temperature   298.150 Kelvin.  Pressure   1.00000 Atm.
 Atom     1 has atomic number 16 and mass  31.97207
 Atom     2 has atomic number  8 and mass  15.99491
 Atom     3 has atomic number  8 and mass  15.99491
 Atom     4 has atomic number  1 and mass   1.00783
 Molecular mass:    64.96973 amu.
 Principal axes and moments of inertia in atomic units:
                           1         2         3
     Eigenvalues --    52.30767 189.71938 241.17774
           X            0.99928  -0.03729  -0.00713
           Y            0.03745   0.99903   0.02313
           Z            0.00626  -0.02338   0.99971
 This molecule is an asymmetric top.
 Rotational symmetry number  1.
 Rotational temperatures (Kelvin)      1.65586     0.45654     0.35913
 Rotational constants (GHZ):          34.50242     9.51269     7.48303
 Zero-point vibrational energy      44343.9 (Joules/Mol)
                                   10.59845 (Kcal/Mol)
 Warning -- explicit consideration of   2 degrees of freedom as
           vibrations may cause significant error
 Vibrational temperatures:    140.97   575.79  1114.03  1594.98  1731.01
          (Kelvin)           5509.91
 
 Zero-point correction=                           0.016890 (Hartree/Particle)
 Thermal correction to Energy=                    0.020897
 Thermal correction to Enthalpy=                  0.021841
 Thermal correction to Gibbs Free Energy=        -0.009990
 Sum of electronic and zero-point Energies=           -549.188861
 Sum of electronic and thermal Energies=              -549.184854
 Sum of electronic and thermal Enthalpies=            -549.183910
 Sum of electronic and thermal Free Energies=         -549.215740
 
                     E (Thermal)             CV                S
                      KCal/Mol        Cal/Mol-Kelvin    Cal/Mol-Kelvin
 Total                   13.113             10.552             66.993
 Electronic               0.000              0.000              1.377
 Translational            0.889              2.981             38.433
 Rotational               0.889              2.981             22.397
 Vibrational             11.335              4.590              4.786
 Vibration     1          0.603              1.951              3.494
 Vibration     2          0.766              1.470              0.962
                       Q            Log10(Q)             Ln(Q)
 Total Bot       0.393541D+05          4.594990         10.580356
 Total V=0       0.231051D+13         12.363708         28.468490
 Vib (Bot)       0.545867D-07         -7.262913        -16.723475
 Vib (Bot)    1  0.209535D+01          0.321256          0.739720
 Vib (Bot)    2  0.445308D+00         -0.351339         -0.808988
 Vib (V=0)       0.320483D+01          0.505805          1.164659
 Vib (V=0)    1  0.265418D+01          0.423930          0.976135
 Vib (V=0)    2  0.116955D+01          0.068019          0.156621
 Electronic      0.200000D+01          0.301030          0.693147
 Translational   0.205836D+08          7.313520         16.840003
 Rotational      0.175127D+05          4.243353          9.770681
 ***** Axes restored to original set *****
 -------------------------------------------------------------------
 Center     Atomic                   Forces (Hartrees/Bohr)
 Number     Number              X              Y              Z
 -------------------------------------------------------------------
      1       16           0.000003547   -0.000070799    0.000014756
      2        8          -0.000008940    0.000078280   -0.000004144
      3        8           0.000021516   -0.000023711    0.000001988
      4        1          -0.000016124    0.000016230   -0.000012600
 -------------------------------------------------------------------
 Cartesian Forces:  Max     0.000078280 RMS     0.000033140
 FormGI is forming the generalized inverse of G from B-inverse, IUseBI=4.

 GradGradGradGradGradGradGradGradGradGradGradGradGradGradGradGradGradGrad
 Berny optimization.
 Internal  Forces:  Max     0.000076352 RMS     0.000034416
 Search for a local minimum.
 Step number   1 out of a maximum of    2
 All quantities printed in internal units (Hartrees-Bohrs-Radians)
 Second derivative matrix not updated -- analytic derivatives used.
 The second derivative matrix:
                          R1        R2        R3        A1        A2
           R1           0.57499
           R2           0.02374   0.25161
           R3          -0.00242   0.00730   0.52702
           A1           0.03452  -0.01573  -0.00794   0.32377
           A2           0.00338   0.04192   0.02230  -0.05078   0.14076
           D1          -0.00120  -0.00064  -0.00064   0.00703   0.00425
                          D1
           D1           0.00125
 ITU=  0
     Eigenvalues ---    0.00086   0.11689   0.25031   0.34100   0.52913
     Eigenvalues ---    0.58121
 Angle between quadratic step and forces=  63.14 degrees.
 Linear search not attempted -- first point.
 Iteration  1 RMS(Cart)=  0.00026799 RMS(Int)=  0.00000006
 Iteration  2 RMS(Cart)=  0.00000004 RMS(Int)=  0.00000000
 Variable       Old X    -DE/DX   Delta X   Delta X   Delta X     New X
                                 (Linear)    (Quad)   (Total)
    R1        2.78042  -0.00008   0.00000  -0.00014  -0.00014   2.78028
    R2        3.10296   0.00001   0.00000   0.00001   0.00001   3.10297
    R3        1.82341  -0.00002   0.00000  -0.00004  -0.00004   1.82337
    A1        1.89954   0.00001   0.00000   0.00008   0.00008   1.89962
    A2        1.89808   0.00003   0.00000   0.00027   0.00027   1.89834
    D1       -0.41878   0.00000   0.00000  -0.00040  -0.00040  -0.41918
         Item               Value     Threshold  Converged?
 Maximum Force            0.000076     0.000450     YES
 RMS     Force            0.000034     0.000300     YES
 Maximum Displacement     0.000294     0.001800     YES
 RMS     Displacement     0.000268     0.001200     YES
 Predicted change in Energy=-9.701839D-09
 Optimization completed.
    -- Stationary point found.
                           ----------------------------
                           !   Optimized Parameters   !
                           ! (Angstroms and Degrees)  !
 --------------------------                            --------------------------
 ! Name  Definition              Value          Derivative Info.                !
 --------------------------------------------------------------------------------
 ! R1    R(1,2)                  1.4713         -DE/DX =   -0.0001              !
 ! R2    R(1,3)                  1.642          -DE/DX =    0.0                 !
 ! R3    R(3,4)                  0.9649         -DE/DX =    0.0                 !
 ! A1    A(2,1,3)              108.8358         -DE/DX =    0.0                 !
 ! A2    A(1,3,4)              108.7519         -DE/DX =    0.0                 !
 ! D1    D(2,1,3,4)            -23.9942         -DE/DX =    0.0                 !
 --------------------------------------------------------------------------------
 GradGradGradGradGradGradGradGradGradGradGradGradGradGradGradGradGradGrad


 ----------------------------------------------------------------------

 Electric dipole moment (input orientation):
 (Debye = 10**-18 statcoulomb cm , SI units = C m)
                  (au)            (Debye)         (10**-30 SI)
   Tot        0.523351D+00      0.133023D+01      0.443715D+01
   x          0.329987D+00      0.838743D+00      0.279775D+01
   y          0.319013D+00      0.810850D+00      0.270470D+01
   z         -0.251467D+00     -0.639165D+00     -0.213202D+01

 Dipole polarizability, Alpha (input orientation).
 (esu units = cm**3 , SI units = C**2 m**2 J**-1)
 Alpha(0;0):
               (au)            (10**-24 esu)      (10**-40 SI)
   iso        0.265450D+02      0.393357D+01      0.437668D+01
   aniso      0.121703D+02      0.180345D+01      0.200661D+01
   xx         0.208074D+02      0.308334D+01      0.343068D+01
   yx         0.136582D+01      0.202394D+00      0.225193D+00
   yy         0.309436D+02      0.458537D+01      0.510191D+01
   zx        -0.292755D+01     -0.433818D+00     -0.482688D+00
   zy        -0.345044D+01     -0.511302D+00     -0.568900D+00
   zz         0.278841D+02      0.413199D+01      0.459746D+01

 ----------------------------------------------------------------------

 Dipole orientation:
    16          5.67023984          1.00133351          4.57238126
     8          6.33438466          2.97167773          2.72647434
     8          4.21456042          2.32579310          6.97137911
     1          4.70190968          4.08080920          7.05635278

 Electric dipole moment (dipole orientation):
 (Debye = 10**-18 statcoulomb cm , SI units = C m)
                  (au)            (Debye)         (10**-30 SI)
   Tot        0.523351D+00      0.133023D+01      0.443715D+01
   x          0.000000D+00      0.000000D+00      0.000000D+00
   y          0.000000D+00      0.000000D+00      0.000000D+00
   z          0.523351D+00      0.133023D+01      0.443715D+01

 Dipole polarizability, Alpha (dipole orientation).
 (esu units = cm**3 , SI units = C**2 m**2 J**-1)
 Alpha(0;0):
               (au)            (10**-24 esu)      (10**-40 SI)
   iso        0.265450D+02      0.393357D+01      0.437668D+01
   aniso      0.121703D+02      0.180345D+01      0.200661D+01
   xx         0.222144D+02      0.329184D+01      0.366266D+01
   yx         0.320445D+00      0.474850D-01      0.528342D-01
   yy         0.263683D+02      0.390737D+01      0.434754D+01
   zx        -0.525407D+01     -0.778572D+00     -0.866279D+00
   zy        -0.145361D+01     -0.215403D+00     -0.239668D+00
   zz         0.310524D+02      0.460149D+01      0.511985D+01

 ----------------------------------------------------------------------
 1\1\GINC-CCLEARMO\Freq\UwB97XD\6-311+G(2d,2p)\H1O2S1(2)\TROUPPER\28-Se
 p-2026\0\\#N Geom=AllCheck Guess=TCheck SCRF=Check GenChk UwB97XD/6-31
 1+G(2d,2p) Freq\\opt freq\\0,2\S,3.8579891445,0.2990302548,0.406338578
 \O,3.7698361851,-1.1686149711,0.4617263151\O,4.2769337536,0.7478638852
 ,-1.116571989\H,4.7350253068,0.0126891011,-1.541674514\\Version=EM64M-
 G16RevA.03\State=2-A\HF=-549.2057505\S2=0.754957\S2-1=0.\S2A=0.750017\
 RMSD=2.033e-09\RMSF=3.314e-05\ZeroPoint=0.0168897\Thermal=0.0208967\Di
 pole=0.3299869,0.319013,-0.2514668\DipoleDeriv=0.395614,0.1309486,-0.3
 122297,0.155924,1.0559407,-0.3691084,-0.3340487,-0.3575084,1.4433155,-
 0.3083187,0.0097535,0.0507665,-0.1048889,-0.8635315,0.2720319,0.051812
 ,-0.0834644,-0.4672867,-0.4269117,-0.1608605,0.2737786,-0.0664597,-0.3
 815938,0.0208171,0.3023313,0.4100273,-1.3084498,0.3396164,0.0201584,-0
 .0123154,0.0154246,0.1891846,0.0762594,-0.0200946,0.0309455,0.3324209\
 Polar=20.8074157,1.3658205,30.9436009,-2.9275508,-3.4504378,27.88406\Q
 uadrupole=0.8349994,-2.4153017,1.5803024,-0.8483336,-1.2474148,2.21890
 15\PG=C01 [X(H1O2S1)]\NImag=0\\0.02861287,0.02719680,0.60424904,-0.085
 10148,-0.00798909,0.29864377,-0.00553250,-0.02689462,0.01405657,0.0045
 9517,-0.03125318,-0.55679339,0.01140727,0.03750472,0.57081527,0.015279
 55,-0.00788420,-0.05680784,-0.01144185,-0.03138627,0.04130490,-0.01862
 337,-0.00643993,0.05976583,0.00025723,-0.00647768,-0.00015788,0.135540
 24,0.01082802,-0.05903879,-0.01546957,-0.01192375,-0.01076658,0.042680
 91,-0.17924232,0.38590613,0.05061501,0.03995006,-0.20695829,0.00035191
 ,0.01920765,0.00693101,-0.16183786,0.11197454,0.31481960,-0.00445700,0
 .00613775,0.01127908,0.00068010,0.00022613,-0.00367983,-0.11717410,0.1
 8033805,0.11087094,0.12095100,-0.00677165,0.01158314,0.01205139,0.0013
 1365,-0.00325531,-0.00341044,0.19215993,-0.31610077,-0.17113225,-0.186
 70193,0.30777294,0.01920692,-0.02407677,-0.03487763,-0.00296663,0.0007
 7135,0.00857194,0.10222991,-0.13918587,-0.11479231,-0.11847020,0.16249
 129,0.14109800\\-0.00000355,0.00007080,-0.00001476,0.00000894,-0.00007
 828,0.00000414,-0.00002152,0.00002371,-0.00000199,0.00001612,-0.000016
 23,0.00001260\\\@


 SI MONUMENTUM REQUIRIS, CIRCUMSPICE
     -- FROM SIR CHRISTOPHER WREN'S TOMBSTONE
 Job cpu time:       0 days  0 hours  6 minutes 56.8 seconds.
 Elapsed time:       0 days  0 hours  0 minutes 19.4 seconds.
 File lengths (MBytes):  RWF=     14 Int=      0 D2E=      0 Chk=      2 Scr=      1
 Normal termination of Gaussian 16 at Mon Sep 28 17:19:32 2026.
