 Entering Gaussian System, Link 0=/applications/g16/g16/g16
 Initial command:
 /applications/g16/g16/l1.exe "/scratch/g98/Gau-50947.inp" -scrdir="/scratch/g98/"
 Entering Link 1 = /applications/g16/g16/l1.exe PID=     50948.
  
 Copyright (c) 1988,1990,1992,1993,1995,1998,2003,2009,2016,
            Gaussian, Inc.  All Rights Reserved.
  
 This is part of the Gaussian(R) 16 program.  It is based on
 the Gaussian(R) 09 system (copyright 2009, Gaussian, Inc.),
 the Gaussian(R) 03 system (copyright 2003, Gaussian, Inc.),
 the Gaussian(R) 98 system (copyright 1998, Gaussian, Inc.),
 the Gaussian(R) 94 system (copyright 1995, Gaussian, Inc.),
 the Gaussian 92(TM) system (copyright 1992, Gaussian, Inc.),
 the Gaussian 90(TM) system (copyright 1990, Gaussian, Inc.),
 the Gaussian 88(TM) system (copyright 1988, Gaussian, Inc.),
 the Gaussian 86(TM) system (copyright 1986, Carnegie Mellon
 University), and the Gaussian 82(TM) system (copyright 1983,
 Carnegie Mellon University). Gaussian is a federally registered
 trademark of Gaussian, Inc.
  
 This software contains proprietary and confidential information,
 including trade secrets, belonging to Gaussian, Inc.
  
 This software is provided under written license and may be
 used, copied, transmitted, or stored only in accord with that
 written license.
  
 The following legend is applicable only to US Government
 contracts under FAR:
  
                    RESTRICTED RIGHTS LEGEND
  
 Use, reproduction and disclosure by the US Government is
 subject to restrictions as set forth in subparagraphs (a)
 and (c) of the Commercial Computer Software - Restricted
 Rights clause in FAR 52.227-19.
  
 Gaussian, Inc.
 340 Quinnipiac St., Bldg. 40, Wallingford CT 06492
  
  
 ---------------------------------------------------------------
 Warning -- This program may not be used in any manner that
 competes with the business of Gaussian, Inc. or will provide
 assistance to any competitor of Gaussian, Inc.  The licensee
 of this program is prohibited from giving any competitor of
 Gaussian, Inc. access to this program.  By using this program,
 the user acknowledges that Gaussian, Inc. is engaged in the
 business of creating and licensing software in the field of
 computational chemistry and represents and warrants to the
 licensee that it is not a competitor of Gaussian, Inc. and that
 it will not use this program in any manner prohibited above.
 ---------------------------------------------------------------
  

 Cite this work as:
 Gaussian 16, Revision A.03,
 M. J. Frisch, G. W. Trucks, H. B. Schlegel, G. E. Scuseria, 
 M. A. Robb, J. R. Cheeseman, G. Scalmani, V. Barone, 
 G. A. Petersson, H. Nakatsuji, X. Li, M. Caricato, A. V. Marenich, 
 J. Bloino, B. G. Janesko, R. Gomperts, B. Mennucci, H. P. Hratchian, 
 J. V. Ortiz, A. F. Izmaylov, J. L. Sonnenberg, D. Williams-Young, 
 F. Ding, F. Lipparini, F. Egidi, J. Goings, B. Peng, A. Petrone, 
 T. Henderson, D. Ranasinghe, V. G. Zakrzewski, J. Gao, N. Rega, 
 G. Zheng, W. Liang, M. Hada, M. Ehara, K. Toyota, R. Fukuda, 
 J. Hasegawa, M. Ishida, T. Nakajima, Y. Honda, O. Kitao, H. Nakai, 
 T. Vreven, K. Throssell, J. A. Montgomery, Jr., J. E. Peralta, 
 F. Ogliaro, M. J. Bearpark, J. J. Heyd, E. N. Brothers, K. N. Kudin, 
 V. N. Staroverov, T. A. Keith, R. Kobayashi, J. Normand, 
 K. Raghavachari, A. P. Rendell, J. C. Burant, S. S. Iyengar, 
 J. Tomasi, M. Cossi, J. M. Millam, M. Klene, C. Adamo, R. Cammi, 
 J. W. Ochterski, R. L. Martin, K. Morokuma, O. Farkas, 
 J. B. Foresman, and D. J. Fox, Gaussian, Inc., Wallingford CT, 2016.
 
 ******************************************
 Gaussian 16:  EM64M-G16RevA.03 25-Dec-2016
                 4-Oct-2026 
 ******************************************
 %nprocshared=22
 Will use up to   22 processors via shared memory.
 %mem=48GB
 %chk=nh3.chk
 -----------------------------------------
 # opt freq rwb97xd/6-311+g(2d,2p) scf=xqc
 -----------------------------------------
 1/18=20,19=15,26=3,38=1/1,3;
 2/9=110,12=2,17=6,18=5,40=1/2;
 3/5=4,6=6,7=212,11=2,25=1,30=1,71=1,74=-58,116=1/1,2,3;
 4//1;
 5/5=2,8=3,13=1,38=5/2,8;
 6/7=2,8=2,9=2,10=2,28=1/1;
 7//1,2,3,16;
 1/18=20,19=15,26=3/3(2);
 2/9=110/2;
 99//99;
 2/9=110/2;
 3/5=4,6=6,7=212,11=2,25=1,30=1,71=1,74=-58,116=1/1,2,3;
 4/5=5,16=3,69=1/1;
 5/5=2,8=3,13=1,38=5/2,8;
 7//1,2,3,16;
 1/18=20,19=15,26=3/3(-5);
 2/9=110/2;
 6/7=2,8=2,9=2,10=2,19=2,28=1/1;
 99/9=1/99;
 --------
 opt freq
 --------
 Symbolic Z-matrix:
 Charge =  0 Multiplicity = 1
 N                    -0.83179  -0.38236   0.23165 
 H                    -0.49847  -1.32517   0.23165 
 H                    -0.49845   0.08904   1.04815 
 H                    -0.49845   0.08904  -0.58485 
 

 GradGradGradGradGradGradGradGradGradGradGradGradGradGradGradGradGradGrad
 Berny optimization.
 Initialization pass.
                           ----------------------------
                           !    Initial Parameters    !
                           ! (Angstroms and Degrees)  !
 --------------------------                            --------------------------
 ! Name  Definition              Value          Derivative Info.                !
 --------------------------------------------------------------------------------
 ! R1    R(1,2)                  1.0            estimate D2E/DX2                !
 ! R2    R(1,3)                  1.0            estimate D2E/DX2                !
 ! R3    R(1,4)                  1.0            estimate D2E/DX2                !
 ! A1    A(2,1,3)              109.4712         estimate D2E/DX2                !
 ! A2    A(2,1,4)              109.4712         estimate D2E/DX2                !
 ! A3    A(3,1,4)              109.4713         estimate D2E/DX2                !
 ! D1    D(2,1,4,3)           -120.0            estimate D2E/DX2                !
 --------------------------------------------------------------------------------
 Trust Radius=3.00D-01 FncErr=1.00D-07 GrdErr=1.00D-06 EigMax=2.50D+02 EigMin=1.00D-04
 Number of steps in this run=     20 maximum allowed number of steps=    100.
 GradGradGradGradGradGradGradGradGradGradGradGradGradGradGradGradGradGrad

                          Input orientation:                          
 ---------------------------------------------------------------------
 Center     Atomic      Atomic             Coordinates (Angstroms)
 Number     Number       Type             X           Y           Z
 ---------------------------------------------------------------------
      1          7           0       -0.831789   -0.382356    0.231651
      2          1           0       -0.498467   -1.325169    0.231651
      3          1           0       -0.498450    0.089044    1.048148
      4          1           0       -0.498450    0.089044   -0.584846
 ---------------------------------------------------------------------
                    Distance matrix (angstroms):
                    1          2          3          4
     1  N    0.000000
     2  H    1.000000   0.000000
     3  H    1.000000   1.632993   0.000000
     4  H    1.000000   1.632993   1.632993   0.000000
 Stoichiometry    H3N
 Framework group  C3V[C3(N),3SGV(H)]
 Deg. of freedom     2
 Full point group                 C3V     NOp   6
 Largest Abelian subgroup         CS      NOp   2
 Largest concise Abelian subgroup CS      NOp   2
                         Standard orientation:                         
 ---------------------------------------------------------------------
 Center     Atomic      Atomic             Coordinates (Angstroms)
 Number     Number       Type             X           Y           Z
 ---------------------------------------------------------------------
      1          7           0       -0.000000    0.000000    0.100000
      2          1           0        0.000000    0.942809   -0.233333
      3          1           0       -0.816497   -0.471405   -0.233333
      4          1           0        0.816497   -0.471405   -0.233333
 ---------------------------------------------------------------------
 Rotational constants (GHZ):         311.9520328         311.9520328         188.0456790
 Standard basis: 6-311+G(2d,2p) (5D, 7F)
 There are    37 symmetry adapted cartesian basis functions of A'  symmetry.
 There are    19 symmetry adapted cartesian basis functions of A"  symmetry.
 There are    35 symmetry adapted basis functions of A'  symmetry.
 There are    19 symmetry adapted basis functions of A"  symmetry.
    54 basis functions,    75 primitive gaussians,    56 cartesian basis functions
     5 alpha electrons        5 beta electrons
       nuclear repulsion energy        12.0848827900 Hartrees.
 NAtoms=    4 NActive=    4 NUniq=    2 SFac= 4.00D+00 NAtFMM=   60 NAOKFM=F Big=F
 Integral buffers will be    131072 words long.
 Raffenetti 2 integral format.
 Two-electron integral symmetry is turned on.
 Nuclear repulsion after empirical dispersion term =       12.0847603808 Hartrees.
 One-electron integrals computed using PRISM.
 NBasis=    54 RedAO= T EigKep=  1.97D-03  NBF=    35    19
 NBsUse=    54 1.00D-06 EigRej= -1.00D+00 NBFU=    35    19
 ExpMin= 6.39D-02 ExpMax= 6.29D+03 ExpMxC= 9.49D+02 IAcc=3 IRadAn=         5 AccDes= 0.00D+00
 Harris functional with IExCor= 4639 and IRadAn=       5 diagonalized for initial guess.
 HarFok:  IExCor= 4639 AccDes= 0.00D+00 IRadAn=         5 IDoV= 1 UseB2=F ITyADJ=14
 ICtDFT=  3500011 ScaDFX=  1.000000  1.000000  1.000000  1.000000
 FoFCou: FMM=F IPFlag=           0 FMFlag=      100000 FMFlg1=           0
         NFxFlg=           0 DoJE=T BraDBF=F KetDBF=T FulRan=T
         wScrn=  0.000000 ICntrl=       500 IOpCl=  0 I1Cent=   200000004 NGrid=           0
         NMat0=    1 NMatS0=      1 NMatT0=    0 NMatD0=    1 NMtDS0=    0 NMtDT0=    0
 Petite list used in FoFCou.
 Initial guess orbital symmetries:
       Occupied  (A1) (A1) (E) (E) (A1)
       Virtual   (A1) (E) (E) (A1) (E) (E) (A1) (E) (E) (E) (E)
                 (E) (E) (A1) (A1) (A1) (A2) (E) (E) (A1) (E) (E)
                 (A1) (E) (E) (A1) (E) (E) (E) (E) (A1) (E) (E)
                 (A2) (A1) (E) (E) (E) (E) (A1) (A1) (E) (E) (E)
                 (E) (A1) (E) (E) (A1)
 The electronic state of the initial guess is 1-A1.
 Keep R1 ints in memory in symmetry-blocked form, NReq=21561492.
 Requested convergence on RMS density matrix=1.00D-08 within  32 cycles.
 Requested convergence on MAX density matrix=1.00D-06.
 Requested convergence on             energy=1.00D-06.
 No special actions if energy rises.
 Integral accuracy reduced to 1.0D-05 until final iterations.
 Initial convergence to 1.0D-05 achieved.  Increase integral accuracy.
 SCF Done:  E(RwB97XD) =  -56.5636963688     A.U. after   12 cycles
            NFock= 12  Conv=0.36D-08     -V/T= 2.0032
 QCSCF skips out because SCF is already converged.

 **********************************************************************

            Population analysis using the SCF density.

 **********************************************************************

 Orbital symmetries:
       Occupied  (A1) (A1) (E) (E) (A1)
       Virtual   (A1) (E) (E) (A1) (E) (E) (A1) (E) (E) (E) (E)
                 (A1) (E) (E) (A1) (A1) (A2) (E) (E) (A1) (E) (E)
                 (A1) (E) (E) (A1) (E) (E) (E) (E) (A1) (A2) (E)
                 (E) (A1) (E) (E) (E) (E) (A1) (A1) (E) (E) (E)
                 (E) (A1) (E) (E) (A1)
 The electronic state is 1-A1.
 Alpha  occ. eigenvalues --  -14.40398  -0.95497  -0.55791  -0.55791  -0.35008
 Alpha virt. eigenvalues --    0.08857   0.15174   0.15174   0.18575   0.23513
 Alpha virt. eigenvalues --    0.23513   0.26547   0.55838   0.55838   0.65252
 Alpha virt. eigenvalues --    0.65252   0.67229   0.68274   0.68274   0.70057
 Alpha virt. eigenvalues --    0.92403   0.99148   1.09898   1.09898   1.11631
 Alpha virt. eigenvalues --    1.38519   1.38519   1.45021   1.63925   1.63925
 Alpha virt. eigenvalues --    1.73399   1.80394   1.80394   2.73115   2.73115
 Alpha virt. eigenvalues --    2.75231   3.81623   3.82493   3.82493   3.86627
 Alpha virt. eigenvalues --    3.90158   3.90158   3.99507   3.99507   4.07939
 Alpha virt. eigenvalues --    4.43490   5.00072   5.00072   5.19727   5.19727
 Alpha virt. eigenvalues --    5.39014   6.05024   6.05024  35.74609
          Condensed to atoms (all electrons):
               1          2          3          4
     1  N    6.307172   0.399163   0.399163   0.399163
     2  H    0.399163   0.495125  -0.031255  -0.031255
     3  H    0.399163  -0.031255   0.495125  -0.031255
     4  H    0.399163  -0.031255  -0.031255   0.495125
 Mulliken charges:
               1
     1  N   -0.504662
     2  H    0.168221
     3  H    0.168221
     4  H    0.168221
 Sum of Mulliken charges =  -0.00000
 Mulliken charges with hydrogens summed into heavy atoms:
               1
     1  N   -0.000000
 Electronic spatial extent (au):  <R**2>=             26.6104
 Charge=             -0.0000 electrons
 Dipole moment (field-independent basis, Debye):
    X=             -0.0000    Y=              0.0000    Z=             -1.4932  Tot=              1.4932
 Quadrupole moment (field-independent basis, Debye-Ang):
   XX=             -6.1624   YY=             -6.1624   ZZ=             -9.5378
   XY=             -0.0000   XZ=             -0.0000   YZ=             -0.0000
 Traceless Quadrupole moment (field-independent basis, Debye-Ang):
   XX=              1.1251   YY=              1.1251   ZZ=             -2.2503
   XY=             -0.0000   XZ=             -0.0000   YZ=             -0.0000
 Octapole moment (field-independent basis, Debye-Ang**2):
  XXX=             -0.0000  YYY=              0.9850  ZZZ=             -1.4315  XYY=              0.0000
  XXY=             -0.9850  XXZ=             -0.8419  XZZ=              0.0000  YZZ=              0.0000
  YYZ=             -0.8419  XYZ=              0.0000
 Hexadecapole moment (field-independent basis, Debye-Ang**3):
 XXXX=            -10.0298 YYYY=            -10.0298 ZZZZ=            -13.3401 XXXY=              0.0000
 XXXZ=              0.0000 YYYX=             -0.0000 YYYZ=             -0.3241 ZZZX=             -0.0000
 ZZZY=             -0.0000 XXYY=             -3.3433 XXZZ=             -4.0628 YYZZ=             -4.0628
 XXYZ=              0.3241 YYXZ=             -0.0000 ZZXY=              0.0000
 N-N= 1.208476038078D+01 E-N=-1.563355079473D+02  KE= 5.638520171313D+01
 Symmetry A'   KE= 5.367532471706D+01
 Symmetry A"   KE= 2.709876996064D+00
 Calling FoFJK, ICntrl=      2127 FMM=F ISym2X=1 I1Cent= 0 IOpClX= 0 NMat=1 NMatS=1 NMatT=0.
 ***** Axes restored to original set *****
 -------------------------------------------------------------------
 Center     Atomic                   Forces (Hartrees/Bohr)
 Number     Number              X              Y              Z
 -------------------------------------------------------------------
      1        7          -0.012603199    0.000000152   -0.000000000
      2        1           0.004200982   -0.006994213   -0.000000001
      3        1           0.004201108    0.003497030    0.006057123
      4        1           0.004201108    0.003497031   -0.006057122
 -------------------------------------------------------------------
 Cartesian Forces:  Max     0.012603199 RMS     0.005466126

 GradGradGradGradGradGradGradGradGradGradGradGradGradGradGradGradGradGrad
 Berny optimization.
 FormGI is forming the generalized inverse of G from B-inverse, IUseBI=4.
 Internal  Forces:  Max     0.007994515 RMS     0.005380874
 Search for a local minimum.
 Step number   1 out of a maximum of   20
 All quantities printed in internal units (Hartrees-Bohrs-Radians)
 Mixed Optimization -- RFO/linear search
 Second derivative matrix not updated -- first step.
 The second derivative matrix:
                          R1        R2        R3        A1        A2
           R1           0.47688
           R2           0.00000   0.47688
           R3           0.00000   0.00000   0.47688
           A1           0.00000   0.00000   0.00000   0.16000
           A2           0.00000   0.00000   0.00000   0.00000   0.16000
           A3           0.00000   0.00000   0.00000   0.00000   0.00000
           D1           0.00000   0.00000   0.00000   0.00000   0.00000
                          A3        D1
           A3           0.16000
           D1           0.00000   0.01028
 ITU=  0
     Eigenvalues ---    0.05635   0.16000   0.16000   0.47688   0.47688
     Eigenvalues ---    0.47688
 RFO step:  Lambda=-5.57970692D-04 EMin= 5.63503299D-02
 Linear search not attempted -- first point.
 Iteration  1 RMS(Cart)=  0.01218199 RMS(Int)=  0.00042453
 Iteration  2 RMS(Cart)=  0.00026971 RMS(Int)=  0.00029024
 Iteration  3 RMS(Cart)=  0.00000011 RMS(Int)=  0.00029024
 ClnCor:  largest displacement from symmetrization is 7.07D-04 for atom     4.
 Variable       Old X    -DE/DX   Delta X   Delta X   Delta X     New X
                                 (Linear)    (Quad)   (Total)
    R1        1.88973   0.00799   0.00000   0.01674   0.01694   1.90667
    R2        1.88973   0.00799   0.00000   0.01674   0.01694   1.90667
    R3        1.88973   0.00799   0.00000   0.01674   0.01694   1.90667
    A1        1.91063  -0.00024   0.00000  -0.01581  -0.01720   1.89344
    A2        1.91063  -0.00166   0.00000  -0.01749  -0.01720   1.89344
    A3        1.91063  -0.00166   0.00000  -0.01749  -0.01720   1.89344
    D1       -2.09440   0.00232   0.00000   0.04078   0.04078  -2.05362
         Item               Value     Threshold  Converged?
 Maximum Force            0.007995     0.000450     NO 
 RMS     Force            0.005381     0.000300     NO 
 Maximum Displacement     0.026988     0.001800     NO 
 RMS     Displacement     0.012205     0.001200     NO 
 Predicted change in Energy=-2.772085D-04
 GradGradGradGradGradGradGradGradGradGradGradGradGradGradGradGradGradGrad

                          Input orientation:                          
 ---------------------------------------------------------------------
 Center     Atomic      Atomic             Coordinates (Angstroms)
 Number     Number       Type             X           Y           Z
 ---------------------------------------------------------------------
      1          7           0       -0.846070   -0.382356    0.231651
      2          1           0       -0.493733   -1.327803    0.231651
      3          1           0       -0.493716    0.090361    1.050429
      4          1           0       -0.493716    0.090361   -0.587127
 ---------------------------------------------------------------------
                    Distance matrix (angstroms):
                    1          2          3          4
     1  N    0.000000
     2  H    1.008966   0.000000
     3  H    1.008966   1.637555   0.000000
     4  H    1.008966   1.637555   1.637555   0.000000
 Stoichiometry    H3N
 Framework group  C3V[C3(N),3SGV(H)]
 Deg. of freedom     2
 Full point group                 C3V     NOp   6
 Largest Abelian subgroup         CS      NOp   2
 Largest concise Abelian subgroup CS      NOp   2
                         Standard orientation:                         
 ---------------------------------------------------------------------
 Center     Atomic      Atomic             Coordinates (Angstroms)
 Number     Number       Type             X           Y           Z
 ---------------------------------------------------------------------
      1          7           0       -0.000000   -0.000000    0.105705
      2          1           0       -0.000000    0.945443   -0.246644
      3          1           0       -0.818778   -0.472721   -0.246644
      4          1           0        0.818778   -0.472721   -0.246644
 ---------------------------------------------------------------------
 Rotational constants (GHZ):         304.4463321         304.4463321         186.9994017
 Standard basis: 6-311+G(2d,2p) (5D, 7F)
 There are    37 symmetry adapted cartesian basis functions of A'  symmetry.
 There are    19 symmetry adapted cartesian basis functions of A"  symmetry.
 There are    35 symmetry adapted basis functions of A'  symmetry.
 There are    19 symmetry adapted basis functions of A"  symmetry.
    54 basis functions,    75 primitive gaussians,    56 cartesian basis functions
     5 alpha electrons        5 beta electrons
       nuclear repulsion energy        11.9834250500 Hartrees.
 NAtoms=    4 NActive=    4 NUniq=    2 SFac= 4.00D+00 NAtFMM=   60 NAOKFM=F Big=F
 Integral buffers will be    131072 words long.
 Raffenetti 2 integral format.
 Two-electron integral symmetry is turned on.
 Nuclear repulsion after empirical dispersion term =       11.9833005506 Hartrees.
 One-electron integrals computed using PRISM.
 NBasis=    54 RedAO= T EigKep=  1.92D-03  NBF=    35    19
 NBsUse=    54 1.00D-06 EigRej= -1.00D+00 NBFU=    35    19
 Initial guess from the checkpoint file:  "nh3.chk"
 B after Tr=    -0.000000   -0.000000   -0.000000
         Rot=    1.000000   -0.000000   -0.000000   -0.000000 Ang=   0.00 deg.
 Initial guess orbital symmetries:
       Occupied  (A1) (A1) (E) (E) (A1)
       Virtual   (A1) (E) (E) (A1) (E) (E) (A1) (E) (E) (E) (E)
                 (A1) (E) (E) (A1) (A1) (A2) (E) (E) (A1) (E) (E)
                 (A1) (E) (E) (A1) (E) (E) (E) (E) (A1) (A2) (E)
                 (E) (A1) (E) (E) (E) (E) (A1) (A1) (E) (E) (E)
                 (E) (A1) (E) (E) (A1)
 ExpMin= 6.39D-02 ExpMax= 6.29D+03 ExpMxC= 9.49D+02 IAcc=2 IRadAn=         4 AccDes= 0.00D+00
 Harris functional with IExCor= 4639 and IRadAn=       4 diagonalized for initial guess.
 HarFok:  IExCor= 4639 AccDes= 0.00D+00 IRadAn=         4 IDoV= 1 UseB2=F ITyADJ=14
 ICtDFT=  3500011 ScaDFX=  1.000000  1.000000  1.000000  1.000000
 FoFCou: FMM=F IPFlag=           0 FMFlag=      100000 FMFlg1=           0
         NFxFlg=           0 DoJE=T BraDBF=F KetDBF=T FulRan=T
         wScrn=  0.000000 ICntrl=       500 IOpCl=  0 I1Cent=   200000004 NGrid=           0
         NMat0=    1 NMatS0=      1 NMatT0=    0 NMatD0=    1 NMtDS0=    0 NMtDT0=    0
 Petite list used in FoFCou.
 Keep R1 ints in memory in symmetry-blocked form, NReq=21561492.
 Requested convergence on RMS density matrix=1.00D-08 within  32 cycles.
 Requested convergence on MAX density matrix=1.00D-06.
 Requested convergence on             energy=1.00D-06.
 No special actions if energy rises.
 Integral accuracy reduced to 1.0D-05 until final iterations.
 Initial convergence to 1.0D-05 achieved.  Increase integral accuracy.
 SCF Done:  E(RwB97XD) =  -56.5640549808     A.U. after   11 cycles
            NFock= 11  Conv=0.39D-08     -V/T= 2.0038
 QCSCF skips out because SCF is already converged.
 Calling FoFJK, ICntrl=      2127 FMM=F ISym2X=1 I1Cent= 0 IOpClX= 0 NMat=1 NMatS=1 NMatT=0.
 ***** Axes restored to original set *****
 -------------------------------------------------------------------
 Center     Atomic                   Forces (Hartrees/Bohr)
 Number     Number              X              Y              Z
 -------------------------------------------------------------------
      1        7          -0.004204278    0.000000051   -0.000000000
      2        1           0.001401421   -0.000398916   -0.000000000
      3        1           0.001401429    0.000199433    0.000345457
      4        1           0.001401429    0.000199433   -0.000345457
 -------------------------------------------------------------------
 Cartesian Forces:  Max     0.004204278 RMS     0.001415548

 GradGradGradGradGradGradGradGradGradGradGradGradGradGradGradGradGradGrad
 Berny optimization.
 Using GEDIIS/GDIIS optimizer.
 FormGI is forming the generalized inverse of G from B-inverse, IUseBI=4.
 Internal  Forces:  Max     0.001639396 RMS     0.001077251
 Search for a local minimum.
 Step number   2 out of a maximum of   20
 All quantities printed in internal units (Hartrees-Bohrs-Radians)
 Mixed Optimization -- RFO/linear search
 Update second derivatives using D2CorX and points    1    2
 DE= -3.59D-04 DEPred=-2.77D-04 R= 1.29D+00
 TightC=F SS=  1.41D+00  RLast= 5.84D-02 DXNew= 5.0454D-01 1.7522D-01
 Trust test= 1.29D+00 RLast= 5.84D-02 DXMaxT set to 3.00D-01
 The second derivative matrix:
                          R1        R2        R3        A1        A2
           R1           0.48802
           R2           0.01113   0.48802
           R3           0.01113   0.01113   0.48802
           A1           0.03856   0.03856   0.03856   0.14671
           A2           0.03194   0.03194   0.03194  -0.01326   0.14711
           A3           0.03194   0.03194   0.03194  -0.01326  -0.01289
           D1           0.00606   0.00606   0.00606   0.00198   0.00135
                          A3        D1
           A3           0.14711
           D1           0.00135   0.01112
 ITU=  1  0
 Use linear search instead of GDIIS.
     Eigenvalues ---    0.04043   0.15411   0.16000   0.47688   0.47688
     Eigenvalues ---    0.51737
 RFO step:  Lambda=-8.46904190D-05 EMin= 4.04330741D-02
 Quartic linear search produced a step of  0.39946.
 Iteration  1 RMS(Cart)=  0.01316127 RMS(Int)=  0.00057262
 Iteration  2 RMS(Cart)=  0.00028750 RMS(Int)=  0.00048417
 Iteration  3 RMS(Cart)=  0.00000005 RMS(Int)=  0.00048417
 ClnCor:  largest displacement from symmetrization is 2.24D-04 for atom     4.
 Variable       Old X    -DE/DX   Delta X   Delta X   Delta X     New X
                                 (Linear)    (Quad)   (Total)
    R1        1.90667   0.00086   0.00677  -0.00156   0.00527   1.91194
    R2        1.90667   0.00086   0.00677  -0.00156   0.00527   1.91194
    R3        1.90667   0.00086   0.00677  -0.00156   0.00527   1.91194
    A1        1.89344  -0.00021  -0.00687  -0.01261  -0.02063   1.87280
    A2        1.89344  -0.00126  -0.00687  -0.01356  -0.02063   1.87280
    A3        1.89344  -0.00126  -0.00687  -0.01356  -0.02063   1.87280
    D1       -2.05362   0.00164   0.01629   0.03000   0.04567  -2.00795
         Item               Value     Threshold  Converged?
 Maximum Force            0.001639     0.000450     NO 
 RMS     Force            0.001077     0.000300     NO 
 Maximum Displacement     0.027580     0.001800     NO 
 RMS     Displacement     0.013246     0.001200     NO 
 Predicted change in Energy=-6.821785D-05
 GradGradGradGradGradGradGradGradGradGradGradGradGradGradGradGradGradGrad

                          Input orientation:                          
 ---------------------------------------------------------------------
 Center     Atomic      Atomic             Coordinates (Angstroms)
 Number     Number       Type             X           Y           Z
 ---------------------------------------------------------------------
      1          7           0       -0.860665   -0.382356    0.231651
      2          1           0       -0.488876   -1.323325    0.231651
      3          1           0       -0.488859    0.088122    1.046550
      4          1           0       -0.488859    0.088122   -0.583248
 ---------------------------------------------------------------------
                    Distance matrix (angstroms):
                    1          2          3          4
     1  N    0.000000
     2  H    1.011756   0.000000
     3  H    1.011756   1.629798   0.000000
     4  H    1.011756   1.629798   1.629798   0.000000
 Stoichiometry    H3N
 Framework group  C3V[C3(N),3SGV(H)]
 Deg. of freedom     2
 Full point group                 C3V     NOp   6
 Largest Abelian subgroup         CS      NOp   2
 Largest concise Abelian subgroup CS      NOp   2
                         Standard orientation:                         
 ---------------------------------------------------------------------
 Center     Atomic      Atomic             Coordinates (Angstroms)
 Number     Number       Type             X           Y           Z
 ---------------------------------------------------------------------
      1          7           0       -0.000000    0.000000    0.111540
      2          1           0        0.000000    0.940965   -0.260260
      3          1           0       -0.814899   -0.470482   -0.260260
      4          1           0        0.814899   -0.470482   -0.260260
 ---------------------------------------------------------------------
 Rotational constants (GHZ):         300.4188834         300.4188834         188.7836171
 Standard basis: 6-311+G(2d,2p) (5D, 7F)
 There are    37 symmetry adapted cartesian basis functions of A'  symmetry.
 There are    19 symmetry adapted cartesian basis functions of A"  symmetry.
 There are    35 symmetry adapted basis functions of A'  symmetry.
 There are    19 symmetry adapted basis functions of A"  symmetry.
    54 basis functions,    75 primitive gaussians,    56 cartesian basis functions
     5 alpha electrons        5 beta electrons
       nuclear repulsion energy        11.9576677649 Hartrees.
 NAtoms=    4 NActive=    4 NUniq=    2 SFac= 4.00D+00 NAtFMM=   60 NAOKFM=F Big=F
 Integral buffers will be    131072 words long.
 Raffenetti 2 integral format.
 Two-electron integral symmetry is turned on.
 Nuclear repulsion after empirical dispersion term =       11.9575465619 Hartrees.
 One-electron integrals computed using PRISM.
 NBasis=    54 RedAO= T EigKep=  1.82D-03  NBF=    35    19
 NBsUse=    54 1.00D-06 EigRej= -1.00D+00 NBFU=    35    19
 Initial guess from the checkpoint file:  "nh3.chk"
 B after Tr=    -0.000000    0.000000   -0.000000
         Rot=    1.000000   -0.000000    0.000000    0.000000 Ang=   0.00 deg.
 Initial guess orbital symmetries:
       Occupied  (A1) (A1) (E) (E) (A1)
       Virtual   (A1) (E) (E) (A1) (E) (E) (A1) (E) (E) (E) (E)
                 (A1) (E) (E) (A1) (A1) (A2) (E) (E) (A1) (E) (E)
                 (A1) (E) (E) (A1) (E) (E) (E) (E) (A1) (E) (E)
                 (A2) (A1) (E) (E) (E) (E) (A1) (A1) (E) (E) (E)
                 (E) (A1) (E) (E) (A1)
 ExpMin= 6.39D-02 ExpMax= 6.29D+03 ExpMxC= 9.49D+02 IAcc=2 IRadAn=         4 AccDes= 0.00D+00
 Harris functional with IExCor= 4639 and IRadAn=       4 diagonalized for initial guess.
 HarFok:  IExCor= 4639 AccDes= 0.00D+00 IRadAn=         4 IDoV= 1 UseB2=F ITyADJ=14
 ICtDFT=  3500011 ScaDFX=  1.000000  1.000000  1.000000  1.000000
 FoFCou: FMM=F IPFlag=           0 FMFlag=      100000 FMFlg1=           0
         NFxFlg=           0 DoJE=T BraDBF=F KetDBF=T FulRan=T
         wScrn=  0.000000 ICntrl=       500 IOpCl=  0 I1Cent=   200000004 NGrid=           0
         NMat0=    1 NMatS0=      1 NMatT0=    0 NMatD0=    1 NMtDS0=    0 NMtDT0=    0
 Petite list used in FoFCou.
 Keep R1 ints in memory in symmetry-blocked form, NReq=21561492.
 Requested convergence on RMS density matrix=1.00D-08 within  32 cycles.
 Requested convergence on MAX density matrix=1.00D-06.
 Requested convergence on             energy=1.00D-06.
 No special actions if energy rises.
 Integral accuracy reduced to 1.0D-05 until final iterations.
 Initial convergence to 1.0D-05 achieved.  Increase integral accuracy.
 SCF Done:  E(RwB97XD) =  -56.5641291936     A.U. after   11 cycles
            NFock= 11  Conv=0.11D-08     -V/T= 2.0040
 QCSCF skips out because SCF is already converged.
 Calling FoFJK, ICntrl=      2127 FMM=F ISym2X=1 I1Cent= 0 IOpClX= 0 NMat=1 NMatS=1 NMatT=0.
 ***** Axes restored to original set *****
 -------------------------------------------------------------------
 Center     Atomic                   Forces (Hartrees/Bohr)
 Number     Number              X              Y              Z
 -------------------------------------------------------------------
      1        7           0.000225974   -0.000000003    0.000000000
      2        1          -0.000075321    0.000336593    0.000000000
      3        1          -0.000075327   -0.000168295   -0.000291498
      4        1          -0.000075327   -0.000168295    0.000291497
 -------------------------------------------------------------------
 Cartesian Forces:  Max     0.000336593 RMS     0.000184384

 GradGradGradGradGradGradGradGradGradGradGradGradGradGradGradGradGradGrad
 Berny optimization.
 Using GEDIIS/GDIIS optimizer.
 FormGI is forming the generalized inverse of G from B-inverse, IUseBI=4.
 Internal  Forces:  Max     0.000340722 RMS     0.000227052
 Search for a local minimum.
 Step number   3 out of a maximum of   20
 All quantities printed in internal units (Hartrees-Bohrs-Radians)
 Mixed Optimization -- En-DIIS/RFO-DIIS
 Update second derivatives using D2CorX and points    1    2    3
 DE= -7.42D-05 DEPred=-6.82D-05 R= 1.09D+00
 TightC=F SS=  1.41D+00  RLast= 5.87D-02 DXNew= 5.0454D-01 1.7611D-01
 Trust test= 1.09D+00 RLast= 5.87D-02 DXMaxT set to 3.00D-01
 The second derivative matrix:
                          R1        R2        R3        A1        A2
           R1           0.49914
           R2           0.02225   0.49914
           R3           0.02225   0.02225   0.49914
           A1           0.05856   0.05856   0.05856   0.13331
           A2           0.03803   0.03803   0.03803  -0.02963   0.13519
           A3           0.03803   0.03803   0.03803  -0.02963  -0.02481
           D1           0.02441   0.02441   0.02441   0.00882  -0.00289
                          A3        D1
           A3           0.13519
           D1          -0.00289   0.02723
 ITU=  1  1  0
 Use linear search instead of GDIIS.
     Eigenvalues ---    0.03843   0.15327   0.16000   0.47688   0.47688
     Eigenvalues ---    0.54971
 RFO step:  Lambda=-6.94252556D-07 EMin= 3.84291353D-02
 Quartic linear search produced a step of  0.00416.
 Iteration  1 RMS(Cart)=  0.00054731 RMS(Int)=  0.00000167
 Iteration  2 RMS(Cart)=  0.00000010 RMS(Int)=  0.00000167
 ClnCor:  largest displacement from symmetrization is 2.98D-05 for atom     4.
 Variable       Old X    -DE/DX   Delta X   Delta X   Delta X     New X
                                 (Linear)    (Quad)   (Total)
    R1        1.91194  -0.00034   0.00002  -0.00059  -0.00056   1.91139
    R2        1.91194  -0.00034   0.00002  -0.00059  -0.00056   1.91139
    R3        1.91194  -0.00034   0.00002  -0.00059  -0.00056   1.91139
    A1        1.87280  -0.00001  -0.00009  -0.00029  -0.00042   1.87239
    A2        1.87280  -0.00006  -0.00009  -0.00035  -0.00042   1.87239
    A3        1.87280  -0.00006  -0.00009  -0.00035  -0.00042   1.87239
    D1       -2.00795   0.00007   0.00019   0.00068   0.00089  -2.00706
         Item               Value     Threshold  Converged?
 Maximum Force            0.000341     0.000450     YES
 RMS     Force            0.000227     0.000300     YES
 Maximum Displacement     0.000790     0.001800     YES
 RMS     Displacement     0.000541     0.001200     YES
 Predicted change in Energy=-3.481219D-07
 Optimization completed.
    -- Stationary point found.
                           ----------------------------
                           !   Optimized Parameters   !
                           ! (Angstroms and Degrees)  !
 --------------------------                            --------------------------
 ! Name  Definition              Value          Derivative Info.                !
 --------------------------------------------------------------------------------
 ! R1    R(1,2)                  1.0118         -DE/DX =   -0.0003              !
 ! R2    R(1,3)                  1.0118         -DE/DX =   -0.0003              !
 ! R3    R(1,4)                  1.0118         -DE/DX =   -0.0003              !
 ! A1    A(2,1,3)              107.3038         -DE/DX =    0.0                 !
 ! A2    A(2,1,4)              107.3038         -DE/DX =   -0.0001              !
 ! A3    A(3,1,4)              107.3038         -DE/DX =   -0.0001              !
 ! D1    D(2,1,4,3)           -115.047          -DE/DX =    0.0001              !
 --------------------------------------------------------------------------------
 GradGradGradGradGradGradGradGradGradGradGradGradGradGradGradGradGradGrad

                          Input orientation:                          
 ---------------------------------------------------------------------
 Center     Atomic      Atomic             Coordinates (Angstroms)
 Number     Number       Type             X           Y           Z
 ---------------------------------------------------------------------
      1          7           0       -0.860665   -0.382356    0.231651
      2          1           0       -0.488876   -1.323325    0.231651
      3          1           0       -0.488859    0.088122    1.046550
      4          1           0       -0.488859    0.088122   -0.583248
 ---------------------------------------------------------------------
                    Distance matrix (angstroms):
                    1          2          3          4
     1  N    0.000000
     2  H    1.011756   0.000000
     3  H    1.011756   1.629798   0.000000
     4  H    1.011756   1.629798   1.629798   0.000000
 Stoichiometry    H3N
 Framework group  C3V[C3(N),3SGV(H)]
 Deg. of freedom     2
 Full point group                 C3V     NOp   6
 Largest Abelian subgroup         CS      NOp   2
 Largest concise Abelian subgroup CS      NOp   2
                         Standard orientation:                         
 ---------------------------------------------------------------------
 Center     Atomic      Atomic             Coordinates (Angstroms)
 Number     Number       Type             X           Y           Z
 ---------------------------------------------------------------------
      1          7           0       -0.000000    0.000000    0.111540
      2          1           0        0.000000    0.940965   -0.260260
      3          1           0       -0.814899   -0.470482   -0.260260
      4          1           0        0.814899   -0.470482   -0.260260
 ---------------------------------------------------------------------
 Rotational constants (GHZ):         300.4188834         300.4188834         188.7836171

 **********************************************************************

            Population analysis using the SCF density.

 **********************************************************************

 Orbital symmetries:
       Occupied  (A1) (A1) (E) (E) (A1)
       Virtual   (A1) (E) (E) (A1) (E) (E) (A1) (E) (E) (E) (E)
                 (A1) (E) (E) (A1) (A1) (A2) (E) (E) (A1) (E) (E)
                 (A1) (E) (E) (A1) (E) (E) (E) (E) (A1) (E) (E)
                 (A2) (A1) (E) (E) (E) (E) (A1) (A1) (E) (E) (E)
                 (E) (A1) (E) (E) (A1)
 The electronic state is 1-A1.
 Alpha  occ. eigenvalues --  -14.40864  -0.95367  -0.55143  -0.55143  -0.35511
 Alpha virt. eigenvalues --    0.08592   0.15324   0.15324   0.18541   0.23042
 Alpha virt. eigenvalues --    0.23042   0.26735   0.55328   0.55328   0.64355
 Alpha virt. eigenvalues --    0.64355   0.67394   0.68514   0.68514   0.70245
 Alpha virt. eigenvalues --    0.92144   0.99195   1.09090   1.09090   1.11988
 Alpha virt. eigenvalues --    1.37334   1.37334   1.47712   1.62792   1.62792
 Alpha virt. eigenvalues --    1.70179   1.81680   1.81680   2.71603   2.71603
 Alpha virt. eigenvalues --    2.79934   3.79546   3.79546   3.81911   3.85963
 Alpha virt. eigenvalues --    3.90522   3.90522   3.95925   3.95925   4.08905
 Alpha virt. eigenvalues --    4.47221   4.99567   4.99567   5.18998   5.18998
 Alpha virt. eigenvalues --    5.32712   6.00210   6.00210  35.70276
          Condensed to atoms (all electrons):
               1          2          3          4
     1  N    6.319238   0.394263   0.394263   0.394263
     2  H    0.394263   0.501674  -0.031639  -0.031639
     3  H    0.394263  -0.031639   0.501674  -0.031639
     4  H    0.394263  -0.031639  -0.031639   0.501674
 Mulliken charges:
               1
     1  N   -0.502025
     2  H    0.167342
     3  H    0.167342
     4  H    0.167342
 Sum of Mulliken charges =  -0.00000
 Mulliken charges with hydrogens summed into heavy atoms:
               1
     1  N   -0.000000
 Electronic spatial extent (au):  <R**2>=             26.8420
 Charge=             -0.0000 electrons
 Dipole moment (field-independent basis, Debye):
    X=             -0.0000    Y=              0.0000    Z=             -1.6144  Tot=              1.6144
 Quadrupole moment (field-independent basis, Debye-Ang):
   XX=             -6.2464   YY=             -6.2464   ZZ=             -9.4579
   XY=             -0.0000   XZ=             -0.0000   YZ=              0.0000
 Traceless Quadrupole moment (field-independent basis, Debye-Ang):
   XX=              1.0705   YY=              1.0705   ZZ=             -2.1410
   XY=             -0.0000   XZ=             -0.0000   YZ=              0.0000
 Octapole moment (field-independent basis, Debye-Ang**2):
  XXX=              0.0000  YYY=              0.9633  ZZZ=             -1.5325  XYY=              0.0000
  XXY=             -0.9633  XXZ=             -0.9068  XZZ=              0.0000  YZZ=             -0.0000
  YYZ=             -0.9068  XYZ=              0.0000
 Hexadecapole moment (field-independent basis, Debye-Ang**3):
 XXXX=            -10.2212 YYYY=            -10.2212 ZZZZ=            -13.4324 XXXY=             -0.0000
 XXXZ=             -0.0000 YYYX=             -0.0000 YYYZ=             -0.3560 ZZZX=             -0.0000
 ZZZY=             -0.0000 XXYY=             -3.4071 XXZZ=             -4.0611 YYZZ=             -4.0611
 XXYZ=              0.3560 YYXZ=             -0.0000 ZZXY=             -0.0000
 N-N= 1.195754656193D+01 E-N=-1.560541877642D+02  KE= 5.634121634993D+01
 Symmetry A'   KE= 5.365292368115D+01
 Symmetry A"   KE= 2.688292668776D+00
 1\1\GINC-CCLEARMO\FOpt\RwB97XD\6-311+G(2d,2p)\H3N1\TROUPPER\04-Oct-202
 6\0\\# opt freq rwb97xd/6-311+g(2d,2p) scf=xqc\\opt freq\\0,1\N,-0.860
 6650028,-0.3823556225,0.2316509187\H,-0.4888761652,-1.3233246237,0.231
 6507976\H,-0.4888591645,0.0881220543,1.046550161\H,-0.488859161,0.0881
 222655,-0.5832482001\\Version=EM64M-G16RevA.03\State=1-A1\HF=-56.56412
 92\RMSD=1.126e-09\RMSF=1.844e-04\Dipole=0.6351605,-0.0000077,0.\Quadru
 pole=-1.5918117,0.7959058,0.7959058,0.0000288,0.,0.\PG=C03V [C3(N1),3S
 GV(H1)]\\@


 ADAM SMITH SAID, "THE REAL PRICE OF ANYTHING IS THE TOIL AND TROUBLE
 OF ACQUIRING IT."  BUT IN ALL UNDERTAKINGS WITH NATURE WE SHOULD FIRST
 READ CAREFULLY THE SMALL PRINT IN THE CONTRACT. THIS MIGHT DISCLOSE
 THAT THE REAL PRICE IS TO BE PAID BY THOSE WHO INHERIT THE DEPLETION
 AND DESPOILATION THAT FOLLOWS.
                               -- E. R. HARRISON IN "COSMOLOGY" (1980)
 Job cpu time:       0 days  0 hours  2 minutes 33.7 seconds.
 Elapsed time:       0 days  0 hours  0 minutes  7.3 seconds.
 File lengths (MBytes):  RWF=      6 Int=      0 D2E=      0 Chk=      1 Scr=      1
 Normal termination of Gaussian 16 at Sun Oct  4 12:16:41 2026.
 Link1:  Proceeding to internal job step number  2.
 ----------------------------------------------------------------------
 #N Geom=AllCheck Guess=TCheck SCRF=Check GenChk RwB97XD/6-311+G(2d,2p)
  Freq
 ----------------------------------------------------------------------
 1/10=4,29=7,30=1,38=1,40=1/1,3;
 2/12=2,40=1/2;
 3/5=4,6=6,7=212,11=2,14=-4,25=1,30=1,70=2,71=2,74=-58,116=1,140=1/1,2,3;
 4/5=101/1;
 5/5=2,8=3,13=1,38=6,98=1/2,8;
 8/6=4,10=90,11=11/1;
 11/6=1,8=1,9=11,15=111,16=1/1,2,10;
 10/6=1/2;
 6/7=2,8=2,9=2,10=2,28=1/1;
 7/8=1,10=1,25=1/1,2,3,16;
 1/10=4,30=1/3;
 99//99;
 Structure from the checkpoint file:  "nh3.chk"
 --------
 opt freq
 --------
 Charge =  0 Multiplicity = 1
 Redundant internal coordinates found in file.  (old form).
 N,0,-0.8606650028,-0.3823556225,0.2316509187
 H,0,-0.4888761652,-1.3233246237,0.2316507976
 H,0,-0.4888591645,0.0881220543,1.046550161
 H,0,-0.488859161,0.0881222655,-0.5832482001
 Recover connectivity data from disk.

 GradGradGradGradGradGradGradGradGradGradGradGradGradGradGradGradGradGrad
 Berny optimization.
 Initialization pass.
                           ----------------------------
                           !    Initial Parameters    !
                           ! (Angstroms and Degrees)  !
 --------------------------                            --------------------------
 ! Name  Definition              Value          Derivative Info.                !
 --------------------------------------------------------------------------------
 ! R1    R(1,2)                  1.0118         calculate D2E/DX2 analytically  !
 ! R2    R(1,3)                  1.0118         calculate D2E/DX2 analytically  !
 ! R3    R(1,4)                  1.0118         calculate D2E/DX2 analytically  !
 ! A1    A(2,1,3)              107.3038         calculate D2E/DX2 analytically  !
 ! A2    A(2,1,4)              107.3038         calculate D2E/DX2 analytically  !
 ! A3    A(3,1,4)              107.3038         calculate D2E/DX2 analytically  !
 ! D1    D(2,1,4,3)           -115.047          calculate D2E/DX2 analytically  !
 --------------------------------------------------------------------------------
 Trust Radius=3.00D-01 FncErr=1.00D-07 GrdErr=1.00D-07 EigMax=2.50D+02 EigMin=1.00D-04
 Number of steps in this run=      2 maximum allowed number of steps=      2.
 GradGradGradGradGradGradGradGradGradGradGradGradGradGradGradGradGradGrad

                          Input orientation:                          
 ---------------------------------------------------------------------
 Center     Atomic      Atomic             Coordinates (Angstroms)
 Number     Number       Type             X           Y           Z
 ---------------------------------------------------------------------
      1          7           0       -0.860665   -0.382356    0.231651
      2          1           0       -0.488876   -1.323325    0.231651
      3          1           0       -0.488859    0.088122    1.046550
      4          1           0       -0.488859    0.088122   -0.583248
 ---------------------------------------------------------------------
                    Distance matrix (angstroms):
                    1          2          3          4
     1  N    0.000000
     2  H    1.011756   0.000000
     3  H    1.011756   1.629798   0.000000
     4  H    1.011756   1.629798   1.629798   0.000000
 Stoichiometry    H3N
 Framework group  C3V[C3(N),3SGV(H)]
 Deg. of freedom     2
 Full point group                 C3V     NOp   6
 Largest Abelian subgroup         CS      NOp   2
 Largest concise Abelian subgroup CS      NOp   2
                         Standard orientation:                         
 ---------------------------------------------------------------------
 Center     Atomic      Atomic             Coordinates (Angstroms)
 Number     Number       Type             X           Y           Z
 ---------------------------------------------------------------------
      1          7           0       -0.000000    0.000000    0.111540
      2          1           0       -0.000000    0.940965   -0.260260
      3          1           0       -0.814899   -0.470482   -0.260260
      4          1           0        0.814899   -0.470482   -0.260260
 ---------------------------------------------------------------------
 Rotational constants (GHZ):         300.4188834         300.4188834         188.7836171
 Standard basis: 6-311+G(2d,2p) (5D, 7F)
 There are    37 symmetry adapted cartesian basis functions of A'  symmetry.
 There are    19 symmetry adapted cartesian basis functions of A"  symmetry.
 There are    35 symmetry adapted basis functions of A'  symmetry.
 There are    19 symmetry adapted basis functions of A"  symmetry.
    54 basis functions,    75 primitive gaussians,    56 cartesian basis functions
     5 alpha electrons        5 beta electrons
       nuclear repulsion energy        11.9576677649 Hartrees.
 NAtoms=    4 NActive=    4 NUniq=    2 SFac= 4.00D+00 NAtFMM=   60 NAOKFM=F Big=F
 Integral buffers will be    131072 words long.
 Raffenetti 2 integral format.
 Two-electron integral symmetry is turned on.
 Nuclear repulsion after empirical dispersion term =       11.9575465619 Hartrees.
 One-electron integrals computed using PRISM.
 NBasis=    54 RedAO= T EigKep=  1.82D-03  NBF=    35    19
 NBsUse=    54 1.00D-06 EigRej= -1.00D+00 NBFU=    35    19
 Initial guess from the checkpoint file:  "nh3.chk"
 B after Tr=     0.000000    0.000000    0.000000
         Rot=    1.000000   -0.000000    0.000000   -0.000000 Ang=   0.00 deg.
 Initial guess orbital symmetries:
       Occupied  (A1) (A1) (E) (E) (A1)
       Virtual   (A1) (E) (E) (A1) (E) (E) (A1) (E) (E) (E) (E)
                 (A1) (E) (E) (A1) (A1) (A2) (E) (E) (A1) (E) (E)
                 (A1) (E) (E) (A1) (E) (E) (E) (E) (A1) (E) (E)
                 (A2) (A1) (E) (E) (E) (E) (A1) (A1) (E) (E) (E)
                 (E) (A1) (E) (E) (A1)
 Keep R1 ints in memory in symmetry-blocked form, NReq=21561492.
 Requested convergence on RMS density matrix=1.00D-08 within  32 cycles.
 Requested convergence on MAX density matrix=1.00D-06.
 Requested convergence on             energy=1.00D-06.
 No special actions if energy rises.
 SCF Done:  E(RwB97XD) =  -56.5641291936     A.U. after    1 cycles
            NFock=  1  Conv=0.20D-09     -V/T= 2.0040
 QCSCF skips out because SCF is already converged.
 DoSCS=F DFT=T ScalE2(SS,OS)=  1.000000  1.000000
 Range of M.O.s used for correlation:     1    54
 NBasis=    54 NAE=     5 NBE=     5 NFC=     0 NFV=     0
 NROrb=     54 NOA=     5 NOB=     5 NVA=    49 NVB=    49
 Symmetrizing basis deriv contribution to polar:
 IMax=3 JMax=2 DiffMx= 0.00D+00
 G2DrvN: will do     5 centers at a time, making    1 passes.
 Calling FoFCou, ICntrl=  3107 FMM=F I1Cent=   0 AccDes= 0.00D+00.
 End of G2Drv F.D. properties file   721 does not exist.
 End of G2Drv F.D. properties file   722 does not exist.
 End of G2Drv F.D. properties file   788 does not exist.
          IDoAtm=1111
          Differentiating once with respect to electric field.
                with respect to dipole field.
          Differentiating once with respect to nuclear coordinates.
 Keep R1 ints in memory in symmetry-blocked form, NReq=21488061.
          There are     9 degrees of freedom in the 1st order CPHF.  IDoFFX=4 NUNeed=     9.
      9 vectors produced by pass  0 Test12= 2.72D-15 1.11D-08 XBig12= 4.22D+00 1.51D+00.
 AX will form     9 AO Fock derivatives at one time.
      9 vectors produced by pass  1 Test12= 2.72D-15 1.11D-08 XBig12= 4.80D-01 3.08D-01.
      9 vectors produced by pass  2 Test12= 2.72D-15 1.11D-08 XBig12= 1.33D-02 3.39D-02.
      9 vectors produced by pass  3 Test12= 2.72D-15 1.11D-08 XBig12= 1.38D-04 5.31D-03.
      9 vectors produced by pass  4 Test12= 2.72D-15 1.11D-08 XBig12= 1.43D-06 3.73D-04.
      9 vectors produced by pass  5 Test12= 2.72D-15 1.11D-08 XBig12= 9.02D-09 2.70D-05.
      5 vectors produced by pass  6 Test12= 2.72D-15 1.11D-08 XBig12= 4.92D-11 2.04D-06.
      3 vectors produced by pass  7 Test12= 2.72D-15 1.11D-08 XBig12= 2.09D-13 1.24D-07.
 InvSVY:  IOpt=1 It=  1 EMax= 2.22D-15
 Solved reduced A of dimension    62 with     9 vectors.
 Isotropic polarizability for W=    0.000000       12.47 Bohr**3.
 End of Minotr F.D. properties file   721 does not exist.
 End of Minotr F.D. properties file   722 does not exist.
 End of Minotr F.D. properties file   788 does not exist.

 **********************************************************************

            Population analysis using the SCF density.

 **********************************************************************

 Orbital symmetries:
       Occupied  (A1) (A1) (E) (E) (A1)
       Virtual   (A1) (E) (E) (A1) (E) (E) (A1) (E) (E) (E) (E)
                 (A1) (E) (E) (A1) (A1) (A2) (E) (E) (A1) (E) (E)
                 (A1) (E) (E) (A1) (E) (E) (E) (E) (A1) (E) (E)
                 (A2) (A1) (E) (E) (E) (E) (A1) (A1) (E) (E) (E)
                 (E) (A1) (E) (E) (A1)
 The electronic state is 1-A1.
 Alpha  occ. eigenvalues --  -14.40864  -0.95367  -0.55143  -0.55143  -0.35511
 Alpha virt. eigenvalues --    0.08592   0.15324   0.15324   0.18541   0.23042
 Alpha virt. eigenvalues --    0.23042   0.26735   0.55328   0.55328   0.64355
 Alpha virt. eigenvalues --    0.64355   0.67394   0.68514   0.68514   0.70245
 Alpha virt. eigenvalues --    0.92144   0.99195   1.09090   1.09090   1.11988
 Alpha virt. eigenvalues --    1.37334   1.37334   1.47712   1.62792   1.62792
 Alpha virt. eigenvalues --    1.70179   1.81680   1.81680   2.71603   2.71603
 Alpha virt. eigenvalues --    2.79934   3.79546   3.79546   3.81911   3.85963
 Alpha virt. eigenvalues --    3.90522   3.90522   3.95925   3.95925   4.08905
 Alpha virt. eigenvalues --    4.47221   4.99567   4.99567   5.18998   5.18998
 Alpha virt. eigenvalues --    5.32712   6.00210   6.00210  35.70276
          Condensed to atoms (all electrons):
               1          2          3          4
     1  N    6.319238   0.394263   0.394263   0.394263
     2  H    0.394263   0.501674  -0.031639  -0.031639
     3  H    0.394263  -0.031639   0.501674  -0.031639
     4  H    0.394263  -0.031639  -0.031639   0.501674
 Mulliken charges:
               1
     1  N   -0.502025
     2  H    0.167342
     3  H    0.167342
     4  H    0.167342
 Sum of Mulliken charges =  -0.00000
 Mulliken charges with hydrogens summed into heavy atoms:
               1
     1  N   -0.000000
 APT charges:
               1
     1  N   -0.464164
     2  H    0.154546
     3  H    0.154677
     4  H    0.154677
 Sum of APT charges =  -0.00026
 APT charges with hydrogens summed into heavy atoms:
               1
     1  N   -0.000263
 Electronic spatial extent (au):  <R**2>=             26.8420
 Charge=             -0.0000 electrons
 Dipole moment (field-independent basis, Debye):
    X=              0.0000    Y=              0.0000    Z=             -1.6144  Tot=              1.6144
 Quadrupole moment (field-independent basis, Debye-Ang):
   XX=             -6.2464   YY=             -6.2464   ZZ=             -9.4579
   XY=             -0.0000   XZ=              0.0000   YZ=             -0.0000
 Traceless Quadrupole moment (field-independent basis, Debye-Ang):
   XX=              1.0705   YY=              1.0705   ZZ=             -2.1410
   XY=             -0.0000   XZ=              0.0000   YZ=             -0.0000
 Octapole moment (field-independent basis, Debye-Ang**2):
  XXX=              0.0000  YYY=              0.9633  ZZZ=             -1.5325  XYY=              0.0000
  XXY=             -0.9633  XXZ=             -0.9068  XZZ=              0.0000  YZZ=              0.0000
  YYZ=             -0.9068  XYZ=              0.0000
 Hexadecapole moment (field-independent basis, Debye-Ang**3):
 XXXX=            -10.2212 YYYY=            -10.2212 ZZZZ=            -13.4324 XXXY=              0.0000
 XXXZ=             -0.0000 YYYX=              0.0000 YYYZ=             -0.3560 ZZZX=             -0.0000
 ZZZY=             -0.0000 XXYY=             -3.4071 XXZZ=             -4.0611 YYZZ=             -4.0611
 XXYZ=              0.3560 YYXZ=             -0.0000 ZZXY=              0.0000
 N-N= 1.195754656193D+01 E-N=-1.560541877993D+02  KE= 5.634121637008D+01
 Symmetry A'   KE= 5.365292369185D+01
 Symmetry A"   KE= 2.688292678224D+00
  Exact polarizability:  11.896  -0.000  11.896   0.000   0.000  13.608
 Approx polarizability:  11.840  -0.000  11.840   0.000   0.000  11.703
 Calling FoFJK, ICntrl=    100127 FMM=F ISym2X=1 I1Cent= 0 IOpClX= 0 NMat=1 NMatS=1 NMatT=0.
 Full mass-weighted force constant matrix:
 Low frequencies ---   -0.4093   -0.3427   -0.0784   62.7990   62.8784   69.2079
 Low frequencies --- 1035.9167 1677.3545 1677.3894
 Diagonal vibrational polarizability:
        0.1973015       0.1979187       4.4221653
 Harmonic frequencies (cm**-1), IR intensities (KM/Mole), Raman scattering
 activities (A**4/AMU), depolarization ratios for plane and unpolarized
 incident light, reduced masses (AMU), force constants (mDyne/A),
 and normal coordinates:
                      1                      2                      3
                     A1                      E                      E
 Frequencies --   1035.9167              1677.3545              1677.3894
 Red. masses --      1.1821                 1.0671                 1.0671
 Frc consts  --      0.7474                 1.7690                 1.7690
 IR Inten    --    176.1088                19.5905                19.5247
  Atom  AN      X      Y      Z        X      Y      Z        X      Y      Z
     1   7     0.00  -0.00  -0.12     0.00  -0.07   0.00    -0.07  -0.00  -0.00
     2   1    -0.00   0.20   0.54    -0.00  -0.14  -0.25     0.76  -0.00  -0.00
     3   1    -0.18  -0.10   0.54    -0.39   0.54   0.12     0.09  -0.39   0.21
     4   1     0.18  -0.10   0.54     0.39   0.54   0.12     0.09   0.39  -0.21
                      4                      5                      6
                     A1                      E                      E
 Frequencies --   3522.2086              3647.0501              3647.0679
 Red. masses --      1.0257                 1.0902                 1.0902
 Frc consts  --      7.4969                 8.5434                 8.5435
 IR Inten    --      2.6763                 5.2173                 5.2075
  Atom  AN      X      Y      Z        X      Y      Z        X      Y      Z
     1   7    -0.00   0.00   0.04    -0.08   0.00  -0.00    -0.00  -0.08   0.00
     2   1    -0.00   0.55  -0.17    -0.02  -0.00   0.00    -0.00   0.76  -0.29
     3   1    -0.48  -0.28  -0.17     0.56   0.34   0.25     0.34   0.17   0.15
     4   1     0.48  -0.28  -0.17     0.56  -0.34  -0.25    -0.34   0.17   0.15

 -------------------
 - Thermochemistry -
 -------------------
 Temperature   298.150 Kelvin.  Pressure   1.00000 Atm.
 Atom     1 has atomic number  7 and mass  14.00307
 Atom     2 has atomic number  1 and mass   1.00783
 Atom     3 has atomic number  1 and mass   1.00783
 Atom     4 has atomic number  1 and mass   1.00783
 Molecular mass:    17.02655 amu.
 Principal axes and moments of inertia in atomic units:
                           1         2         3
     Eigenvalues --     6.00742   6.00742   9.55984
           X           -0.44721   0.89443   0.00000
           Y            0.89443   0.44721   0.00000
           Z           -0.00000   0.00000   1.00000
 This molecule is an oblate symmetric top.
 Rotational symmetry number  3.
 Rotational temperatures (Kelvin)     14.41783    14.41783     9.06019
 Rotational constants (GHZ):         300.41888   300.41888   188.78362
 Zero-point vibrational energy      90958.0 (Joules/Mol)
                                   21.73948 (Kcal/Mol)
 Vibrational temperatures:   1490.45  2413.34  2413.39  5067.67  5247.29
          (Kelvin)           5247.32
 
 Zero-point correction=                           0.034644 (Hartree/Particle)
 Thermal correction to Energy=                    0.037513
 Thermal correction to Enthalpy=                  0.038458
 Thermal correction to Gibbs Free Energy=         0.016621
 Sum of electronic and zero-point Energies=            -56.529485
 Sum of electronic and thermal Energies=               -56.526616
 Sum of electronic and thermal Enthalpies=             -56.525672
 Sum of electronic and thermal Free Energies=          -56.547508
 
                     E (Thermal)             CV                S
                      KCal/Mol        Cal/Mol-Kelvin    Cal/Mol-Kelvin
 Total                   23.540              6.381             45.959
 Electronic               0.000              0.000              0.000
 Translational            0.889              2.981             34.441
 Rotational               0.889              2.981             11.426
 Vibrational             21.763              0.419              0.092
                       Q            Log10(Q)             Ln(Q)
 Total Bot       0.226379D-07         -7.645165        -17.603642
 Total V=0       0.194978D+09          8.289985         19.088397
 Vib (Bot)       0.116965D-15        -15.931946        -36.684661
 Vib (V=0)       0.100741D+01          0.003204          0.007378
 Electronic      0.100000D+01          0.000000          0.000000
 Translational   0.276149D+07          6.441144         14.831282
 Rotational      0.700870D+02          1.845637          4.249737
 ***** Axes restored to original set *****
 -------------------------------------------------------------------
 Center     Atomic                   Forces (Hartrees/Bohr)
 Number     Number              X              Y              Z
 -------------------------------------------------------------------
      1        7           0.000225973   -0.000000003    0.000000000
      2        1          -0.000075320    0.000336592    0.000000000
      3        1          -0.000075326   -0.000168295   -0.000291497
      4        1          -0.000075326   -0.000168295    0.000291497
 -------------------------------------------------------------------
 Cartesian Forces:  Max     0.000336592 RMS     0.000184383
 FormGI is forming the generalized inverse of G from B-inverse, IUseBI=4.

 GradGradGradGradGradGradGradGradGradGradGradGradGradGradGradGradGradGrad
 Berny optimization.
 Internal  Forces:  Max     0.000340721 RMS     0.000227051
 Search for a local minimum.
 Step number   1 out of a maximum of    2
 All quantities printed in internal units (Hartrees-Bohrs-Radians)
 Second derivative matrix not updated -- analytic derivatives used.
 The second derivative matrix:
                          R1        R2        R3        A1        A2
           R1           0.46446
           R2          -0.00136   0.46444
           R3          -0.00136  -0.00135   0.46444
           A1           0.00790   0.00790  -0.00836   0.05411
           A2           0.01927  -0.00312   0.02186  -0.04236   0.12996
           A3          -0.00312   0.01928   0.02187  -0.04235  -0.02227
           D1          -0.01704  -0.01704  -0.01174  -0.02110  -0.00374
                          A3        D1
           A3           0.12993
           D1          -0.00373   0.02805
 ITU=  0
     Eigenvalues ---    0.03999   0.14412   0.15063   0.46540   0.46740
     Eigenvalues ---    0.46786
 Angle between quadratic step and forces=  37.84 degrees.
 Linear search not attempted -- first point.
 Iteration  1 RMS(Cart)=  0.00063620 RMS(Int)=  0.00000026
 Iteration  2 RMS(Cart)=  0.00000013 RMS(Int)=  0.00000018
 ClnCor:  largest displacement from symmetrization is 5.17D-08 for atom     2.
 Variable       Old X    -DE/DX   Delta X   Delta X   Delta X     New X
                                 (Linear)    (Quad)   (Total)
    R1        1.91194  -0.00034   0.00000  -0.00068  -0.00068   1.91126
    R2        1.91194  -0.00034   0.00000  -0.00068  -0.00068   1.91126
    R3        1.91194  -0.00034   0.00000  -0.00068  -0.00068   1.91126
    A1        1.87280  -0.00001   0.00000  -0.00047  -0.00047   1.87234
    A2        1.87280  -0.00006   0.00000  -0.00047  -0.00047   1.87234
    A3        1.87280  -0.00006   0.00000  -0.00047  -0.00047   1.87234
    D1       -2.00795   0.00007   0.00000   0.00100   0.00100  -2.00695
         Item               Value     Threshold  Converged?
 Maximum Force            0.000341     0.000450     YES
 RMS     Force            0.000227     0.000300     YES
 Maximum Displacement     0.000936     0.001800     YES
 RMS     Displacement     0.000636     0.001200     YES
 Predicted change in Energy=-4.128637D-07
 Optimization completed.
    -- Stationary point found.
                           ----------------------------
                           !   Optimized Parameters   !
                           ! (Angstroms and Degrees)  !
 --------------------------                            --------------------------
 ! Name  Definition              Value          Derivative Info.                !
 --------------------------------------------------------------------------------
 ! R1    R(1,2)                  1.0118         -DE/DX =   -0.0003              !
 ! R2    R(1,3)                  1.0118         -DE/DX =   -0.0003              !
 ! R3    R(1,4)                  1.0118         -DE/DX =   -0.0003              !
 ! A1    A(2,1,3)              107.3038         -DE/DX =    0.0                 !
 ! A2    A(2,1,4)              107.3038         -DE/DX =   -0.0001              !
 ! A3    A(3,1,4)              107.3038         -DE/DX =   -0.0001              !
 ! D1    D(2,1,4,3)           -115.047          -DE/DX =    0.0001              !
 --------------------------------------------------------------------------------
 GradGradGradGradGradGradGradGradGradGradGradGradGradGradGradGradGradGrad


 ----------------------------------------------------------------------

 Electric dipole moment (input orientation):
 (Debye = 10**-18 statcoulomb cm , SI units = C m)
                  (au)            (Debye)         (10**-30 SI)
   Tot        0.635160D+00      0.161442D+01      0.538511D+01
   x          0.635160D+00      0.161442D+01      0.538511D+01
   y          0.000000D+00      0.000000D+00      0.000000D+00
   z          0.000000D+00      0.000000D+00      0.000000D+00

 Dipole polarizability, Alpha (input orientation).
 (esu units = cm**3 , SI units = C**2 m**2 J**-1)
 Alpha(0;0):
               (au)            (10**-24 esu)      (10**-40 SI)
   iso        0.124663D+02      0.184732D+01      0.205542D+01
   aniso      0.171195D+01      0.253685D+00      0.282263D+00
   xx         0.136076D+02      0.201645D+01      0.224360D+01
   yx         0.390543D-03      0.578725D-04      0.643919D-04
   yy         0.118956D+02      0.176275D+01      0.196133D+01
   zx         0.000000D+00      0.000000D+00      0.000000D+00
   zy         0.000000D+00      0.000000D+00      0.000000D+00
   zz         0.118958D+02      0.176277D+01      0.196135D+01

 ----------------------------------------------------------------------

 Dipole orientation:
     7         -0.43776550         -0.72256173         -1.62641244
     1         -0.43778669         -2.50072697         -0.92381194
     1         -1.97769118          0.16653924         -0.92381194
     1          1.10218136          0.16650254         -0.92381194

 Electric dipole moment (dipole orientation):
 (Debye = 10**-18 statcoulomb cm , SI units = C m)
                  (au)            (Debye)         (10**-30 SI)
   Tot        0.635160D+00      0.161442D+01      0.538511D+01
   x          0.000000D+00      0.000000D+00      0.000000D+00
   y          0.000000D+00      0.000000D+00      0.000000D+00
   z          0.635160D+00      0.161442D+01      0.538511D+01

 Dipole polarizability, Alpha (dipole orientation).
 (esu units = cm**3 , SI units = C**2 m**2 J**-1)
 Alpha(0;0):
               (au)            (10**-24 esu)      (10**-40 SI)
   iso        0.124663D+02      0.184732D+01      0.205542D+01
   aniso      0.171195D+01      0.253685D+00      0.282263D+00
   xx         0.118958D+02      0.176277D+01      0.196135D+01
   yx         0.000000D+00      0.000000D+00      0.000000D+00
   yy         0.118956D+02      0.176275D+01      0.196133D+01
   zx         0.000000D+00      0.000000D+00      0.000000D+00
   zy         0.411166D-03      0.609286D-04      0.677922D-04
   zz         0.136076D+02      0.201645D+01      0.224360D+01

 ----------------------------------------------------------------------
 1\1\GINC-CCLEARMO\Freq\RwB97XD\6-311+G(2d,2p)\H3N1\TROUPPER\04-Oct-202
 6\0\\#N Geom=AllCheck Guess=TCheck SCRF=Check GenChk RwB97XD/6-311+G(2
 d,2p) Freq\\opt freq\\0,1\N,-0.8606650028,-0.3823556225,0.2316509187\H
 ,-0.4888761652,-1.3233246237,0.2316507976\H,-0.4888591645,0.0881220543
 ,1.046550161\H,-0.488859161,0.0881222655,-0.5832482001\\Version=EM64M-
 G16RevA.03\State=1-A1\HF=-56.5641292\RMSD=2.042e-10\RMSF=1.844e-04\Zer
 oPoint=0.0346441\Thermal=0.0375133\Dipole=0.6351605,-0.0000077,0.\Dipo
 leDeriv=-0.607107,-0.0001551,0.,-0.0000833,-0.3927781,0.,0.,0.,-0.3926
 058,0.2023233,0.1346268,0.,0.1087239,0.0959014,0.,0.,0.,0.1654122,0.20
 23554,-0.0672753,-0.1166406,-0.0543418,0.1482375,-0.0300123,-0.0941873
 ,-0.0300318,0.113439,0.2023554,-0.0672753,0.1166406,-0.0543418,0.14823
 75,0.0300123,0.0941873,0.0300318,0.113439\Polar=13.6076481,0.0003905,1
 1.895636,0.,0.,11.8957563\Quadrupole=-1.5918117,0.7959058,0.7959058,0.
 0000288,0.,0.\PG=C03V [C3(N1),3SGV(H1)]\NImag=0\\0.21343949,-0.0000376
 6,0.66300318,0.,0.,0.66299108,-0.07116054,0.17457213,0.00000002,0.0698
 0888,0.12040011,-0.38093867,-0.00000004,-0.14044562,0.41509422,0.00000
 002,-0.00000004,-0.06115129,-0.00000002,0.00000005,0.05942579,-0.07115
 267,-0.08727798,-0.15118413,0.00067583,0.01001819,0.01392450,0.0698139
 5,-0.06019198,-0.14106383,-0.13845115,-0.01706874,-0.01707168,-0.03370
 960,0.07022582,0.14834032,-0.10427861,-0.13846034,-0.30095456,-0.00171
 371,0.00265650,0.00085666,0.12163494,0.15400600,0.32617462,-0.07115267
 ,-0.08727802,0.15118411,0.00067583,0.01001819,-0.01392450,0.00067608,0
 .00705023,-0.01563886,0.06981395,-0.06019201,-0.14106390,0.13845119,-0
 .01706874,-0.01707169,0.03370960,0.00705023,0.00982070,-0.01818276,0.0
 7022585,0.14834040,0.10427860,0.13846038,-0.30095449,0.00171371,-0.002
 65650,0.00085666,0.01563887,0.01818277,-0.02603599,-0.12163492,-0.1540
 0604,0.32617453\\-0.00022597,0.,0.,0.00007532,-0.00033659,0.,0.0000753
 3,0.00016829,0.00029150,0.00007533,0.00016829,-0.00029150\\\@


 DESK:  A WASTEBASKET WITH DRAWERS.
 Job cpu time:       0 days  0 hours  2 minutes  3.4 seconds.
 Elapsed time:       0 days  0 hours  0 minutes  5.8 seconds.
 File lengths (MBytes):  RWF=      6 Int=      0 D2E=      0 Chk=      1 Scr=      1
 Normal termination of Gaussian 16 at Sun Oct  4 12:16:47 2026.
